
#######################################################################
#
#                 Cambridge Crystallographic Data Centre
#                                CCDC 
#
#######################################################################
#
# If this CIF has been generated from an entry in the Cambridge 
# Structural Database, then it will include bibliographic, chemical, 
# crystal, experimental, refinement or atomic coordinate data resulting 
# from the CCDC's data processing and validation procedures.
#
#######################################################################

data_AGUHUG
_audit_creation_date             2010-09-15
_database_code_depnum_ccdc_archive 'CCDC 701401'
_database_code_CSD               AGUHUG
_chemical_formula_moiety         'C10 H11 N4 O2'
_chemical_name_systematic        
'6-(2-Hydroxyphenyl)-2,4-dimethyl-1,4-dihydro-1,2,4,5-tetrazin-3(2H)-one radical'
_journal_coden_Cambridge         580
_journal_volume                  29
_journal_year                    2010
_journal_page_first              342
_journal_name_full               Polyhedron
_journal_paper_doi               10.1016/j.poly.2009.05.065
loop_
_publ_author_name
L.Norel
L.-M.Chamoreau
C.Train
_chemical_absolute_configuration unk
_diffrn_ambient_temperature      200
_exptl_crystal_density_diffrn    1.364
#These two values have been output from a single CSD field.
_refine_ls_R_factor_gt           0.0629
_refine_ls_wR_factor_gt          0.0629
_diffrn_radiation_probe          x-ray
_symmetry_cell_setting           monoclinic
_symmetry_space_group_name_H-M   'C 2/c'
_symmetry_Int_Tables_number      15
_space_group_name_Hall           '-C 2yn'
loop_
_symmetry_equiv_pos_site_id
_symmetry_equiv_pos_as_xyz
1 x,y,z
2 -x,y,1/2-z
3 1/2+x,1/2+y,z
4 1/2-x,1/2+y,1/2-z
5 -x,-y,-z
6 x,-y,1/2+z
7 1/2-x,1/2-y,-z
8 1/2+x,1/2-y,1/2+z
_cell_length_a                   8.6817(12)
_cell_length_b                   20.022(4)
_cell_length_c                   6.866(3)
_cell_angle_alpha                90
_cell_angle_beta                 116.59(3)
_cell_angle_gamma                90
_cell_volume                     1067.25
_exptl_crystal_colour            red
_exptl_crystal_description       plate-like
_cell_formula_units_Z            4
loop_
_atom_site_label
_atom_site_type_symbol
_atom_site_fract_x
_atom_site_fract_y
_atom_site_fract_z
N1 N 0.6537(2) 0.04762(9) 0.8275(3)
N2 N 0.6497(2) 0.11632(9) 0.8269(3)
O1 O 0.5000 0.21579(11) 0.7500
C1 C 0.5000 0.15443(15) 0.7500
C2 C 0.5000 0.01673(14) 0.7500
C3 C 0.5000 -0.05774(14) 0.7500
C4 C 0.6559(3) -0.09393(11) 0.8208(4)
O2 O 0.8101(4) -0.06735(17) 0.8911(7)
H2 H 0.8081 -0.0261 0.9135
C5 C 0.6546(4) -0.16407(12) 0.8196(4)
H3 H 0.7575 -0.1875 0.8654
C6 C 0.5000 -0.19864(17) 0.7500
H4 H 0.5000 -0.2451 0.7500
C7 C 0.8192(3) 0.14914(13) 0.9162(5)
H5 H 0.8069 0.1953 0.9441
H6 H 0.8655 0.1459 0.8130
H7 H 0.8958 0.1276 1.0496
N1A N 0.3463(2) 0.04762(9) 0.6725(3)
N2A N 0.3503(2) 0.11632(9) 0.6731(3)
C4A C 0.3441(3) -0.09393(11) 0.6792(4)
O2A O 0.1899(4) -0.06735(17) 0.6089(7)
H2A H 0.1919 -0.0261 0.5865
C5A C 0.3454(4) -0.16407(12) 0.6804(4)
H3A H 0.2425 -0.1875 0.6346
C7A C 0.1808(3) 0.14914(13) 0.5838(5)
H5A H 0.1931 0.1953 0.5559
H6A H 0.1345 0.1459 0.6870
H7A H 0.1042 0.1276 0.4504
H1? H 0.7598 -0.0711 0.8685
loop_
_geom_bond_atom_site_label_1
_geom_bond_atom_site_label_2
_geom_bond_site_symmetry_1
_geom_bond_site_symmetry_2
N1 N2 1_555 1_555
N2 C1 1_555 1_555
O1 C1 1_555 1_555
C1 N2A 1_555 1_555
C2 N1 1_555 1_555
C3 C2 1_555 1_555
C4 C3 1_555 1_555
O2 C4 1_555 1_555
H2 O2 1_555 1_555
C5 C4 1_555 1_555
H3 C5 1_555 1_555
C6 C5 1_555 1_555
H4 C6 1_555 1_555
C7 N2 1_555 1_555
H5 C7 1_555 1_555
H6 C7 1_555 1_555
H7 C7 1_555 1_555
N1A C2 1_555 1_555
N2A N1A 1_555 1_555
C4A C3 1_555 1_555
O2A C4A 1_555 1_555
H2A O2A 1_555 1_555
C5A C6 1_555 1_555
H3A C5A 1_555 1_555
C7A N2A 1_555 1_555
H5A C7A 1_555 1_555
H6A C7A 1_555 1_555
H7A C7A 1_555 1_555
C4A C5A 1_555 1_555

#END
