
#######################################################################
#
#                 Cambridge Crystallographic Data Centre
#                                CCDC 
#
#######################################################################
#
# If this CIF has been generated from an entry in the Cambridge 
# Structural Database, then it will include bibliographic, chemical, 
# crystal, experimental, refinement or atomic coordinate data resulting 
# from the CCDC's data processing and validation procedures.
#
#######################################################################

data_ALOVOO
_audit_creation_date             2016-05-18
_database_code_depnum_ccdc_archive 'CCDC 1475906'
_database_code_CSD               ALOVOO
_chemical_formula_moiety         'C10 H14 O2'
_chemical_name_systematic        "[1,1'-bi(cyclopentane)]-3,3'-dione"
_journal_coden_Cambridge         1078
_journal_year                    2016
_journal_name_full               'CSD Communication'
loop_
_publ_author_name
M.E.Light
S.Bain
J.Kilburn
_chemical_absolute_configuration unk
_diffrn_ambient_temperature      293
_exptl_crystal_density_diffrn    1.217
#These two values have been output from a single CSD field.
_refine_ls_R_factor_gt           0.0474
_refine_ls_wR_factor_gt          0.0474
_diffrn_radiation_probe          x-ray
_symmetry_cell_setting           monoclinic
_symmetry_space_group_name_H-M   'P 21/n'
_symmetry_Int_Tables_number      14
_space_group_name_Hall           '-P 2yn'
loop_
_symmetry_equiv_pos_site_id
_symmetry_equiv_pos_as_xyz
1 x,y,z
2 1/2-x,1/2+y,1/2-z
3 -x,-y,-z
4 1/2+x,1/2-y,1/2+z
_cell_length_a                   6.1047(4)
_cell_length_b                   7.7675(6)
_cell_length_c                   9.6052(8)
_cell_angle_alpha                90
_cell_angle_beta                 95.215(5)
_cell_angle_gamma                90
_cell_volume                     453.577
_exptl_crystal_colour            colorless
_exptl_crystal_description       Blade
_cell_formula_units_Z            2
loop_
_atom_site_label
_atom_site_type_symbol
_atom_site_fract_x
_atom_site_fract_y
_atom_site_fract_z
C1 C 0.6694(2) 0.36124(17) 0.58329(14)
C2 C 0.8058(3) 0.31152(19) 0.46586(18)
H1 H 0.954132 0.280380 0.501902
H2 H 0.813021 0.405322 0.399766
C3 C 0.6828(7) 0.1544(4) 0.3962(4)
H3 H 0.564501 0.190776 0.328313
H4 H 0.782418 0.080337 0.350602
C4 C 0.5935(9) 0.0639(6) 0.5208(5)
H5 H 0.713715 0.003811 0.575309
C5 C 0.5139(2) 0.21614(16) 0.60726(14)
H6 H 0.363846 0.247392 0.575270
H7 H 0.520597 0.186642 0.705691
O1 O 0.68120(18) 0.49765(12) 0.64553(12)
C1B C 0.3306(2) -0.36124(17) 0.41671(14)
C2B C 0.1942(3) -0.31152(19) 0.53414(18)
H1B H 0.045868 -0.280380 0.498098
H2B H 0.186979 -0.405322 0.600234
C3B C 0.3172(7) -0.1544(4) 0.6038(4)
H3B H 0.435499 -0.190776 0.671687
H4B H 0.217582 -0.080337 0.649398
C4B C 0.4065(9) -0.0639(6) 0.4792(5)
H5B H 0.286285 -0.003811 0.424691
C5B C 0.4861(2) -0.21614(16) 0.39274(14)
H6B H 0.636154 -0.247392 0.424730
H7B H 0.479403 -0.186642 0.294309
O1B O 0.31880(18) -0.49765(12) 0.35447(12)
H8? H 0.959321 0.341902 0.487295
H9? H 0.750890 0.365009 0.378320
C6? C 0.7732(10) 0.1142(6) 0.4613(8)
H10? H 0.804581 0.067645 0.371507
H11? H 0.867110 0.057996 0.534568
C7? C 0.5316(13) 0.0919(9) 0.4844(8)
H12? H 0.439998 0.133784 0.402304
H13? H 0.364583 0.258590 0.608281
H14? H 0.556220 0.159235 0.695514
loop_
_geom_bond_atom_site_label_1
_geom_bond_atom_site_label_2
_geom_bond_site_symmetry_1
_geom_bond_site_symmetry_2
C1 C2 1_555 1_555
C2 H1 1_555 1_555
H2 C2 1_555 1_555
C3 C2 1_555 1_555
H3 C3 1_555 1_555
H4 C3 1_555 1_555
C4 C3 1_555 1_555
H5 C4 1_555 1_555
C5 C1 1_555 1_555
H6 C5 1_555 1_555
H7 C5 1_555 1_555
O1 C1 1_555 1_555
C1B C2B 1_555 1_555
C2B H1B 1_555 1_555
H2B C2B 1_555 1_555
C3B C2B 1_555 1_555
H3B C3B 1_555 1_555
H4B C3B 1_555 1_555
C4B C4 1_555 1_555
H5B C4B 1_555 1_555
C5B C1B 1_555 1_555
H6B C5B 1_555 1_555
H7B C5B 1_555 1_555
O1B C1B 1_555 1_555
C4 C5 1_555 1_555
C3B C4B 1_555 1_555
C4B C5B 1_555 1_555

#END
