
#######################################################################
#
#                 Cambridge Crystallographic Data Centre
#                                CCDC 
#
#######################################################################
#
# If this CIF has been generated from an entry in the Cambridge 
# Structural Database, then it will include bibliographic, chemical, 
# crystal, experimental, refinement or atomic coordinate data resulting 
# from the CCDC's data processing and validation procedures.
#
#######################################################################

data_AMOZOT
_audit_creation_date             2016-05-18
_database_code_depnum_ccdc_archive 'CCDC 1431506'
_database_code_CSD               AMOZOT
_chemical_formula_moiety         'C49 H38 B1 F10 O4 P1,1.5(C1 H2 Cl2)'
_chemical_name_systematic        
'methyl 13-mesityl-7-methoxy-1,8,10,12-tetramethyl-5,5-bis(pentafluorophenyl)-3-phenyl-8,13-dihydro-5H-13,5-phosphindolo[2,1-d][2,5,1]benzoxaphosphaborepin13-ium-5-ide-8-carboxylate dichloromethane solvate'
_journal_coden_Cambridge         179
_journal_volume                  55
_journal_year                    2016
_journal_page_first              5526
_journal_name_full               Angew.Chem.,Int.Ed.
_journal_paper_doi               10.1002/anie.201510994
loop_
_publ_author_name
'Guo-Qiang Chen'
G.Kehr
C.G.Daniliuc
C.Muck-Lichtenfeld
G.Erker
_chemical_absolute_configuration unk
_diffrn_ambient_temperature      100
_exptl_crystal_density_diffrn    1.496
#These two values have been output from a single CSD field.
_refine_ls_R_factor_gt           0.0593
_refine_ls_wR_factor_gt          0.0593
_diffrn_radiation_probe          x-ray
_symmetry_cell_setting           triclinic
_symmetry_space_group_name_H-M   'P -1'
_symmetry_Int_Tables_number      2
_space_group_name_Hall           '-P 1'
loop_
_symmetry_equiv_pos_site_id
_symmetry_equiv_pos_as_xyz
1 x,y,z
2 -x,-y,-z
_cell_length_a                   11.8539(4)
_cell_length_b                   13.7706(4)
_cell_length_c                   15.9184(5)
_cell_angle_alpha                79.093(2)
_cell_angle_beta                 78.177(2)
_cell_angle_gamma                67.413(2)
_cell_volume                     2330.61
_exptl_crystal_colour            colorless
_exptl_crystal_description       needle
_cell_formula_units_Z            2
loop_
_atom_site_label
_atom_site_type_symbol
_atom_site_fract_x
_atom_site_fract_y
_atom_site_fract_z
P1 P 0.59605(6) 0.66377(6) 0.15046(5)
B1 B 0.6816(3) 0.4767(3) 0.3106(2)
C1 C 0.7182(3) 0.5372(2) 0.13150(19)
O1 O 0.54411(17) 0.54271(17) 0.32986(13)
C2 C 0.7379(3) 0.4602(2) 0.2071(2)
O2 O 0.35344(19) 0.55911(18) 0.30999(14)
C3 C 0.8214(3) 0.3595(3) 0.1933(2)
H1 H 0.8366 0.3068 0.2419
O3 O 0.1623(2) 0.6762(2) 0.15502(16)
C4 C 0.8848(3) 0.3307(2) 0.1117(2)
O4 O 0.22717(18) 0.77057(17) 0.22088(15)
C5 C 0.8631(3) 0.4075(3) 0.0416(2)
H2 H 0.906 0.3893 -0.0138
C6 C 0.7804(3) 0.5114(3) 0.0485(2)
C7 C 0.7679(3) 0.5879(3) -0.0327(2)
H3 H 0.8227 0.5517 -0.0813
H4 H 0.7905 0.6471 -0.026
H5 H 0.6822 0.6149 -0.044
C8 C 0.4685(3) 0.6281(2) 0.1991(2)
C9 C 0.3827(3) 0.6444(2) 0.1347(2)
C10 C 0.4612(3) 0.5741(2) 0.2790(2)
C11 C 0.3408(3) 0.4992(3) 0.3930(2)
H6 H 0.365 0.4244 0.3859
H7 H 0.2546 0.5259 0.4206
H8 H 0.394 0.5065 0.4292
C12 C 0.2449(3) 0.6973(3) 0.1719(2)
C13 C 0.1029(3) 0.8158(3) 0.2645(2)
H9 H 0.0477 0.8559 0.2218
H10 H 0.1009 0.8632 0.3041
H11 H 0.0758 0.7589 0.2975
C14 C 0.5203(3) 0.7424(2) 0.0604(2)
C15 C 0.4161(3) 0.7182(2) 0.0581(2)
C16 C 0.3484(3) 0.7620(3) -0.0110(2)
H12 H 0.2807 0.7424 -0.0134
C17 C 0.3795(3) 0.8335(3) -0.0756(2)
C18 C 0.4773(3) 0.8633(3) -0.0694(2)
H13 H 0.4955 0.9156 -0.1122
C19 C 0.5497(3) 0.8195(2) -0.0029(2)
C20 C 0.4000(3) 0.5391(3) 0.1057(2)
H14 H 0.3535 0.5529 0.0576
H15 H 0.3695 0.4956 0.1541
H16 H 0.4878 0.5015 0.0867
C21 C 0.3088(3) 0.8796(3) -0.1511(2)
H17 H 0.3633 0.856 -0.2044
H18 H 0.2781 0.9571 -0.1559
H19 H 0.2389 0.8556 -0.1422
C22 C 0.6526(3) 0.8572(3) -0.0021(2)
H20 H 0.7113 0.8431 -0.0554
H21 H 0.6951 0.8196 0.0478
H22 H 0.6186 0.9335 0.002
C23 C 0.6465(3) 0.7404(2) 0.2053(2)
C24 C 0.5566(3) 0.8217(3) 0.2527(2)
C25 C 0.5941(3) 0.8797(3) 0.2962(2)
H23 H 0.5334 0.9329 0.3284
C26 C 0.7177(3) 0.8623(3) 0.2939(2)
C27 C 0.8047(3) 0.7864(2) 0.2444(2)
H24 H 0.8894 0.776 0.2407
C28 C 0.7735(3) 0.7252(2) 0.2000(2)
C29 C 0.4191(3) 0.8498(3) 0.2569(3)
H25 H 0.3957 0.7905 0.2887
H26 H 0.3985 0.864 0.1981
H27 H 0.374 0.913 0.2865
C30 C 0.7591(3) 0.9227(3) 0.3446(2)
H28 H 0.8214 0.8724 0.3794
H29 H 0.6879 0.9644 0.3828
H30 H 0.7947 0.9702 0.3044
C31 C 0.8801(3) 0.6489(3) 0.1470(2)
H31 H 0.9572 0.6571 0.1512
H32 H 0.8666 0.6641 0.0865
H33 H 0.8853 0.5761 0.1692
C32 C 0.6845(3) 0.3601(3) 0.3665(2)
C33 C 0.6146(3) 0.3096(3) 0.3450(2)
F1 F 0.55724(16) 0.35009(14) 0.27404(12)
C34 C 0.5950(3) 0.2214(3) 0.3929(2)
F2 F 0.52275(19) 0.17908(16) 0.36825(14)
C35 C 0.6481(3) 0.1771(3) 0.4668(2)
F3 F 0.6284(2) 0.09234(17) 0.51463(14)
C36 C 0.7201(3) 0.2212(3) 0.4899(2)
F4 F 0.7750(2) 0.17806(18) 0.56117(13)
C37 C 0.7394(3) 0.3097(3) 0.4395(2)
F5 F 0.81629(18) 0.34369(16) 0.46814(13)
C38 C 0.7522(3) 0.5325(3) 0.3535(2)
C39 C 0.8816(3) 0.4961(3) 0.3444(2)
F6 F 0.94936(16) 0.41250(17) 0.29961(14)
C40 C 0.9472(3) 0.5372(3) 0.3796(2)
F7 F 1.07210(18) 0.4971(2) 0.36650(17)
C41 C 0.8867(3) 0.6190(3) 0.4281(2)
F8 F 0.9487(2) 0.66072(18) 0.46375(15)
C42 C 0.7592(3) 0.6568(3) 0.4421(2)
F9 F 0.69739(19) 0.73566(16) 0.49125(13)
C43 C 0.6962(3) 0.6129(3) 0.4048(2)
F10 F 0.57215(16) 0.65630(15) 0.42493(12)
C44 C 0.9757(3) 0.2211(3) 0.1023(2)
C45 C 0.9972(3) 0.1760(3) 0.0268(2)
H34 H 0.9542 0.2156 -0.02
C46 C 1.0812(3) 0.0736(3) 0.0193(3)
H35 H 1.0958 0.0443 -0.033
C47 C 1.1432(3) 0.0142(3) 0.0867(3)
H36 H 1.1995 -0.0562 0.0813
C48 C 1.1231(3) 0.0577(3) 0.1626(2)
H37 H 1.1657 0.0172 0.2094
C49 C 1.0407(3) 0.1602(3) 0.1702(2)
H38 H 1.028 0.1897 0.2222
loop_
_geom_bond_atom_site_label_1
_geom_bond_atom_site_label_2
_geom_bond_site_symmetry_1
_geom_bond_site_symmetry_2
P1 C1 1_555 1_555
B1 O1 1_555 1_555
C1 C2 1_555 1_555
O1 C10 1_555 1_555
C2 B1 1_555 1_555
O2 C10 1_555 1_555
C3 C2 1_555 1_555
H1 C3 1_555 1_555
O3 C12 1_555 1_555
C4 C3 1_555 1_555
O4 C12 1_555 1_555
C5 C4 1_555 1_555
H2 C5 1_555 1_555
C6 C1 1_555 1_555
C7 C6 1_555 1_555
H3 C7 1_555 1_555
H4 C7 1_555 1_555
H5 C7 1_555 1_555
C8 P1 1_555 1_555
C9 C8 1_555 1_555
C10 C8 1_555 1_555
C11 O2 1_555 1_555
H6 C11 1_555 1_555
H7 C11 1_555 1_555
H8 C11 1_555 1_555
C12 C9 1_555 1_555
C13 O4 1_555 1_555
H9 C13 1_555 1_555
H10 C13 1_555 1_555
H11 C13 1_555 1_555
C14 P1 1_555 1_555
C15 C9 1_555 1_555
C16 C15 1_555 1_555
H12 C16 1_555 1_555
C17 C16 1_555 1_555
C18 C17 1_555 1_555
H13 C18 1_555 1_555
C19 C14 1_555 1_555
C20 C9 1_555 1_555
H14 C20 1_555 1_555
H15 C20 1_555 1_555
H16 C20 1_555 1_555
C21 C17 1_555 1_555
H17 C21 1_555 1_555
H18 C21 1_555 1_555
H19 C21 1_555 1_555
C22 C19 1_555 1_555
H20 C22 1_555 1_555
H21 C22 1_555 1_555
H22 C22 1_555 1_555
C23 P1 1_555 1_555
C24 C23 1_555 1_555
C25 C24 1_555 1_555
H23 C25 1_555 1_555
C26 C25 1_555 1_555
C27 C26 1_555 1_555
H24 C27 1_555 1_555
C28 C23 1_555 1_555
C29 C24 1_555 1_555
H25 C29 1_555 1_555
H26 C29 1_555 1_555
H27 C29 1_555 1_555
C30 C26 1_555 1_555
H28 C30 1_555 1_555
H29 C30 1_555 1_555
H30 C30 1_555 1_555
C31 C28 1_555 1_555
H31 C31 1_555 1_555
H32 C31 1_555 1_555
H33 C31 1_555 1_555
C32 B1 1_555 1_555
C33 C32 1_555 1_555
F1 C33 1_555 1_555
C34 C33 1_555 1_555
F2 C34 1_555 1_555
C35 C34 1_555 1_555
F3 C35 1_555 1_555
C36 C35 1_555 1_555
F4 C36 1_555 1_555
C37 C32 1_555 1_555
F5 C37 1_555 1_555
C38 B1 1_555 1_555
C39 C38 1_555 1_555
F6 C39 1_555 1_555
C40 C39 1_555 1_555
F7 C40 1_555 1_555
C41 C40 1_555 1_555
F8 C41 1_555 1_555
C42 C41 1_555 1_555
F9 C42 1_555 1_555
C43 C38 1_555 1_555
F10 C43 1_555 1_555
C44 C4 1_555 1_555
C45 C44 1_555 1_555
H34 C45 1_555 1_555
C46 C45 1_555 1_555
H35 C46 1_555 1_555
C47 C46 1_555 1_555
H36 C47 1_555 1_555
C48 C47 1_555 1_555
H37 C48 1_555 1_555
C49 C44 1_555 1_555
H38 C49 1_555 1_555
C5 C6 1_555 1_555
C14 C15 1_555 1_555
C18 C19 1_555 1_555
C27 C28 1_555 1_555
C36 C37 1_555 1_555
C42 C43 1_555 1_555
C48 C49 1_555 1_555

#END
