
#######################################################################
#
#                 Cambridge Crystallographic Data Centre
#                                CCDC 
#
#######################################################################
#
# If this CIF has been generated from an entry in the Cambridge 
# Structural Database, then it will include bibliographic, chemical, 
# crystal, experimental, refinement or atomic coordinate data resulting 
# from the CCDC's data processing and validation procedures.
#
#######################################################################

data_ASEZEE
_audit_creation_date             2011-09-23
_database_code_depnum_ccdc_archive 'CCDC 815025'
_database_code_CSD               ASEZEE
_chemical_formula_moiety         'C54 H40 O4 S8,C5 H12'
_chemical_name_systematic        
"(R,R)-2-(5,6,21,22-Tetrahydro[1,3]dithiolo[4,5-e]dinaphtho[2,1-k:1',2'-m][1,10,4,7]dioxadithiacyclotetradecin-2-ylidene)-5,6,21,22-tetrahydro[1,3]dithiolo[4,5-e]dinaphtho[2,1-k:1',2'-m][1,10,4,7]dioxadithiacyclotetradecine pentane solvate"
_journal_coden_Cambridge         16
_journal_volume                  67
_journal_year                    2011
_journal_page_first              3820
_journal_name_full               Tetrahedron
_journal_paper_doi               10.1016/j.tet.2011.03.103
loop_
_publ_author_name
A.Saad
O.Jeannin
M.Fourmigue
_chemical_absolute_configuration unk
_diffrn_ambient_temperature      100
_exptl_crystal_density_diffrn    1.352
#These two values have been output from a single CSD field.
_refine_ls_R_factor_gt           0.0264
_refine_ls_wR_factor_gt          0.0264
_diffrn_radiation_probe          x-ray
_symmetry_cell_setting           monoclinic
_symmetry_space_group_name_H-M   'C 2'
_symmetry_Int_Tables_number      5
_space_group_name_Hall           'C 2y'
loop_
_symmetry_equiv_pos_site_id
_symmetry_equiv_pos_as_xyz
1 x,y,z
2 -x,y,-z
3 1/2+x,1/2+y,z
4 1/2-x,1/2+y,-z
_cell_length_a                   39.3170(11)
_cell_length_b                   8.2662(2)
_cell_length_c                   8.2330(2)
_cell_angle_alpha                90
_cell_angle_beta                 96.788(1)
_cell_angle_gamma                90
_cell_volume                     2656.99
_exptl_crystal_colour            yellow
_exptl_crystal_description       prism
_cell_formula_units_Z            2
loop_
_atom_site_label
_atom_site_type_symbol
_atom_site_fract_x
_atom_site_fract_y
_atom_site_fract_z
S1 S 0.048205(10) 0.04659(7) -0.11176(6)
S2 S 0.034345(11) 0.03491(7) 0.23085(6)
S3 S 0.118616(10) 0.19050(6) -0.03338(5)
S4 S 0.099935(11) 0.17568(6) 0.37189(6)
O1 O 0.12711(3) 0.51794(16) 0.15837(14)
O2 O 0.16972(3) 0.26699(16) 0.53773(16)
C1 C 0.01700(4) 0.0424(3) 0.0235(3)
C2 C 0.08113(4) 0.1179(2) 0.0371(2)
C3 C 0.07465(4) 0.1118(2) 0.1944(2)
C4 C 0.10534(5) 0.3948(2) -0.0935(2)
H1 H 0.1236 0.4468 -0.1434
H2 H 0.0855 0.3888 -0.1754
C5 C 0.13950(4) 0.0617(2) 0.3646(2)
H3 H 0.1347 -0.0532 0.3553
H4 H 0.1507 0.0950 0.2711
C6 C 0.09654(4) 0.4977(2) 0.0476(2)
H5 H 0.0879 0.6022 0.0080
H6 H 0.0790 0.4451 0.1025
C7 C 0.16243(5) 0.0973(2) 0.5233(2)
H7 H 0.1511 0.0621 0.6156
H8 H 0.1837 0.0375 0.5249
C8 C 0.12382(4) 0.5848(2) 0.3082(2)
C9 C 0.09377(4) 0.6653(2) 0.3428(2)
H9 H 0.0751 0.6733 0.2626
C10 C 0.09204(4) 0.7317(2) 0.4945(2)
H10 H 0.0722 0.7842 0.5163
C11 C 0.12026(4) 0.7208(2) 0.6183(2)
C12 C 0.11962(5) 0.7913(2) 0.7751(2)
H11 H 0.1004 0.8489 0.7973
C13 C 0.14680(5) 0.7760(2) 0.8942(2)
H12 H 0.1461 0.8247 0.9956
C14 C 0.17591(4) 0.6859(3) 0.8630(2)
H13 H 0.1939 0.6716 0.9456
C15 C 0.17770(4) 0.6196(2) 0.7113(2)
H14 H 0.1971 0.5622 0.6917
C16 C 0.15023(4) 0.6375(2) 0.5837(2)
C17 C 0.15220(4) 0.5726(2) 0.4253(2)
C18 C 0.18428(4) 0.4921(2) 0.38645(19)
C19 C 0.20870(4) 0.5794(2) 0.30601(19)
C20 C 0.20557(4) 0.7489(2) 0.2728(2)
H15 H 0.1866 0.8047 0.3010
C21 C 0.23003(5) 0.8300(2) 0.2005(2)
H16 H 0.2277 0.9407 0.1821
C22 C 0.25888(5) 0.7478(3) 0.1530(2)
H17 H 0.2752 0.8039 0.1022
C23 C 0.26267(4) 0.5846(3) 0.1825(2)
H18 H 0.2815 0.5306 0.1501
C24 C 0.23817(4) 0.4975(2) 0.2619(2)
C25 C 0.24283(4) 0.3327(2) 0.3048(2)
H19 H 0.2615 0.2771 0.2726
C26 C 0.22061(4) 0.2533(2) 0.3926(2)
H20 H 0.2247 0.1463 0.4239
C27 C 0.19117(4) 0.3352(2) 0.4357(2)
S1A S -0.048205(10) 0.04659(7) 0.11176(6)
S2A S -0.034345(11) 0.03491(7) -0.23085(6)
S3A S -0.118616(10) 0.19050(6) 0.03338(5)
S4A S -0.099935(11) 0.17568(6) -0.37189(6)
O1A O -0.12711(3) 0.51794(16) -0.15837(14)
O2A O -0.16972(3) 0.26699(16) -0.53773(16)
C1A C -0.01700(4) 0.0424(3) -0.0235(3)
C2A C -0.08113(4) 0.1179(2) -0.0371(2)
C3A C -0.07465(4) 0.1118(2) -0.1944(2)
C4A C -0.10534(5) 0.3948(2) 0.0935(2)
H1A H -0.1236 0.4468 0.1434
H2A H -0.0855 0.3888 0.1754
C5A C -0.13950(4) 0.0617(2) -0.3646(2)
H3A H -0.1347 -0.0532 -0.3553
H4A H -0.1507 0.0950 -0.2711
C6A C -0.09654(4) 0.4977(2) -0.0476(2)
H5A H -0.0879 0.6022 -0.0080
H6A H -0.0790 0.4451 -0.1025
C7A C -0.16243(5) 0.0973(2) -0.5233(2)
H7A H -0.1511 0.0621 -0.6156
H8A H -0.1837 0.0375 -0.5249
C8A C -0.12382(4) 0.5848(2) -0.3082(2)
C9A C -0.09377(4) 0.6653(2) -0.3428(2)
H9A H -0.0751 0.6733 -0.2626
C10A C -0.09204(4) 0.7317(2) -0.4945(2)
H10A H -0.0722 0.7842 -0.5163
C11A C -0.12026(4) 0.7208(2) -0.6183(2)
C12A C -0.11962(5) 0.7913(2) -0.7751(2)
H11A H -0.1004 0.8489 -0.7973
C13A C -0.14680(5) 0.7760(2) -0.8942(2)
H12A H -0.1461 0.8247 -0.9956
C14A C -0.17591(4) 0.6859(3) -0.8630(2)
H13A H -0.1939 0.6716 -0.9456
C15A C -0.17770(4) 0.6196(2) -0.7113(2)
H14A H -0.1971 0.5622 -0.6917
C16A C -0.15023(4) 0.6375(2) -0.5837(2)
C17A C -0.15220(4) 0.5726(2) -0.4253(2)
C18A C -0.18428(4) 0.4921(2) -0.38645(19)
C19A C -0.20870(4) 0.5794(2) -0.30601(19)
C20A C -0.20557(4) 0.7489(2) -0.2728(2)
H15A H -0.1866 0.8047 -0.3010
C21A C -0.23003(5) 0.8300(2) -0.2005(2)
H16A H -0.2277 0.9407 -0.1821
C22A C -0.25888(5) 0.7478(3) -0.1530(2)
H17A H -0.2752 0.8039 -0.1022
C23A C -0.26267(4) 0.5846(3) -0.1825(2)
H18A H -0.2815 0.5306 -0.1501
C24A C -0.23817(4) 0.4975(2) -0.2619(2)
C25A C -0.24283(4) 0.3327(2) -0.3048(2)
H19A H -0.2615 0.2771 -0.2726
C26A C -0.22061(4) 0.2533(2) -0.3926(2)
H20A H -0.2247 0.1463 -0.4239
C27A C -0.19117(4) 0.3352(2) -0.4357(2)
loop_
_geom_bond_atom_site_label_1
_geom_bond_atom_site_label_2
_geom_bond_site_symmetry_1
_geom_bond_site_symmetry_2
S1 C1 1_555 1_555
S2 C1 1_555 1_555
S3 C2 1_555 1_555
S4 C3 1_555 1_555
O1 C6 1_555 1_555
O2 C7 1_555 1_555
C1 C1A 1_555 1_555
C2 S1 1_555 1_555
C3 S2 1_555 1_555
C4 S3 1_555 1_555
H1 C4 1_555 1_555
H2 C4 1_555 1_555
C5 S4 1_555 1_555
H3 C5 1_555 1_555
H4 C5 1_555 1_555
C6 C4 1_555 1_555
H5 C6 1_555 1_555
H6 C6 1_555 1_555
C7 C5 1_555 1_555
H7 C7 1_555 1_555
H8 C7 1_555 1_555
C8 O1 1_555 1_555
C9 C8 1_555 1_555
H9 C9 1_555 1_555
C10 C9 1_555 1_555
H10 C10 1_555 1_555
C11 C10 1_555 1_555
C12 C11 1_555 1_555
H11 C12 1_555 1_555
C13 C12 1_555 1_555
H12 C13 1_555 1_555
C14 C13 1_555 1_555
H13 C14 1_555 1_555
C15 C14 1_555 1_555
H14 C15 1_555 1_555
C16 C11 1_555 1_555
C17 C8 1_555 1_555
C18 C17 1_555 1_555
C19 C18 1_555 1_555
C20 C19 1_555 1_555
H15 C20 1_555 1_555
C21 C20 1_555 1_555
H16 C21 1_555 1_555
C22 C21 1_555 1_555
H17 C22 1_555 1_555
C23 C22 1_555 1_555
H18 C23 1_555 1_555
C24 C19 1_555 1_555
C25 C24 1_555 1_555
H19 C25 1_555 1_555
C26 C25 1_555 1_555
H20 C26 1_555 1_555
C27 O2 1_555 1_555
S1A C1A 1_555 1_555
S2A C1A 1_555 1_555
S3A C2A 1_555 1_555
S4A C3A 1_555 1_555
O1A C6A 1_555 1_555
O2A C7A 1_555 1_555
C2A S1A 1_555 1_555
C3A S2A 1_555 1_555
C4A S3A 1_555 1_555
H1A C4A 1_555 1_555
H2A C4A 1_555 1_555
C5A S4A 1_555 1_555
H3A C5A 1_555 1_555
H4A C5A 1_555 1_555
C6A C4A 1_555 1_555
H5A C6A 1_555 1_555
H6A C6A 1_555 1_555
C7A C5A 1_555 1_555
H7A C7A 1_555 1_555
H8A C7A 1_555 1_555
C8A O1A 1_555 1_555
C9A C8A 1_555 1_555
H9A C9A 1_555 1_555
C10A C9A 1_555 1_555
H10A C10A 1_555 1_555
C11A C10A 1_555 1_555
C12A C11A 1_555 1_555
H11A C12A 1_555 1_555
C13A C12A 1_555 1_555
H12A C13A 1_555 1_555
C14A C13A 1_555 1_555
H13A C14A 1_555 1_555
C15A C14A 1_555 1_555
H14A C15A 1_555 1_555
C16A C11A 1_555 1_555
C17A C8A 1_555 1_555
C18A C17A 1_555 1_555
C19A C18A 1_555 1_555
C20A C19A 1_555 1_555
H15A C20A 1_555 1_555
C21A C20A 1_555 1_555
H16A C21A 1_555 1_555
C22A C21A 1_555 1_555
H17A C22A 1_555 1_555
C23A C22A 1_555 1_555
H18A C23A 1_555 1_555
C24A C19A 1_555 1_555
C25A C24A 1_555 1_555
H19A C25A 1_555 1_555
C26A C25A 1_555 1_555
H20A C26A 1_555 1_555
C27A O2A 1_555 1_555
C2 C3 1_555 1_555
C15 C16 1_555 1_555
C16 C17 1_555 1_555
C18 C27 1_555 1_555
C23 C24 1_555 1_555
C26 C27 1_555 1_555
C2A C3A 1_555 1_555
C15A C16A 1_555 1_555
C16A C17A 1_555 1_555
C18A C27A 1_555 1_555
C23A C24A 1_555 1_555
C26A C27A 1_555 1_555

#END
