data_x17059 
 
_audit_creation_method            'SHELXL-2016/6' 
# CIF edited on-the-fly by script CIFFIX (S. Parkin, 2000-2016). 
# CIFFIX: http://xray.uky.edu/people/parkin/programs/ciffix 
_audit_update_record              ? 
 
_shelx_SHELXL_version_number      '2016/6' 
 
_publ_section_exptl_refinement 
; 
H atoms were found in difference Fourier maps, but subsequently included 
in the refinement using riding models, with constrained distances set to 
0.94 \%A (C~sp2~H), 0.97 \%A (RCH~3~) and 0.99 \%A (R~3~CH).  U~iso~(H) 
parameters were set to values of either 1.2U~eq~ or 1.5U~eq~ (RCH~3~ only) 
of the attached atom. 
 
Restraints were used to ensure satisfactory refinement of disordered or 
otherwise ill-defined groups (SHELXL commands SAME, SADI, and RIGU). 
; 
 
_publ_section_references 
; 
Bruker-AXS (2006). 
  <i>APEX2</i> Bruker-AXS Inc., Madison, WI, USA. 
 
Hope, H. (1994). 
  <i>Prog. Inorg. Chem.</i> <b>41</b>, 1--19. 
 
Krause, L., Herbst-Irmer, R., Sheldrick, G.M. & Stalke, D. (2015). 
  <i>J. Appl. Cryst.</i> <b>48</b>, 3--10. 
 
Parkin, S. & Hope, H. (1998). 
  <i>J. Appl. Cryst.</i> <b>31</b>, 945--953. 
 
Parkin, S. (2000). 
  <i>Acta Cryst.</i> A<b>56</b>, 157--162. 
 
Parkin, S. (2013). 
  <i>CIFFIX</i>, http://xray.uky.edu/people/parkin/programs/ciffix 
 
Sheldrick, G.M. (2008). 
  <i>Acta Cryst.</i> A<b>64</b>, 112--122. 
 
Sheldrick, G.M. (2015a). 
  <i>Acta Cryst.</i> A<b>71</b>, 3--8. 
 
Sheldrick, G.M. (2015b). 
  <i>Acta Cryst.</i> C<b>71</b>, 3--8. 
 
Spek, A.L. (2009). 
  <i>Acta Cryst.</i> D<b>65</b>, 148--155. 
; 
 
_publ_section_acknowledgements 
; 
The X8 Proteum diffractometer was funded by the NSF (MRI CHE0319176, 70%), 
and by the University of Kentucky (cost share, 30%). 
; 
 
_chemical_name_systematic         ? 
_chemical_name_common             ? 
_chemical_melting_point           ? 
_chemical_formula_moiety          'C44 H54 Ge2' 
_chemical_formula_sum             'C44 H54 Ge2' 
_chemical_formula_weight          728.05 
 
loop_ 
 _atom_type_symbol 
 _atom_type_description 
 _atom_type_scat_dispersion_real 
 _atom_type_scat_dispersion_imag 
 _atom_type_scat_source 
 'C'  'C'   0.0181   0.0091 
 'International Tables Vol C Tables 4.2.6.8 and 6.1.1.4' 
 'H'  'H'   0.0000   0.0000 
 'International Tables Vol C Tables 4.2.6.8 and 6.1.1.4' 
 'Ge'  'Ge'  -1.0885   0.8855 
 'International Tables Vol C Tables 4.2.6.8 and 6.1.1.4' 
 
_space_group_crystal_system       triclinic 
_space_group_IT_number            2 
_space_group_name_H-M_alt         'P -1' 
_space_group_name_Hall            '-P 1' 
 
_shelx_space_group_comment 
; 
The symmetry employed for this shelxl refinement is uniquely defined 
by the following loop, which should always be used as a source of 
symmetry information in preference to the above space-group names. 
They are only intended as comments. 
; 
 
loop_ 
 _space_group_symop_operation_xyz 
 'x, y, z' 
 '-x, -y, -z' 
 
_cell_length_a                    7.7283(6) 
_cell_length_b                    7.7628(6) 
_cell_length_c                    16.8805(13) 
_cell_angle_alpha                 78.077(4) 
_cell_angle_beta                  89.228(4) 
_cell_angle_gamma                 81.788(4) 
_cell_volume                      980.57(13) 
_cell_formula_units_Z             1 
_cell_measurement_temperature     240(2) 
_cell_measurement_reflns_used     9955 
_cell_measurement_theta_min       2.68 
_cell_measurement_theta_max       69.04 
 
_exptl_crystal_description        slab 
_exptl_crystal_colour             blue 
_exptl_crystal_density_meas       ? 
_exptl_crystal_density_method     ? 
_exptl_crystal_density_diffrn     1.233 
_exptl_crystal_F_000              382 
_exptl_transmission_factor_min    ? 
_exptl_transmission_factor_max    ? 
_exptl_crystal_size_max           0.300 
_exptl_crystal_size_mid           0.280 
_exptl_crystal_size_min           0.050 
_exptl_absorpt_coefficient_mu     2.077 
_shelx_estimated_absorpt_T_min    0.575 
_shelx_estimated_absorpt_T_max    0.903 
_exptl_absorpt_correction_type    multi-scan 
_exptl_absorpt_correction_T_min   0.463 
_exptl_absorpt_correction_T_max   0.817 
_exptl_absorpt_process_details    '<i>SADABS</i> (Krause et al., 2015)' 
_exptl_absorpt_special_details 
; 
In addition to absorption, multi-scan techniques also correct other slowly 
varying changes in scale factor over reciprocal space, such as those caused 
by x-ray beam inhomogeneity, goniometer imperfection, crystal decomposition, 
crystal longer than the x-ray beam cross section, absorption by the crystal 
mount etc.  These account, by and large, for much of the difference between 
estimated values of Tmin and Tmax and the _exptl_absorpt_correction_ values. 
; 
 
_exptl_special_details 
; 
The crystal was mounted using polyisobutene oil on the tip of a fine glass 
fibre, which was fastened in a copper mounting pin with electrical solder. 
It was placed directly into the cold gas stream of a liquid-nitrogen based 
cryostat (Hope, 1994; Parkin & Hope, 1998). 
 
The crystals underwent a destructive phase transition when cooled to 90K. 
Visual inspection of crystal integrity and diffraction quality vs temperature 
established a safe temperature for data collection of -33\% C. 
; 
 
_diffrn_ambient_temperature       240(2) 
_diffrn_radiation_wavelength      1.54178 
_diffrn_radiation_type            CuK\a 
_diffrn_source                    'fine-focus rotating anode' 
_diffrn_measurement_device_type   'Bruker X8 Proteum diffractometer' 
_diffrn_measurement_method        '\f and \w scans' 
_diffrn_detector_area_resol_mean  5.6 
_diffrn_reflns_number             11830 
_diffrn_reflns_av_unetI/netI      0.0400 
_diffrn_reflns_av_R_equivalents   0.0392 
_diffrn_reflns_limit_h_min        -9 
_diffrn_reflns_limit_h_max        5 
_diffrn_reflns_limit_k_min        -8 
_diffrn_reflns_limit_k_max        9 
_diffrn_reflns_limit_l_min        -20 
_diffrn_reflns_limit_l_max        20 
_diffrn_reflns_theta_min          2.676 
_diffrn_reflns_theta_max          69.221 
_diffrn_reflns_theta_full         67.679 
_diffrn_measured_fraction_theta_max                0.948 
_diffrn_measured_fraction_theta_full               0.963 
_diffrn_reflns_Laue_measured_fraction_max          0.948 
_diffrn_reflns_Laue_measured_fraction_full         0.963 
_diffrn_reflns_point_group_measured_fraction_max   0.948 
_diffrn_reflns_point_group_measured_fraction_full  0.963 
 
_reflns_number_total              3482 
_reflns_number_gt                 3208 
_reflns_threshold_expression      'I > 2\s(I)' 
_reflns_Friedel_coverage          0.000 
_reflns_Friedel_fraction_max      . 
_reflns_Friedel_fraction_full     . 
_reflns_special_details 
; 
Reflections were merged by SHELXL according to the crystal 
class for the calculation of statistics and refinement. 
 
_reflns_Friedel_fraction is defined as the number of unique 
Friedel pairs measured divided by the number that would be 
possible theoretically, ignoring centric projections and 
systematic absences. 
; 
 
_computing_data_collection        '<i>APEX2</i> (Bruker-AXS, 2006)' 
_computing_cell_refinement        '<i>APEX2</i> (Bruker-AXS, 2006)' 
_computing_data_reduction         '<i>APEX2</i> (Bruker-AXS, 2006)' 
_computing_structure_solution     '<i>SHELXT</i> (Sheldrick, 2015a)' 
_computing_structure_refinement   '<i>SHELXL-2016/6</i> (Sheldrick, 2015b)' 
_computing_molecular_graphics     '<i>XP in SHELXTL</i> (Sheldrick, 2008)' 
_computing_publication_material 
'<i>SHELX</i> (Sheldrick, 2008) and <i>CIFFIX</i> (Parkin, 2013)' 
 
_refine_special_details 
; 
Refinement progress was checked using <i>Platon</i> (Spek, 2009) and by 
an <i>R</i>-tensor (Parkin, 2000). The final model was further checked 
with the IUCr utility <i>checkCIF</i>. 
; 
_refine_ls_structure_factor_coef  Fsqd 
_refine_ls_matrix_type            full 
_refine_ls_weighting_scheme       calc 
_refine_ls_weighting_details 
'w=1/[\s^2^(Fo^2^)+(0.0378P)^2^+0.7566P] where P=(Fo^2^+2Fc^2^)/3' 
_atom_sites_solution_primary      direct 
_atom_sites_solution_secondary    difmap 
_atom_sites_solution_hydrogens    difmap 
_refine_ls_hydrogen_treatment     constr 
_refine_ls_extinction_method      none 
_refine_ls_extinction_coef        . 
_refine_ls_number_reflns          3482 
_refine_ls_number_parameters      244 
_refine_ls_number_restraints      22 
_refine_ls_R_factor_all           0.0422 
_refine_ls_R_factor_gt            0.0389 
_refine_ls_wR_factor_ref          0.1081 
_refine_ls_wR_factor_gt           0.1058 
_refine_ls_goodness_of_fit_ref    1.155 
_refine_ls_restrained_S_all       1.154 
_refine_ls_shift/su_max           0.000 
_refine_ls_shift/su_mean          0.000 
 
loop_ 
 _atom_site_label 
 _atom_site_type_symbol 
 _atom_site_fract_x 
 _atom_site_fract_y 
 _atom_site_fract_z 
 _atom_site_U_iso_or_equiv 
 _atom_site_adp_type 
 _atom_site_occupancy 
 _atom_site_site_symmetry_order 
 _atom_site_calc_flag 
 _atom_site_refinement_flags_posn 
 _atom_site_refinement_flags_adp 
 _atom_site_refinement_flags_occupancy 
 _atom_site_disorder_assembly 
 _atom_site_disorder_group 
Ge1 Ge 0.20816(4) 0.24935(4) 0.82517(2) 0.04344(14) Uani 1 1 d D . . . . 
C1 C 0.4378(3) 0.4465(4) 0.57991(15) 0.0378(6) Uani 1 1 d . . . . . 
C2 C 0.5457(3) 0.3218(4) 0.54311(16) 0.0377(6) Uani 1 1 d . . . . . 
C3 C 0.5907(3) 0.1427(4) 0.58395(17) 0.0420(6) Uani 1 1 d . . . . . 
H3A H 0.550294 0.106600 0.636710 0.050 Uiso 1 1 calc R U . . . 
C4 C 0.6927(3) 0.0194(4) 0.54816(17) 0.0411(6) Uani 1 1 d . . . . . 
C5 C 0.7370(4) -0.1624(4) 0.5894(2) 0.0518(7) Uani 1 1 d . . . . . 
H5A H 0.697807 -0.199216 0.642338 0.062 Uiso 1 1 calc R U . . . 
C6 C 0.8355(4) -0.2821(5) 0.5525(2) 0.0575(8) Uani 1 1 d . . . . . 
H6A H 0.864498 -0.400666 0.580291 0.069 Uiso 1 1 calc R U . . . 
C7 C 0.8938(4) -0.2300(5) 0.4736(2) 0.0563(8) Uani 1 1 d . . . . . 
H7A H 0.960874 -0.314793 0.449039 0.068 Uiso 1 1 calc R U . . . 
C8 C 0.8558(4) -0.0603(4) 0.43192(19) 0.0494(7) Uani 1 1 d . . . . . 
H8A H 0.897709 -0.028471 0.379140 0.059 Uiso 1 1 calc R U . . . 
C9 C 0.7517(3) 0.0722(4) 0.46769(17) 0.0409(6) Uani 1 1 d . . . . . 
C10 C 0.7098(3) 0.2471(4) 0.42684(17) 0.0414(6) Uani 1 1 d . . . . . 
H10A H 0.750806 0.281650 0.374082 0.050 Uiso 1 1 calc R U . . . 
C11 C 0.6073(3) 0.3741(4) 0.46258(16) 0.0385(6) Uani 1 1 d . . . . . 
C12 C 0.3707(4) 0.3896(4) 0.65838(17) 0.0420(6) Uani 1 1 d . . . . . 
C13 C 0.3119(4) 0.3385(4) 0.72389(18) 0.0472(7) Uani 1 1 d . . . . . 
C14 C -0.0445(4) 0.3252(6) 0.8126(2) 0.0644(9) Uani 1 1 d . . . . . 
H14A H -0.099678 0.278895 0.864435 0.077 Uiso 1 1 calc R U . . . 
C15 C -0.1223(6) 0.2512(9) 0.7469(3) 0.1031(18) Uani 1 1 d . . . . . 
H15A H -0.245250 0.299354 0.739260 0.155 Uiso 1 1 calc R U . . . 
H15B H -0.109994 0.122606 0.762748 0.155 Uiso 1 1 calc R U . . . 
H15C H -0.061420 0.284477 0.696647 0.155 Uiso 1 1 calc R U . . . 
C16 C -0.0824(6) 0.5279(7) 0.7957(3) 0.0888(14) Uani 1 1 d . . . . . 
H16A H -0.206889 0.565456 0.786120 0.133 Uiso 1 1 calc R U . . . 
H16B H -0.019202 0.576569 0.748199 0.133 Uiso 1 1 calc R U . . . 
H16C H -0.045287 0.570411 0.841926 0.133 Uiso 1 1 calc R U . . . 
C17 C 0.3072(5) 0.3601(5) 0.9070(2) 0.0589(8) Uani 1 1 d . . . . . 
H17A H 0.275652 0.490259 0.888294 0.071 Uiso 1 1 calc R U . . . 
C18 C 0.2239(6) 0.3127(7) 0.9883(2) 0.0855(13) Uani 1 1 d . . . . . 
H18A H 0.267758 0.377282 1.025337 0.128 Uiso 1 1 calc R U . . . 
H18B H 0.252313 0.185821 1.009571 0.128 Uiso 1 1 calc R U . . . 
H18C H 0.098035 0.344368 0.982397 0.128 Uiso 1 1 calc R U . . . 
C19 C 0.5012(6) 0.3246(9) 0.9106(3) 0.1023(17) Uani 1 1 d . . . . . 
H19A H 0.544348 0.384947 0.949493 0.153 Uiso 1 1 calc R U . . . 
H19B H 0.547058 0.367996 0.857554 0.153 Uiso 1 1 calc R U . . . 
H19C H 0.538836 0.197557 0.926971 0.153 Uiso 1 1 calc R U . . . 
C20 C 0.2906(17) -0.0126(10) 0.8613(6) 0.055(3) Uani 0.52(2) 1 d D . P A 1 
H20' H 0.399670 -0.026151 0.893462 0.066 Uiso 0.52(2) 1 calc R U P A 1 
C21 C 0.160(2) -0.103(3) 0.9153(10) 0.073(4) Uani 0.52(2) 1 d D . P A 1 
H21A H 0.202323 -0.229448 0.930727 0.109 Uiso 0.52(2) 1 calc R U P A 1 
H21B H 0.049117 -0.085470 0.886522 0.109 Uiso 0.52(2) 1 calc R U P A 1 
H21C H 0.144792 -0.053050 0.963420 0.109 Uiso 0.52(2) 1 calc R U P A 1 
C22 C 0.333(3) -0.1048(16) 0.7906(7) 0.105(6) Uani 0.52(2) 1 d D . P A 1 
H22A H 0.372788 -0.230195 0.811104 0.157 Uiso 0.52(2) 1 calc R U P A 1 
H22B H 0.423944 -0.051434 0.758477 0.157 Uiso 0.52(2) 1 calc R U P A 1 
H22C H 0.228786 -0.091392 0.757118 0.157 Uiso 0.52(2) 1 calc R U P A 1 
C20' C 0.2380(19) -0.0110(14) 0.8336(11) 0.080(4) Uani 0.48(2) 1 d D . P A 2 
H20A H 0.176106 -0.028688 0.785537 0.096 Uiso 0.48(2) 1 calc R U P A 2 
C21' C 0.144(4) -0.097(4) 0.9038(17) 0.147(12) Uani 0.48(2) 1 d D . P A 2 
H21D H 0.137034 -0.218910 0.900163 0.221 Uiso 0.48(2) 1 calc R U P A 2 
H21F H 0.026764 -0.032712 0.904341 0.221 Uiso 0.48(2) 1 calc R U P A 2 
H21G H 0.205885 -0.095996 0.953285 0.221 Uiso 0.48(2) 1 calc R U P A 2 
C22' C 0.4266(17) -0.083(2) 0.8238(13) 0.104(5) Uani 0.48(2) 1 d D . P A 2 
H22D H 0.501069 -0.017817 0.848582 0.156 Uiso 0.48(2) 1 calc R U P A 2 
H22F H 0.452373 -0.070106 0.766645 0.156 Uiso 0.48(2) 1 calc R U P A 2 
H22G H 0.448029 -0.208067 0.849870 0.156 Uiso 0.48(2) 1 calc R U P A 2 
 
loop_ 
 _atom_site_aniso_label 
 _atom_site_aniso_U_11 
 _atom_site_aniso_U_22 
 _atom_site_aniso_U_33 
 _atom_site_aniso_U_23 
 _atom_site_aniso_U_13 
 _atom_site_aniso_U_12 
Ge1 0.0445(2) 0.0436(2) 0.0419(2) -0.00803(14) 0.00263(13) -0.00678(14) 
C1 0.0315(13) 0.0456(15) 0.0374(13) -0.0101(11) -0.0045(10) -0.0066(11) 
C2 0.0313(12) 0.0434(15) 0.0402(13) -0.0120(11) -0.0051(10) -0.0060(11) 
C3 0.0375(14) 0.0470(16) 0.0418(14) -0.0088(12) -0.0050(11) -0.0072(12) 
C4 0.0335(13) 0.0443(16) 0.0472(15) -0.0132(12) -0.0093(11) -0.0043(12) 
C5 0.0469(17) 0.0520(18) 0.0562(18) -0.0115(14) -0.0066(13) -0.0048(14) 
C6 0.0527(18) 0.0503(19) 0.068(2) -0.0135(15) -0.0123(15) -0.0003(15) 
C7 0.0459(17) 0.057(2) 0.070(2) -0.0257(16) -0.0102(14) 0.0014(15) 
C8 0.0413(15) 0.0564(19) 0.0536(17) -0.0218(14) -0.0077(12) -0.0018(14) 
C9 0.0303(13) 0.0465(16) 0.0490(15) -0.0165(12) -0.0079(11) -0.0055(11) 
C10 0.0336(13) 0.0532(17) 0.0400(14) -0.0150(12) -0.003(1) -0.0067(12) 
C11 0.0302(12) 0.0458(16) 0.0411(14) -0.0121(11) -0.0059(10) -0.0057(11) 
C12 0.0372(14) 0.0461(16) 0.0429(15) -0.0114(12) -0.0032(11) -0.0029(12) 
C13 0.0466(16) 0.0471(17) 0.0472(16) -0.0105(12) 0.0003(12) -0.0030(13) 
C14 0.0523(19) 0.090(3) 0.0507(18) -0.0148(17) 0.0016(14) -0.0097(18) 
C15 0.072(3) 0.164(6) 0.079(3) -0.035(3) -0.008(2) -0.021(3) 
C16 0.069(3) 0.101(4) 0.083(3) -0.007(2) -0.002(2) 0.018(2) 
C17 0.062(2) 0.065(2) 0.0547(19) -0.0163(15) 0.0020(15) -0.0181(17) 
C18 0.093(3) 0.115(4) 0.062(2) -0.036(2) 0.009(2) -0.035(3) 
C19 0.069(3) 0.155(5) 0.099(4) -0.054(4) 0.001(2) -0.032(3) 
C20 0.068(6) 0.033(4) 0.062(5) -0.008(3) 0.002(4) -0.002(3) 
C21 0.099(8) 0.048(8) 0.071(6) -0.011(5) 0.016(5) -0.013(7) 
C22 0.170(17) 0.056(5) 0.083(7) -0.014(5) 0.040(8) 0.001(8) 
C20' 0.093(8) 0.067(7) 0.077(9) -0.011(5) 0.010(6) -0.011(6) 
C21' 0.20(2) 0.071(15) 0.17(2) -0.005(13) 0.082(18) -0.030(16) 
C22' 0.109(8) 0.056(7) 0.133(14) 0.001(7) 0.016(8) 0.004(6) 
 
_geom_special_details 
; 
 All esds (except the esd in the dihedral angle between two l.s. planes) 
 are estimated using the full covariance matrix.  The cell esds are taken 
 into account individually in the estimation of esds in distances, angles 
 and torsion angles; correlations between esds in cell parameters are only 
 used when they are defined by crystal symmetry.  An approximate (isotropic) 
 treatment of cell esds is used for estimating esds involving l.s. planes. 
; 
 
loop_ 
 _geom_bond_atom_site_label_1 
 _geom_bond_atom_site_label_2 
 _geom_bond_distance 
 _geom_bond_site_symmetry_2 
 _geom_bond_publ_flag 
Ge1 C13 1.918(3) . ? 
Ge1 C14 1.959(3) . ? 
Ge1 C20' 1.977(11) . ? 
Ge1 C17 1.984(3) . ? 
Ge1 C20 2.010(8) . ? 
C1 C2 1.422(4) . ? 
C1 C12 1.423(4) . ? 
C1 C11 1.425(4) 2_666 ? 
C2 C3 1.415(4) . ? 
C2 C11 1.431(4) . ? 
C3 C4 1.383(4) . ? 
C3 H3A 0.9400 . ? 
C4 C9 1.424(4) . ? 
C4 C5 1.434(4) . ? 
C5 C6 1.362(5) . ? 
C5 H5A 0.9400 . ? 
C6 C7 1.397(5) . ? 
C6 H6A 0.9400 . ? 
C7 C8 1.353(5) . ? 
C7 H7A 0.9400 . ? 
C8 C9 1.441(4) . ? 
C8 H8A 0.9400 . ? 
C9 C10 1.385(4) . ? 
C10 C11 1.404(4) . ? 
C10 H10A 0.9400 . ? 
C12 C13 1.201(4) . ? 
C14 C15 1.517(6) . ? 
C14 C16 1.526(6) . ? 
C14 H14A 0.9900 . ? 
C15 H15A 0.9700 . ? 
C15 H15B 0.9700 . ? 
C15 H15C 0.9700 . ? 
C16 H16A 0.9700 . ? 
C16 H16B 0.9700 . ? 
C16 H16C 0.9700 . ? 
C17 C19 1.485(6) . ? 
C17 C18 1.507(5) . ? 
C17 H17A 0.9900 . ? 
C18 H18A 0.9700 . ? 
C18 H18B 0.9700 . ? 
C18 H18C 0.9700 . ? 
C19 H19A 0.9700 . ? 
C19 H19B 0.9700 . ? 
C19 H19C 0.9700 . ? 
C20 C21 1.501(11) . ? 
C20 C22 1.523(11) . ? 
C20 H20' 0.9900 . ? 
C21 H21A 0.9700 . ? 
C21 H21B 0.9700 . ? 
C21 H21C 0.9700 . ? 
C22 H22A 0.9700 . ? 
C22 H22B 0.9700 . ? 
C22 H22C 0.9700 . ? 
C20' C21' 1.473(13) . ? 
C20' C22' 1.505(13) . ? 
C20' H20A 0.9900 . ? 
C21' H21D 0.9700 . ? 
C21' H21F 0.9700 . ? 
C21' H21G 0.9700 . ? 
C22' H22D 0.9700 . ? 
C22' H22F 0.9700 . ? 
C22' H22G 0.9700 . ? 
 
loop_ 
 _geom_angle_atom_site_label_1 
 _geom_angle_atom_site_label_2 
 _geom_angle_atom_site_label_3 
 _geom_angle 
 _geom_angle_site_symmetry_1 
 _geom_angle_site_symmetry_3 
 _geom_angle_publ_flag 
C13 Ge1 C14 107.31(14) . . ? 
C13 Ge1 C20' 104.3(5) . . ? 
C14 Ge1 C20' 104.7(5) . . ? 
C13 Ge1 C17 106.60(14) . . ? 
C14 Ge1 C17 110.57(15) . . ? 
C20' Ge1 C17 122.4(6) . . ? 
C13 Ge1 C20 109.9(3) . . ? 
C14 Ge1 C20 117.3(4) . . ? 
C17 Ge1 C20 104.8(4) . . ? 
C2 C1 C12 119.6(3) . . ? 
C2 C1 C11 120.2(2) . 2_666 ? 
C12 C1 C11 120.2(2) . 2_666 ? 
C3 C2 C1 121.1(3) . . ? 
C3 C2 C11 118.4(2) . . ? 
C1 C2 C11 120.5(3) . . ? 
C4 C3 C2 121.6(3) . . ? 
C4 C3 H3A 119.2 . . ? 
C2 C3 H3A 119.2 . . ? 
C3 C4 C9 119.5(3) . . ? 
C3 C4 C5 121.5(3) . . ? 
C9 C4 C5 118.9(3) . . ? 
C6 C5 C4 120.5(3) . . ? 
C6 C5 H5A 119.8 . . ? 
C4 C5 H5A 119.8 . . ? 
C5 C6 C7 120.6(3) . . ? 
C5 C6 H6A 119.7 . . ? 
C7 C6 H6A 119.7 . . ? 
C8 C7 C6 121.4(3) . . ? 
C8 C7 H7A 119.3 . . ? 
C6 C7 H7A 119.3 . . ? 
C7 C8 C9 120.6(3) . . ? 
C7 C8 H8A 119.7 . . ? 
C9 C8 H8A 119.7 . . ? 
C10 C9 C4 119.7(3) . . ? 
C10 C9 C8 122.2(3) . . ? 
C4 C9 C8 118.0(3) . . ? 
C9 C10 C11 121.4(3) . . ? 
C9 C10 H10A 119.3 . . ? 
C11 C10 H10A 119.3 . . ? 
C10 C11 C1 121.4(3) . 2_666 ? 
C10 C11 C2 119.3(3) . . ? 
C1 C11 C2 119.3(2) 2_666 . ? 
C13 C12 C1 178.3(3) . . ? 
C12 C13 Ge1 176.3(3) . . ? 
C15 C14 C16 111.3(4) . . ? 
C15 C14 Ge1 111.8(3) . . ? 
C16 C14 Ge1 109.5(3) . . ? 
C15 C14 H14A 108.0 . . ? 
C16 C14 H14A 108.0 . . ? 
Ge1 C14 H14A 108.0 . . ? 
C14 C15 H15A 109.5 . . ? 
C14 C15 H15B 109.5 . . ? 
H15A C15 H15B 109.5 . . ? 
C14 C15 H15C 109.5 . . ? 
H15A C15 H15C 109.5 . . ? 
H15B C15 H15C 109.5 . . ? 
C14 C16 H16A 109.5 . . ? 
C14 C16 H16B 109.5 . . ? 
H16A C16 H16B 109.5 . . ? 
C14 C16 H16C 109.5 . . ? 
H16A C16 H16C 109.5 . . ? 
H16B C16 H16C 109.5 . . ? 
C19 C17 C18 113.4(4) . . ? 
C19 C17 Ge1 112.1(3) . . ? 
C18 C17 Ge1 111.8(3) . . ? 
C19 C17 H17A 106.3 . . ? 
C18 C17 H17A 106.3 . . ? 
Ge1 C17 H17A 106.3 . . ? 
C17 C18 H18A 109.5 . . ? 
C17 C18 H18B 109.5 . . ? 
H18A C18 H18B 109.5 . . ? 
C17 C18 H18C 109.5 . . ? 
H18A C18 H18C 109.5 . . ? 
H18B C18 H18C 109.5 . . ? 
C17 C19 H19A 109.5 . . ? 
C17 C19 H19B 109.5 . . ? 
H19A C19 H19B 109.5 . . ? 
C17 C19 H19C 109.5 . . ? 
H19A C19 H19C 109.5 . . ? 
H19B C19 H19C 109.5 . . ? 
C21 C20 C22 110.1(12) . . ? 
C21 C20 Ge1 111.4(10) . . ? 
C22 C20 Ge1 112.6(8) . . ? 
C21 C20 H20' 107.5 . . ? 
C22 C20 H20' 107.5 . . ? 
Ge1 C20 H20' 107.5 . . ? 
C20 C21 H21A 109.5 . . ? 
C20 C21 H21B 109.5 . . ? 
H21A C21 H21B 109.5 . . ? 
C20 C21 H21C 109.5 . . ? 
H21A C21 H21C 109.5 . . ? 
H21B C21 H21C 109.5 . . ? 
C20 C22 H22A 109.5 . . ? 
C20 C22 H22B 109.5 . . ? 
H22A C22 H22B 109.5 . . ? 
C20 C22 H22C 109.5 . . ? 
H22A C22 H22C 109.5 . . ? 
H22B C22 H22C 109.5 . . ? 
C21' C20' C22' 118.4(16) . . ? 
C21' C20' Ge1 110.6(16) . . ? 
C22' C20' Ge1 110.9(11) . . ? 
C21' C20' H20A 105.3 . . ? 
C22' C20' H20A 105.3 . . ? 
Ge1 C20' H20A 105.3 . . ? 
C20' C21' H21D 109.5 . . ? 
C20' C21' H21F 109.5 . . ? 
H21D C21' H21F 109.5 . . ? 
C20' C21' H21G 109.5 . . ? 
H21D C21' H21G 109.5 . . ? 
H21F C21' H21G 109.5 . . ? 
C20' C22' H22D 109.5 . . ? 
C20' C22' H22F 109.5 . . ? 
H22D C22' H22F 109.5 . . ? 
C20' C22' H22G 109.5 . . ? 
H22D C22' H22G 109.5 . . ? 
H22F C22' H22G 109.5 . . ? 
 
loop_ 
 _geom_torsion_atom_site_label_1 
 _geom_torsion_atom_site_label_2 
 _geom_torsion_atom_site_label_3 
 _geom_torsion_atom_site_label_4 
 _geom_torsion 
 _geom_torsion_site_symmetry_1 
 _geom_torsion_site_symmetry_2 
 _geom_torsion_site_symmetry_3 
 _geom_torsion_site_symmetry_4 
 _geom_torsion_publ_flag 
C12 C1 C2 C3 -1.4(4) . . . . ? 
C11 C1 C2 C3 -179.4(2) 2_666 . . . ? 
C12 C1 C2 C11 176.8(2) . . . . ? 
C11 C1 C2 C11 -1.2(4) 2_666 . . . ? 
C1 C2 C3 C4 178.7(2) . . . . ? 
C11 C2 C3 C4 0.5(4) . . . . ? 
C2 C3 C4 C9 -1.2(4) . . . . ? 
C2 C3 C4 C5 -179.5(3) . . . . ? 
C3 C4 C5 C6 179.0(3) . . . . ? 
C9 C4 C5 C6 0.7(4) . . . . ? 
C4 C5 C6 C7 -0.5(5) . . . . ? 
C5 C6 C7 C8 0.5(5) . . . . ? 
C6 C7 C8 C9 -0.7(5) . . . . ? 
C3 C4 C9 C10 1.5(4) . . . . ? 
C5 C4 C9 C10 179.9(3) . . . . ? 
C3 C4 C9 C8 -179.2(3) . . . . ? 
C5 C4 C9 C8 -0.8(4) . . . . ? 
C7 C8 C9 C10 -179.9(3) . . . . ? 
C7 C8 C9 C4 0.9(4) . . . . ? 
C4 C9 C10 C11 -1.1(4) . . . . ? 
C8 C9 C10 C11 179.6(2) . . . . ? 
C9 C10 C11 C1 -179.1(2) . . . 2_666 ? 
C9 C10 C11 C2 0.4(4) . . . . ? 
C3 C2 C11 C10 -0.1(4) . . . . ? 
C1 C2 C11 C10 -178.3(2) . . . . ? 
C3 C2 C11 C1 179.5(2) . . . 2_666 ? 
C1 C2 C11 C1 1.2(4) . . . 2_666 ? 
 
_refine_diff_density_max    0.639 
_refine_diff_density_min   -0.413 
_refine_diff_density_rms    0.069 
 
