 
data_k03017 
 
_audit_creation_method            SHELXL-97 
_chemical_name_systematic 
; 
 ? 
; 
_chemical_name_common             ? 
_chemical_melting_point           ? 
_chemical_formula_moiety          ? 
_chemical_formula_sum 
 'C44 H50 Cl4 Si2' 
_chemical_formula_weight          776.82 
 
loop_ 
 _atom_type_symbol 
 _atom_type_description 
 _atom_type_scat_dispersion_real 
 _atom_type_scat_dispersion_imag 
 _atom_type_scat_source 
 'C'  'C'   0.0033   0.0016 
 'International Tables Vol C Tables 4.2.6.8 and 6.1.1.4' 
 'H'  'H'   0.0000   0.0000 
 'International Tables Vol C Tables 4.2.6.8 and 6.1.1.4' 
 'Si'  'Si'   0.0817   0.0704 
 'International Tables Vol C Tables 4.2.6.8 and 6.1.1.4' 
 'Cl'  'Cl'   0.1484   0.1585 
 'International Tables Vol C Tables 4.2.6.8 and 6.1.1.4' 
 
_symmetry_cell_setting            monoclinic
_symmetry_space_group_name_H-M    P21/n
 
loop_ 
 _symmetry_equiv_pos_as_xyz 
 'x, y, z' 
 '-x+1/2, y+1/2, -z+1/2' 
 '-x, -y, -z' 
 'x-1/2, -y-1/2, z-1/2' 
 
_cell_length_a                    7.6210(3) 
_cell_length_b                    17.6800(6) 
_cell_length_c                    15.7460(6) 
_cell_angle_alpha                 90.00 
_cell_angle_beta                  98.9260(17) 
_cell_angle_gamma                 90.00 
_cell_volume                      2095.91(14) 
_cell_formula_units_Z             2 
_cell_measurement_temperature     90.0(2) 
_cell_measurement_reflns_used     3973
_cell_measurement_theta_min       1.00
_cell_measurement_theta_max       25.35
 
_exptl_crystal_description        rod
_exptl_crystal_colour             'very dark blue'
_exptl_crystal_size_max           0.40 
_exptl_crystal_size_mid           0.10 
_exptl_crystal_size_min           0.08 
_exptl_crystal_density_meas       ? 
_exptl_crystal_density_diffrn     1.231 
_exptl_crystal_density_method     'not measured' 
_exptl_crystal_F_000              820 
_exptl_absorpt_coefficient_mu     0.369 
_exptl_absorpt_correction_type    multi-scan
_exptl_absorpt_correction_T_min   0.8664 
_exptl_absorpt_correction_T_max   0.9728 
_exptl_absorpt_process_details    'Scalepack (Otwinowski & Minor, 1997)'
 
_exptl_special_details 
; 
 ? 
; 
 
_diffrn_ambient_temperature       90.0(2) 
_diffrn_radiation_wavelength      0.71073 
_diffrn_radiation_type            MoK\a 
_diffrn_radiation_source          'fine-focus sealed tube' 
_diffrn_radiation_monochromator   graphite 
_diffrn_measurement_device_type   'Nonius KappaCCD diffractometer' 
_diffrn_measurement_method        '\w scans at fixed \c = 55\%'
_diffrn_detector_area_resol_mean  18 
_diffrn_standards_number          ?
_diffrn_standards_interval_count  ? 
_diffrn_standards_interval_time   ? 
_diffrn_standards_decay_%         <1
_diffrn_reflns_number             7343 
_diffrn_reflns_av_R_equivalents   0.0534 
_diffrn_reflns_av_sigmaI/netI     0.0731 
_diffrn_reflns_limit_h_min        -9 
_diffrn_reflns_limit_h_max        9 
_diffrn_reflns_limit_k_min        -21 
_diffrn_reflns_limit_k_max        21 
_diffrn_reflns_limit_l_min        -18 
_diffrn_reflns_limit_l_max        18 
_diffrn_reflns_theta_min          1.74 
_diffrn_reflns_theta_max          25.35 
_reflns_number_total              3842 
_reflns_number_gt                 2551 
_reflns_threshold_expression      >2sigma(I) 
 
_computing_data_collection        'COLLECT (Nonius, 1998)' 
_computing_cell_refinement        'SCALEPACK (Otwinowski & Minor, 1997)'
_computing_data_reduction         'DENZO-SMN (Otwinowski & Minor, 1997)'
_computing_structure_solution     'SHELXS-97 (Sheldrick, 1990)' 
_computing_structure_refinement   'SHELXL-97 (Sheldrick, 1997)' 
_computing_molecular_graphics     'XP in Siemens SHELXTL (Sheldrick, 1994)'
_computing_publication_material   
;
SHELX97-2 (Sheldrick, 1997) and local procedures
;
 
_refine_special_details 
; 
 Refinement of F^2^ against ALL reflections.  The weighted R-factor wR and 
 goodness of fit S are based on F^2^, conventional R-factors R are based 
 on F, with F set to zero for negative F^2^. The threshold expression of 
 F^2^ > 2sigma(F^2^) is used only for calculating R-factors(gt) etc. and is 
 not relevant to the choice of reflections for refinement.  R-factors based 
 on F^2^ are statistically about twice as large as those based on F, and R- 
 factors based on ALL data will be even larger. 
; 
 
_refine_ls_structure_factor_coef  Fsqd  
_refine_ls_matrix_type            full 
_refine_ls_weighting_scheme       calc  
_refine_ls_weighting_details 
 'calc w=1/[\s^2^(Fo^2^)+(0.0643P)^2^+0.8594P] where P=(Fo^2^+2Fc^2^)/3' 
_atom_sites_solution_primary      direct 
_atom_sites_solution_secondary    difmap 
_atom_sites_solution_hydrogens    geom 
_refine_ls_hydrogen_treatment     mixed 
_refine_ls_extinction_method      none 
_refine_ls_extinction_coef        ? 
_refine_ls_number_reflns          3842 
_refine_ls_number_parameters      232 
_refine_ls_number_restraints      0 
_refine_ls_R_factor_all           0.0933 
_refine_ls_R_factor_gt            0.0512 
_refine_ls_wR_factor_ref          0.1361 
_refine_ls_wR_factor_gt           0.1193 
_refine_ls_goodness_of_fit_ref    1.024 
_refine_ls_restrained_S_all       1.024 
_refine_ls_shift/su_max           0.000 
_refine_ls_shift/su_mean          0.000 
 
loop_ 
 _atom_site_label 
 _atom_site_type_symbol 
 _atom_site_fract_x 
 _atom_site_fract_y 
 _atom_site_fract_z 
 _atom_site_U_iso_or_equiv 
 _atom_site_adp_type 
 _atom_site_occupancy 
 _atom_site_symmetry_multiplicity 
 _atom_site_calc_flag 
 _atom_site_refinement_flags 
 _atom_site_disorder_assembly 
 _atom_site_disorder_group 
Si1 Si 0.57596(11) 0.17388(5) 0.43539(5) 0.0214(2) Uani 1 1 d . . . 
Cl1 Cl -0.43939(11) 0.42162(5) 0.24383(5) 0.0382(3) Uani 1 1 d . . . 
Cl2 Cl -0.46904(10) 0.59325(5) 0.29774(5) 0.0382(3) Uani 1 1 d . . . 
C1 C 0.5132(4) 0.42175(16) 0.47932(17) 0.0223(7) Uani 1 1 d . . . 
C2 C 0.3520(4) 0.46098(16) 0.45196(16) 0.0217(7) Uani 1 1 d . . . 
C3 C 0.2040(4) 0.42518(17) 0.40336(17) 0.0234(7) Uani 1 1 d . . . 
H3 H 0.2134 0.3736 0.3879 0.028 Uiso 1 1 calc R . . 
C4 C 0.0455(4) 0.46295(17) 0.37748(17) 0.0235(7) Uani 1 1 d . . . 
C5 C -0.1056(4) 0.42779(18) 0.32754(17) 0.0268(7) Uani 1 1 d . . . 
H5 H -0.0979 0.3765 0.3105 0.032 Uiso 1 1 calc R . . 
C6 C -0.2590(4) 0.46598(18) 0.30408(18) 0.0274(7) Uani 1 1 d . . . 
C7 C -0.2738(4) 0.54375(18) 0.32854(18) 0.0274(7) Uani 1 1 d . . . 
C8 C -0.1342(4) 0.57944(17) 0.37612(18) 0.0258(7) Uani 1 1 d . . . 
H8 H -0.1466 0.6305 0.3929 0.031 Uiso 1 1 calc R . . 
C9 C 0.0306(4) 0.54139(17) 0.40127(17) 0.0232(7) Uani 1 1 d . . . 
C10 C 0.1759(4) 0.57743(16) 0.44819(17) 0.0224(7) Uani 1 1 d . . . 
H10 H 0.1652 0.6290 0.4636 0.027 Uiso 1 1 calc R . . 
C11 C 0.3380(4) 0.54026(16) 0.47368(17) 0.0211(7) Uani 1 1 d . . . 
C12 C 0.5267(4) 0.34285(17) 0.46300(17) 0.0213(7) Uani 1 1 d . . . 
C13 C 0.5414(4) 0.27578(17) 0.45169(18) 0.0237(7) Uani 1 1 d . . . 
C14 C 0.5539(4) 0.12441(17) 0.53915(17) 0.0247(7) Uani 1 1 d . . . 
H14 H 0.5873 0.0703 0.5327 0.030 Uiso 1 1 calc R . . 
C15 C 0.6814(4) 0.1570(2) 0.61543(19) 0.0378(9) Uani 1 1 d . . . 
H15A H 0.6508 0.2100 0.6242 0.057 Uiso 1 1 calc R . . 
H15B H 0.8035 0.1540 0.6034 0.057 Uiso 1 1 calc R . . 
H15C H 0.6712 0.1279 0.6674 0.057 Uiso 1 1 calc R . . 
C16 C 0.3646(4) 0.1256(2) 0.5593(2) 0.0374(8) Uani 1 1 d . . . 
H16A H 0.3612 0.1002 0.6144 0.056 Uiso 1 1 calc R . . 
H16B H 0.2857 0.0993 0.5137 0.056 Uiso 1 1 calc R . . 
H16C H 0.3252 0.1781 0.5629 0.056 Uiso 1 1 calc R . . 
C17 C 0.3983(4) 0.14262(16) 0.34511(18) 0.0226(7) Uani 1 1 d . . . 
H17 H 0.2814 0.1490 0.3657 0.027 Uiso 1 1 calc R . . 
C18 C 0.3947(4) 0.19318(18) 0.26548(18) 0.0336(8) Uani 1 1 d . . . 
H18A H 0.5107 0.1913 0.2460 0.050 Uiso 1 1 calc R . . 
H18B H 0.3685 0.2454 0.2802 0.050 Uiso 1 1 calc R . . 
H18C H 0.3028 0.1751 0.2195 0.050 Uiso 1 1 calc R . . 
C19 C 0.4157(4) 0.05860(17) 0.32343(18) 0.0277(7) Uani 1 1 d . . . 
H19A H 0.3151 0.0435 0.2802 0.042 Uiso 1 1 calc R . . 
H19B H 0.4162 0.0282 0.3755 0.042 Uiso 1 1 calc R . . 
H19C H 0.5268 0.0504 0.3007 0.042 Uiso 1 1 calc R . . 
C20 C 0.8054(4) 0.16106(17) 0.4049(2) 0.0294(7) Uani 1 1 d . . . 
H20 H 0.7904 0.1647 0.3408 0.035 Uiso 1 1 calc R . . 
C21 C 0.9372(4) 0.22291(18) 0.4398(2) 0.0373(8) Uani 1 1 d . . . 
H21A H 0.9621 0.2196 0.5026 0.056 Uiso 1 1 calc R . . 
H21B H 0.8863 0.2726 0.4230 0.056 Uiso 1 1 calc R . . 
H21C H 1.0478 0.2162 0.4161 0.056 Uiso 1 1 calc R . . 
C22 C 0.8823(4) 0.08190(17) 0.4286(2) 0.0336(8) Uani 1 1 d . . . 
H22A H 0.9926 0.0752 0.4048 0.050 Uiso 1 1 calc R . . 
H22B H 0.7962 0.0433 0.4048 0.050 Uiso 1 1 calc R . . 
H22C H 0.9069 0.0768 0.4913 0.050 Uiso 1 1 calc R . . 
 
