 
data_k03053 
 
_audit_creation_method            SHELXL-97 
_chemical_name_systematic 
; 
 ? 
; 
_chemical_name_common             ? 
_chemical_melting_point           ? 
_chemical_formula_moiety          ? 
_chemical_formula_sum 
 'C36 H36 Si' 
_chemical_formula_weight          496.74 
 
loop_ 
 _atom_type_symbol 
 _atom_type_description 
 _atom_type_scat_dispersion_real 
 _atom_type_scat_dispersion_imag 
 _atom_type_scat_source 
 'C'  'C'   0.0033   0.0016 
 'International Tables Vol C Tables 4.2.6.8 and 6.1.1.4' 
 'H'  'H'   0.0000   0.0000 
 'International Tables Vol C Tables 4.2.6.8 and 6.1.1.4' 
 'Si'  'Si'   0.0817   0.0704 
 'International Tables Vol C Tables 4.2.6.8 and 6.1.1.4' 
 
_symmetry_cell_setting            triclinic
_symmetry_space_group_name_H-M    'P -1'
 
loop_ 
 _symmetry_equiv_pos_as_xyz 
 'x, y, z' 
 '-x, -y, -z' 
 
_cell_length_a                    8.6290(2) 
_cell_length_b                    10.4440(2) 
_cell_length_c                    10.7620(2) 
_cell_angle_alpha                 65.2230(8) 
_cell_angle_beta                  85.2370(7) 
_cell_angle_gamma                 82.8830(8) 
_cell_volume                      873.30(3) 
_cell_formula_units_Z             1 
_cell_measurement_temperature     90.0(2) 
_cell_measurement_reflns_used     3967
_cell_measurement_theta_min       1.00
_cell_measurement_theta_max       27.48
 
_exptl_crystal_description        'irregular block'
_exptl_crystal_colour             yellow
_exptl_crystal_size_max           0.25 
_exptl_crystal_size_mid           0.20 
_exptl_crystal_size_min           0.10 
_exptl_crystal_density_meas       ? 
_exptl_crystal_density_diffrn     0.945 
_exptl_crystal_density_method     'not measured' 
_exptl_crystal_F_000              266 
_exptl_absorpt_coefficient_mu     0.085 
_exptl_absorpt_correction_type    multi-scan
_exptl_absorpt_correction_T_min   0.9789 
_exptl_absorpt_correction_T_max   0.9915 
_exptl_absorpt_process_details    'Scalepack (Otwinowski & Minor, 1997)'
 
_exptl_special_details 
; 
 ? 
; 
 
_diffrn_ambient_temperature       90.0(2) 
_diffrn_radiation_wavelength      0.71073 
_diffrn_radiation_type            MoK\a 
_diffrn_radiation_source          'fine-focus sealed tube' 
_diffrn_radiation_monochromator   graphite 
_diffrn_measurement_device_type   'Nonius KappaCCD diffractometer' 
_diffrn_measurement_method        '\w scans at fixed \c = 55\%'
_diffrn_detector_area_resol_mean  18 
_diffrn_standards_number          ?
_diffrn_standards_interval_count  ? 
_diffrn_standards_interval_time   ? 
_diffrn_standards_decay_%         <1
_diffrn_reflns_number             7918 
_diffrn_reflns_av_R_equivalents   0.0210 
_diffrn_reflns_av_sigmaI/netI     0.0322 
_diffrn_reflns_limit_h_min        -11 
_diffrn_reflns_limit_h_max        11 
_diffrn_reflns_limit_k_min        -13 
_diffrn_reflns_limit_k_max        13 
_diffrn_reflns_limit_l_min        -13 
_diffrn_reflns_limit_l_max        13 
_diffrn_reflns_theta_min          2.09 
_diffrn_reflns_theta_max          27.48 
_reflns_number_total              4003 
_reflns_number_gt                 3382 
_reflns_threshold_expression      >2sigma(I) 
 
_computing_data_collection        'COLLECT (Nonius, 1998)' 
_computing_cell_refinement        'SCALEPACK (Otwinowski & Minor, 1997)'
_computing_data_reduction         'DENZO-SMN (Otwinowski & Minor, 1997)'
_computing_structure_solution     'SHELXS-97 (Sheldrick, 1990)' 
_computing_structure_refinement   'SHELXL-97 (Sheldrick, 1997)' 
_computing_molecular_graphics     'XP in Siemens SHELXTL (Sheldrick, 1994)'
_computing_publication_material   
;
SHELX97-2 (Sheldrick, 1997) and local procedures
;
 
_refine_special_details 
; 
 Refinement of F^2^ against ALL reflections.  The weighted R-factor wR and 
 goodness of fit S are based on F^2^, conventional R-factors R are based 
 on F, with F set to zero for negative F^2^. The threshold expression of 
 F^2^ > 2sigma(F^2^) is used only for calculating R-factors(gt) etc. and is 
 not relevant to the choice of reflections for refinement.  R-factors based 
 on F^2^ are statistically about twice as large as those based on F, and R- 
 factors based on ALL data will be even larger. 
; 
 
_refine_ls_structure_factor_coef  Fsqd  
_refine_ls_matrix_type            full 
_refine_ls_weighting_scheme       calc  
_refine_ls_weighting_details 
 'calc w=1/[\s^2^(Fo^2^)+(0.0498P)^2^+0.3082P] where P=(Fo^2^+2Fc^2^)/3' 
_atom_sites_solution_primary      direct 
_atom_sites_solution_secondary    difmap 
_atom_sites_solution_hydrogens    geom 
_refine_ls_hydrogen_treatment     mixed 
_refine_ls_extinction_method      none 
_refine_ls_extinction_coef        ? 
_refine_ls_number_reflns          4003 
_refine_ls_number_parameters      188 
_refine_ls_number_restraints      0 
_refine_ls_R_factor_all           0.0495 
_refine_ls_R_factor_gt            0.0398 
_refine_ls_wR_factor_ref          0.1066 
_refine_ls_wR_factor_gt           0.1013 
_refine_ls_goodness_of_fit_ref    1.050 
_refine_ls_restrained_S_all       1.050 
_refine_ls_shift/su_max           0.008 
_refine_ls_shift/su_mean          0.000 
 
loop_ 
 _atom_site_label 
 _atom_site_type_symbol 
 _atom_site_fract_x 
 _atom_site_fract_y 
 _atom_site_fract_z 
 _atom_site_U_iso_or_equiv 
 _atom_site_adp_type 
 _atom_site_occupancy 
 _atom_site_symmetry_multiplicity 
 _atom_site_calc_flag 
 _atom_site_refinement_flags 
 _atom_site_disorder_assembly 
 _atom_site_disorder_group 
Si1 Si 0.07960(4) 0.33812(4) 0.30774(4) 0.02106(11) Uani 1 1 d . . . 
C1 C 0.01462(14) 0.07795(13) 0.07804(12) 0.0183(3) Uani 1 1 d . . . 
C2 C 0.13622(14) 0.07038(13) -0.01610(13) 0.0182(3) Uani 1 1 d . . . 
C3 C 0.27270(15) 0.14272(14) -0.03793(14) 0.0217(3) Uani 1 1 d . . . 
H3 H 0.2823 0.1973 0.0123 0.026 Uiso 1 1 calc R . . 
C4 C 0.38978(15) 0.13566(14) -0.12897(14) 0.0240(3) Uani 1 1 d . . . 
C5 C 0.37647(16) 0.05121(14) -0.20178(14) 0.0246(3) Uani 1 1 d . . . 
H5 H 0.4593 0.0429 -0.2627 0.029 Uiso 1 1 calc R . . 
C6 C 0.24731(15) -0.01795(14) -0.18598(13) 0.0219(3) Uani 1 1 d . . . 
H6 H 0.2409 -0.0727 -0.2367 0.026 Uiso 1 1 calc R . . 
C7 C 0.12170(14) -0.00906(13) -0.09427(13) 0.0182(3) Uani 1 1 d . . . 
C8 C 0.02956(15) 0.15884(14) 0.15506(13) 0.0214(3) Uani 1 1 d . . . 
C9 C 0.04565(15) 0.22859(14) 0.21772(14) 0.0243(3) Uani 1 1 d . . . 
C10 C -0.09937(17) 0.34299(15) 0.41874(15) 0.0274(3) Uani 1 1 d . . . 
H10 H -0.0792 0.3998 0.4698 0.033 Uiso 1 1 calc R . . 
C11 C -0.1325(2) 0.19466(19) 0.52558(18) 0.0449(4) Uani 1 1 d . . . 
H11A H -0.2259 0.2026 0.5813 0.067 Uiso 1 1 calc R . . 
H11B H -0.0430 0.1517 0.5848 0.067 Uiso 1 1 calc R . . 
H11C H -0.1499 0.1351 0.4788 0.067 Uiso 1 1 calc R . . 
C12 C -0.24348(17) 0.41784(19) 0.33260(18) 0.0384(4) Uani 1 1 d . . . 
H12A H -0.2674 0.3641 0.2819 0.058 Uiso 1 1 calc R . . 
H12B H -0.2220 0.5136 0.2679 0.058 Uiso 1 1 calc R . . 
H12C H -0.3329 0.4236 0.3930 0.058 Uiso 1 1 calc R . . 
C13 C 0.10450(16) 0.52145(14) 0.17174(14) 0.0237(3) Uani 1 1 d . . . 
H13 H 0.0123 0.5491 0.1122 0.028 Uiso 1 1 calc R . . 
C14 C 0.10000(16) 0.63263(14) 0.23118(14) 0.0259(3) Uani 1 1 d . . . 
H14A H 0.1847 0.6066 0.2952 0.039 Uiso 1 1 calc R . . 
H14B H -0.0007 0.6364 0.2795 0.039 Uiso 1 1 calc R . . 
H14C H 0.1131 0.7258 0.1567 0.039 Uiso 1 1 calc R . . 
C15 C 0.24996(18) 0.52754(17) 0.07780(15) 0.0326(3) Uani 1 1 d . . . 
H15A H 0.2476 0.6213 0.0012 0.049 Uiso 1 1 calc R . . 
H15B H 0.2510 0.4549 0.0424 0.049 Uiso 1 1 calc R . . 
H15C H 0.3441 0.5102 0.1299 0.049 Uiso 1 1 calc R . . 
C16 C 0.25582(17) 0.24760(15) 0.41604(15) 0.0278(3) Uani 1 1 d . . . 
H16 H 0.2184 0.1637 0.4956 0.033 Uiso 1 1 calc R . . 
C17 C 0.3885(2) 0.1882(2) 0.3452(2) 0.0476(5) Uani 1 1 d . . . 
H17A H 0.4328 0.2665 0.2680 0.071 Uiso 1 1 calc R . . 
H17B H 0.3475 0.1256 0.3116 0.071 Uiso 1 1 calc R . . 
H17C H 0.4701 0.1345 0.4108 0.071 Uiso 1 1 calc R . . 
C18 C 0.31751(18) 0.33909(16) 0.47742(16) 0.0311(3) Uani 1 1 d . . . 
H18A H 0.3984 0.2825 0.5426 0.047 Uiso 1 1 calc R . . 
H18B H 0.2315 0.3730 0.5249 0.047 Uiso 1 1 calc R . . 
H18C H 0.3621 0.4203 0.4040 0.047 Uiso 1 1 calc R . . 
C19 C 0.53088(17) 0.21584(16) -0.15548(16) 0.0311(3) Uani 1 1 d . . . 
H19A H 0.5286 0.2912 -0.2485 0.047 Uiso 1 1 calc R . . 
H19B H 0.6259 0.1509 -0.1460 0.047 Uiso 1 1 calc R . . 
H19C H 0.5302 0.2577 -0.0892 0.047 Uiso 1 1 calc R . . 
 