 
data_k13114s 
 
_audit_creation_method            SHELXL-2013 
# CIF file edited on-the-fly by script CIFFIX (S. Parkin, 2013). 
# CIFFIX: http://xray.uky.edu/people/parkin/programs/ciffix 
 
_publ_section_exptl_refinement 
; 
H atoms were found in difference Fourier maps and subsequently placed 
at idealized positions with constrained distances of 0.98 \%A (RCH~3~), 
1.00 \%A (R~3~CH), 0.95 \%A (C~sp2~H).  U~iso~(H) values were set to 
either 1.2U~eq~ or 1.5U~eq~ (RCH~3~) of the attached atom. 
; 
 
_publ_section_references 
; 
Hope, H. (1994). 
  <i>Prog. Inorg. Chem.</i> <b>41</b>, 1--19. 
 
Nonius (1998). 
  <i>Collect</i> Nonius BV, Delft, The Netherlands. 
 
Otwinowski, Z. & Minor, W. (2006). 
  <i>International Tables for Crystallography</i>, Vol. F, ch. 11.4, 226--235. 
 
Parkin, S. & Hope, H. (1998). 
  <i>J. Appl. Cryst.</i> <b>31</b>, 945--953. 
 
Parkin, S. (2000). 
  <i>Acta Cryst.</i> A<b>56</b>, 157--162. 
 
Parkin, S. (2013). 
  <i>CIFFIX</i>, http://xray.uky.edu/people/parkin/programs/ciffix 
 
Sheldrick, G.M. (2008). 
  <i>Acta Cryst.</i> <b>A</b>64, 112--122. 
 
Sheldrick, G.M. (2008). 
  <i>SADABS</i> University of G\"ottingen, Germany. 
 
Spek, A.L. (2009). 
  <i>Acta Cryst.</i> <b>D</b>65, 148--155. 
; 
 
_chemical_name_systematic 
; 
 ? 
; 
_chemical_name_common             ? 
_chemical_melting_point           ? 
_chemical_formula_moiety          'C44 H54 Ge2' 
_chemical_formula_sum             'C44 H54 Ge2' 
_chemical_formula_weight          728.05 
 
loop_ 
 _atom_type_symbol 
 _atom_type_description 
 _atom_type_scat_dispersion_real 
 _atom_type_scat_dispersion_imag 
 _atom_type_scat_source 
 'C'  'C'   0.0033   0.0016 
 'International Tables Vol C Tables 4.2.6.8 and 6.1.1.4' 
 'H'  'H'   0.0000   0.0000 
 'International Tables Vol C Tables 4.2.6.8 and 6.1.1.4' 
 'Ge'  'Ge'   0.1547   1.8001 
 'International Tables Vol C Tables 4.2.6.8 and 6.1.1.4' 
 
_space_group_crystal_system       orthorhombic 
_space_group_IT_number            61 
_space_group_name_H-M_alt         'P b c a' 
_space_group_name_Hall            '-P 2ac 2ab' 
 
_shelx_space_group_comment 
; 
The symmetry employed for this shelxl refinement is uniquely defined 
by the following loop, which should always be used as a source of 
symmetry information in preference to the above space-group names. 
They are only intended as comments. 
; 
 
loop_ 
 _space_group_symop_operation_xyz 
 'x, y, z' 
 '-x+1/2, -y, z+1/2' 
 'x+1/2, -y+1/2, -z' 
 '-x, y+1/2, -z+1/2' 
 '-x, -y, -z' 
 'x-1/2, y, -z-1/2' 
 '-x-1/2, y-1/2, z' 
 'x, -y-1/2, z-1/2' 
 
_cell_length_a                    14.4240(2) 
_cell_length_b                    14.7388(2) 
_cell_length_c                    18.0870(3) 
_cell_angle_alpha                 90 
_cell_angle_beta                  90 
_cell_angle_gamma                 90 
_cell_volume                      3845.16(10) 
_cell_formula_units_Z             4 
_cell_measurement_temperature     90.0(2) 
_cell_measurement_reflns_used     4911 
_cell_measurement_theta_min       1.00 
_cell_measurement_theta_max       27.48 
 
_exptl_crystal_description        block 
_exptl_crystal_colour             blue 
_exptl_crystal_density_meas       . 
_exptl_crystal_density_method     . 
_exptl_crystal_density_diffrn     1.258 
_exptl_crystal_F_000              1528 
_exptl_transmission_factor_min    . 
_exptl_transmission_factor_max    . 
_exptl_crystal_size_max           0.250 
_exptl_crystal_size_mid           0.200 
_exptl_crystal_size_min           0.160 
_exptl_absorpt_coefficient_mu     1.592 
_shelx_estimated_absorpt_T_min    0.692 
_shelx_estimated_absorpt_T_max    0.785 
_exptl_absorpt_correction_type    multi-scan 
_exptl_absorpt_correction_T_min   0.638 
_exptl_absorpt_correction_T_max   0.746 
_exptl_absorpt_process_details    'SADABS (Sheldrick, 2008)' 
 
_exptl_special_details 
; 
The crystal was mounted with polyisobutene oil on the tip of a fine glass 
fibre, fastened in a copper mounting pin with electrical solder.  It was 
placed directly into the cold stream of a liquid nitrogen based cryostat, 
according to published methods (Hope, 1994; Parkin & Hope, 1998). 
 
Diffraction data were collected with the crystal at 90K, which is standard 
practice in this laboratory for the majority of flash-cooled crystals. 
; 
 
_diffrn_ambient_temperature       90.0(2) 
_diffrn_radiation_wavelength      0.71073 
_diffrn_radiation_type            MoK\a 
_diffrn_source                    'fine-focus sealed-tube' 
_diffrn_measurement_device_type   'Nonius KappaCCD diffractometer' 
_diffrn_measurement_method        '\f and \w scans at fixed \c = 55\%' 
_diffrn_detector_area_resol_mean  9.1 
_diffrn_reflns_number             51408 
_diffrn_reflns_av_unetI/netI      0.0328 
_diffrn_reflns_av_R_equivalents   0.0576 
_diffrn_reflns_limit_h_min        -18 
_diffrn_reflns_limit_h_max        18 
_diffrn_reflns_limit_k_min        -19 
_diffrn_reflns_limit_k_max        19 
_diffrn_reflns_limit_l_min        -23 
_diffrn_reflns_limit_l_max        23 
_diffrn_reflns_theta_min          2.252 
_diffrn_reflns_theta_max          27.498 
_diffrn_reflns_theta_full         25.242 
_diffrn_measured_fraction_theta_max                1.000 
_diffrn_measured_fraction_theta_full               1.000 
_diffrn_reflns_Laue_measured_fraction_max          1.000 
_diffrn_reflns_Laue_measured_fraction_full         1.000 
_diffrn_reflns_point_group_measured_fraction_max   1.000 
_diffrn_reflns_point_group_measured_fraction_full  1.000 
 
_reflns_number_total              4422 
_reflns_number_gt                 3285 
_reflns_threshold_expression      'I > 2\s(I)' 
_reflns_Friedel_coverage          0.000 
_reflns_Friedel_fraction_max      . 
_reflns_Friedel_fraction_full     . 
 
_reflns_special_details 
; 
Reflections were merged by SHELXL according to the crystal 
class for the calculation of statistics and refinement. 
 
_reflns_Friedel_fraction is defined as the number of unique 
Friedel pairs measured divided by the number that would be 
possible theoretically, ignoring centric projections and 
systematic absences. 
; 
 
_computing_data_collection        'COLLECT (Nonius, 1998)' 
_computing_cell_refinement        'SCALEPACK (Otwinowski & Minor, 2006)' 
_computing_data_reduction         'DENZO-SMN (Otwinowski & Minor, 2006)' 
_computing_structure_solution     'SHELXS-97 (Sheldrick, 2008)' 
_computing_structure_refinement   'SHELXL-2013 (Sheldrick, 2008)' 
_computing_molecular_graphics     'XP in SHELXTL (Sheldrick, 2008)' 
_computing_publication_material 
'SHELX (Sheldrick, 2008) and CIFFIX (Parkin, 2013)' 
 
_refine_special_details 
; 
Refinement progress was checked using routines in Platon (Spek, 2009), 
by the R-tensor (Parkin, 2000), and with the IUCr utility checkCIF. 
; 
 
_refine_ls_structure_factor_coef  Fsqd 
_refine_ls_matrix_type            full 
_refine_ls_weighting_scheme       calc 
_refine_ls_weighting_details 
'w=1/[\s^2^(Fo^2^)+(0.0397P)^2^+2.4541P] where P=(Fo^2^+2Fc^2^)/3' 
_atom_sites_solution_primary      direct 
_atom_sites_solution_secondary    difmap 
_atom_sites_solution_hydrogens    geom 
_refine_ls_hydrogen_treatment     constr 
_refine_ls_extinction_method      none 
_refine_ls_extinction_coef        . 
_refine_ls_number_reflns          4422 
_refine_ls_number_parameters      214 
_refine_ls_number_restraints      0 
_refine_ls_R_factor_all           0.0542 
_refine_ls_R_factor_gt            0.0337 
_refine_ls_wR_factor_ref          0.0834 
_refine_ls_wR_factor_gt           0.0736 
_refine_ls_goodness_of_fit_ref    1.027 
_refine_ls_restrained_S_all       1.027 
_refine_ls_shift/su_max           0.003 
_refine_ls_shift/su_mean          0.000 
 
loop_ 
 _atom_site_label 
 _atom_site_type_symbol 
 _atom_site_fract_x 
 _atom_site_fract_y 
 _atom_site_fract_z 
 _atom_site_U_iso_or_equiv 
 _atom_site_adp_type 
 _atom_site_occupancy 
 _atom_site_site_symmetry_order 
 _atom_site_calc_flag 
 _atom_site_refinement_flags_posn 
 _atom_site_refinement_flags_adp 
 _atom_site_refinement_flags_occupancy 
 _atom_site_disorder_assembly 
 _atom_site_disorder_group 
Ge1 Ge 0.44196(2) 0.35376(2) 0.80466(2) 0.01704(8) Uani 1 1 d . . . . . 
C1 C 0.48458(14) 0.46556(14) 0.57246(10) 0.0162(4) Uani 1 1 d . . . . . 
C2 C 0.55254(13) 0.42459(14) 0.52661(11) 0.0168(4) Uani 1 1 d . . . . . 
C3 C 0.60225(14) 0.34756(14) 0.54929(11) 0.0191(4) Uani 1 1 d . . . . . 
H3 H 0.5898 0.3223 0.5966 0.023 Uiso 1 1 calc R U . . . 
C4 C 0.78294(16) 0.18954(17) 0.48252(13) 0.0298(5) Uani 1 1 d . . . . . 
H4 H 0.8140 0.1358 0.4977 0.036 Uiso 1 1 calc R U . . . 
C5 C 0.71675(15) 0.22624(15) 0.52631(12) 0.0252(5) Uani 1 1 d . . . . . 
H5 H 0.7019 0.1978 0.5719 0.030 Uiso 1 1 calc R U . . . 
C6 C 0.66878(14) 0.30717(14) 0.50510(11) 0.0195(4) Uani 1 1 d . . . . . 
C7 C 0.80642(17) 0.23105(17) 0.41376(13) 0.0320(6) Uani 1 1 d . . . . . 
H7 H 0.8537 0.2052 0.3838 0.038 Uiso 1 1 calc R U . . . 
C8 C 0.76204(16) 0.30675(16) 0.39082(12) 0.0274(5) Uani 1 1 d . . . . . 
H8 H 0.7787 0.3336 0.3449 0.033 Uiso 1 1 calc R U . . . 
C9 C 0.69030(14) 0.34726(14) 0.43451(11) 0.0210(5) Uani 1 1 d . . . . . 
C10 C 0.64058(14) 0.42216(14) 0.41080(11) 0.0194(4) Uani 1 1 d . . . . . 
H10 H 0.6548 0.4480 0.3641 0.023 Uiso 1 1 calc R U . . . 
C11 C 0.56968(13) 0.46117(14) 0.45377(11) 0.0162(4) Uani 1 1 d . . . . . 
C12 C 0.47285(14) 0.43454(14) 0.64696(11) 0.0176(4) Uani 1 1 d . . . . . 
C13 C 0.46478(14) 0.41061(15) 0.71030(11) 0.0187(4) Uani 1 1 d . . . . . 
C14 C 0.31754(14) 0.39357(15) 0.83541(12) 0.0216(5) Uani 1 1 d . . . . . 
H14 H 0.3030 0.3627 0.8833 0.026 Uiso 1 1 calc R U . . . 
C15 C 0.24514(16) 0.36331(18) 0.77913(13) 0.0323(6) Uani 1 1 d . . . . . 
H15A H 0.1837 0.3840 0.7949 0.048 Uiso 1 1 calc R U . . . 
H15B H 0.2454 0.2970 0.7756 0.048 Uiso 1 1 calc R U . . . 
H15C H 0.2598 0.3895 0.7307 0.048 Uiso 1 1 calc R U . . . 
C16 C 0.31213(17) 0.49567(16) 0.84868(15) 0.0350(6) Uani 1 1 d . . . . . 
H16A H 0.3246 0.5279 0.8023 0.052 Uiso 1 1 calc R U . . . 
H16B H 0.3583 0.5132 0.8858 0.052 Uiso 1 1 calc R U . . . 
H16C H 0.2500 0.5115 0.8665 0.052 Uiso 1 1 calc R U . . . 
C17 C 0.53944(15) 0.38615(17) 0.87619(12) 0.0263(5) Uani 1 1 d . . . . . 
H17 H 0.5914 0.3421 0.8692 0.032 Uiso 1 1 calc R U . . . 
C18 C 0.50322(19) 0.37368(18) 0.95560(12) 0.0361(6) Uani 1 1 d . . . . . 
H18A H 0.5531 0.3869 0.9908 0.054 Uiso 1 1 calc R U . . . 
H18B H 0.4823 0.3110 0.9623 0.054 Uiso 1 1 calc R U . . . 
H18C H 0.4513 0.4152 0.9642 0.054 Uiso 1 1 calc R U . . . 
C19 C 0.57932(17) 0.48063(17) 0.86494(13) 0.0335(6) Uani 1 1 d . . . . . 
H19A H 0.5310 0.5260 0.8739 0.050 Uiso 1 1 calc R U . . . 
H19B H 0.6020 0.4865 0.8141 0.050 Uiso 1 1 calc R U . . . 
H19C H 0.6307 0.4903 0.8995 0.050 Uiso 1 1 calc R U . . . 
C20 C 0.44305(15) 0.22375(15) 0.77937(14) 0.0263(5) Uani 1 1 d . . . . . 
H20 H 0.3976 0.2154 0.7382 0.032 Uiso 1 1 calc R U . . . 
C21 C 0.53713(16) 0.19372(15) 0.74984(13) 0.0277(5) Uani 1 1 d . . . . . 
H21A H 0.5848 0.2051 0.7873 0.042 Uiso 1 1 calc R U . . . 
H21B H 0.5518 0.2280 0.7049 0.042 Uiso 1 1 calc R U . . . 
H21C H 0.5353 0.1288 0.7384 0.042 Uiso 1 1 calc R U . . . 
C22 C 0.41054(19) 0.16460(17) 0.84231(15) 0.0381(6) Uani 1 1 d . . . . . 
H22A H 0.4101 0.1010 0.8264 0.057 Uiso 1 1 calc R U . . . 
H22B H 0.3478 0.1827 0.8569 0.057 Uiso 1 1 calc R U . . . 
H22C H 0.4526 0.1717 0.8845 0.057 Uiso 1 1 calc R U . . . 
 
