data_k03053
 
_audit_creation_method            SHELXL-97 
_chemical_name_systematic 
; 
 ? 
; 
_chemical_name_common             ? 
_chemical_melting_point           ? 
_chemical_formula_moiety          ? 
_chemical_formula_sum 
 'C36 H36 Si' 
_chemical_formula_weight          496.74 
 
loop_ 
 _atom_type_symbol 
 _atom_type_description 
 _atom_type_scat_dispersion_real 
 _atom_type_scat_dispersion_imag 
 _atom_type_scat_source 
 'C'  'C'   0.0033   0.0016 
 'International Tables Vol C Tables 4.2.6.8 and 6.1.1.4' 
 'H'  'H'   0.0000   0.0000 
 'International Tables Vol C Tables 4.2.6.8 and 6.1.1.4' 
 'Si'  'Si'   0.0817   0.0704 
 'International Tables Vol C Tables 4.2.6.8 and 6.1.1.4' 
 
_symmetry_cell_setting            triclinic
_symmetry_space_group_name_H-M    'P -1'
 
loop_ 
 _symmetry_equiv_pos_as_xyz 
 'x, y, z' 
 '-x, -y, -z' 
 
_cell_length_a                    8.6290(2) 
_cell_length_b                    10.4440(2) 
_cell_length_c                    10.7620(2) 
_cell_angle_alpha                 65.2230(8) 
_cell_angle_beta                  85.2370(7) 
_cell_angle_gamma                 82.8830(8) 
_cell_volume                      873.30(3) 
_cell_formula_units_Z             1 
_cell_measurement_temperature     90.0(2) 
_cell_measurement_reflns_used     3967
_cell_measurement_theta_min       1.00
_cell_measurement_theta_max       27.48
 
_exptl_crystal_description        'irregular block'
_exptl_crystal_colour             yellow
_exptl_crystal_size_max           0.25 
_exptl_crystal_size_mid           0.20 
_exptl_crystal_size_min           0.10 
_exptl_crystal_density_meas       ? 
_exptl_crystal_density_diffrn     0.945 
_exptl_crystal_density_method     'not measured' 
_exptl_crystal_F_000              266 
_exptl_absorpt_coefficient_mu     0.085 
_exptl_absorpt_correction_type    multi-scan
_exptl_absorpt_correction_T_min   0.9789 
_exptl_absorpt_correction_T_max   0.9915 
_exptl_absorpt_process_details    'Scalepack (Otwinowski & Minor, 1997)'
 
_exptl_special_details 
; 
 ? 
; 
 
_diffrn_ambient_temperature       90.0(2) 
_diffrn_radiation_wavelength      0.71073 
_diffrn_radiation_type            MoK\a 
_diffrn_radiation_source          'fine-focus sealed tube' 
_diffrn_radiation_monochromator   graphite 
_diffrn_measurement_device_type   'Nonius KappaCCD diffractometer' 
_diffrn_measurement_method        '\w scans at fixed \c = 55\%'
_diffrn_detector_area_resol_mean  18 
_diffrn_standards_number          ?
_diffrn_standards_interval_count  ? 
_diffrn_standards_interval_time   ? 
_diffrn_standards_decay_%         <1
_diffrn_reflns_number             7918 
_diffrn_reflns_av_R_equivalents   0.0210 
_diffrn_reflns_av_sigmaI/netI     0.0322 
_diffrn_reflns_limit_h_min        -11 
_diffrn_reflns_limit_h_max        11 
_diffrn_reflns_limit_k_min        -13 
_diffrn_reflns_limit_k_max        13 
_diffrn_reflns_limit_l_min        -13 
_diffrn_reflns_limit_l_max        13 
_diffrn_reflns_theta_min          2.09 
_diffrn_reflns_theta_max          27.48 
_reflns_number_total              4003 
_reflns_number_gt                 3382 
_reflns_threshold_expression      >2sigma(I) 
 
_computing_data_collection        'COLLECT (Nonius, 1998)' 
_computing_cell_refinement        'SCALEPACK (Otwinowski & Minor, 1997)'
_computing_data_reduction         'DENZO-SMN (Otwinowski & Minor, 1997)'
_computing_structure_solution     'SHELXS-97 (Sheldrick, 1990)' 
_computing_structure_refinement   'SHELXL-97 (Sheldrick, 1997)' 
_computing_molecular_graphics     'XP in Siemens SHELXTL (Sheldrick, 1994)'
_computing_publication_material   
;
SHELX97-2 (Sheldrick, 1997) and local procedures
;
 
_refine_special_details 
; 
 Refinement of F^2^ against ALL reflections.  The weighted R-factor wR and 
 goodness of fit S are based on F^2^, conventional R-factors R are based 
 on F, with F set to zero for negative F^2^. The threshold expression of 
 F^2^ > 2sigma(F^2^) is used only for calculating R-factors(gt) etc. and is 
 not relevant to the choice of reflections for refinement.  R-factors based 
 on F^2^ are statistically about twice as large as those based on F, and R- 
 factors based on ALL data will be even larger. 
; 
 
_refine_ls_structure_factor_coef  Fsqd  
_refine_ls_matrix_type            full 
_refine_ls_weighting_scheme       calc  
_refine_ls_weighting_details 
 'calc w=1/[\s^2^(Fo^2^)+(0.0498P)^2^+0.3082P] where P=(Fo^2^+2Fc^2^)/3' 
_atom_sites_solution_primary      direct 
_atom_sites_solution_secondary    difmap 
_atom_sites_solution_hydrogens    geom 
_refine_ls_hydrogen_treatment     mixed 
_refine_ls_extinction_method      none 
_refine_ls_extinction_coef        ? 
_refine_ls_number_reflns          4003 
_refine_ls_number_parameters      188 
_refine_ls_number_restraints      0 
_refine_ls_R_factor_all           0.0495 
_refine_ls_R_factor_gt            0.0398 
_refine_ls_wR_factor_ref          0.1066 
_refine_ls_wR_factor_gt           0.1013 
_refine_ls_goodness_of_fit_ref    1.050 
_refine_ls_restrained_S_all       1.050 
_refine_ls_shift/su_max           0.008 
_refine_ls_shift/su_mean          0.000 
 
loop_ 
 _atom_site_label 
 _atom_site_type_symbol 
 _atom_site_fract_x 
 _atom_site_fract_y 
 _atom_site_fract_z 
 _atom_site_U_iso_or_equiv 
 _atom_site_adp_type 
 _atom_site_occupancy 
 _atom_site_symmetry_multiplicity 
 _atom_site_calc_flag 
 _atom_site_refinement_flags 
 _atom_site_disorder_assembly 
 _atom_site_disorder_group 
Si1 Si 0.07960(4) 0.33812(4) 0.30774(4) 0.02106(11) Uani 1 1 d . . . 
C1 C 0.01462(14) 0.07795(13) 0.07804(12) 0.0183(3) Uani 1 1 d . . . 
C2 C 0.13622(14) 0.07038(13) -0.01610(13) 0.0182(3) Uani 1 1 d . . . 
C3 C 0.27270(15) 0.14272(14) -0.03793(14) 0.0217(3) Uani 1 1 d . . . 
H3 H 0.2823 0.1973 0.0123 0.026 Uiso 1 1 calc R . . 
C4 C 0.38978(15) 0.13566(14) -0.12897(14) 0.0240(3) Uani 1 1 d . . . 
C5 C 0.37647(16) 0.05121(14) -0.20178(14) 0.0246(3) Uani 1 1 d . . . 
H5 H 0.4593 0.0429 -0.2627 0.029 Uiso 1 1 calc R . . 
C6 C 0.24731(15) -0.01795(14) -0.18598(13) 0.0219(3) Uani 1 1 d . . . 
H6 H 0.2409 -0.0727 -0.2367 0.026 Uiso 1 1 calc R . . 
C7 C 0.12170(14) -0.00906(13) -0.09427(13) 0.0182(3) Uani 1 1 d . . . 
C8 C 0.02956(15) 0.15884(14) 0.15506(13) 0.0214(3) Uani 1 1 d . . . 
C9 C 0.04565(15) 0.22859(14) 0.21772(14) 0.0243(3) Uani 1 1 d . . . 
C10 C -0.09937(17) 0.34299(15) 0.41874(15) 0.0274(3) Uani 1 1 d . . . 
H10 H -0.0792 0.3998 0.4698 0.033 Uiso 1 1 calc R . . 
C11 C -0.1325(2) 0.19466(19) 0.52558(18) 0.0449(4) Uani 1 1 d . . . 
H11A H -0.2259 0.2026 0.5813 0.067 Uiso 1 1 calc R . . 
H11B H -0.0430 0.1517 0.5848 0.067 Uiso 1 1 calc R . . 
H11C H -0.1499 0.1351 0.4788 0.067 Uiso 1 1 calc R . . 
C12 C -0.24348(17) 0.41784(19) 0.33260(18) 0.0384(4) Uani 1 1 d . . . 
H12A H -0.2674 0.3641 0.2819 0.058 Uiso 1 1 calc R . . 
H12B H -0.2220 0.5136 0.2679 0.058 Uiso 1 1 calc R . . 
H12C H -0.3329 0.4236 0.3930 0.058 Uiso 1 1 calc R . . 
C13 C 0.10450(16) 0.52145(14) 0.17174(14) 0.0237(3) Uani 1 1 d . . . 
H13 H 0.0123 0.5491 0.1122 0.028 Uiso 1 1 calc R . . 
C14 C 0.10000(16) 0.63263(14) 0.23118(14) 0.0259(3) Uani 1 1 d . . . 
H14A H 0.1847 0.6066 0.2952 0.039 Uiso 1 1 calc R . . 
H14B H -0.0007 0.6364 0.2795 0.039 Uiso 1 1 calc R . . 
H14C H 0.1131 0.7258 0.1567 0.039 Uiso 1 1 calc R . . 
C15 C 0.24996(18) 0.52754(17) 0.07780(15) 0.0326(3) Uani 1 1 d . . . 
H15A H 0.2476 0.6213 0.0012 0.049 Uiso 1 1 calc R . . 
H15B H 0.2510 0.4549 0.0424 0.049 Uiso 1 1 calc R . . 
H15C H 0.3441 0.5102 0.1299 0.049 Uiso 1 1 calc R . . 
C16 C 0.25582(17) 0.24760(15) 0.41604(15) 0.0278(3) Uani 1 1 d . . . 
H16 H 0.2184 0.1637 0.4956 0.033 Uiso 1 1 calc R . . 
C17 C 0.3885(2) 0.1882(2) 0.3452(2) 0.0476(5) Uani 1 1 d . . . 
H17A H 0.4328 0.2665 0.2680 0.071 Uiso 1 1 calc R . . 
H17B H 0.3475 0.1256 0.3116 0.071 Uiso 1 1 calc R . . 
H17C H 0.4701 0.1345 0.4108 0.071 Uiso 1 1 calc R . . 
C18 C 0.31751(18) 0.33909(16) 0.47742(16) 0.0311(3) Uani 1 1 d . . . 
H18A H 0.3984 0.2825 0.5426 0.047 Uiso 1 1 calc R . . 
H18B H 0.2315 0.3730 0.5249 0.047 Uiso 1 1 calc R . . 
H18C H 0.3621 0.4203 0.4040 0.047 Uiso 1 1 calc R . . 
C19 C 0.53088(17) 0.21584(16) -0.15548(16) 0.0311(3) Uani 1 1 d . . . 
H19A H 0.5286 0.2912 -0.2485 0.047 Uiso 1 1 calc R . . 
H19B H 0.6259 0.1509 -0.1460 0.047 Uiso 1 1 calc R . . 
H19C H 0.5302 0.2577 -0.0892 0.047 Uiso 1 1 calc R . . 
 
loop_ 
 _atom_site_aniso_label 
 _atom_site_aniso_U_11 
 _atom_site_aniso_U_22 
 _atom_site_aniso_U_33 
 _atom_site_aniso_U_23 
 _atom_site_aniso_U_13 
 _atom_site_aniso_U_12 
Si1 0.0244(2) 0.02256(19) 0.0226(2) -0.01514(15) -0.00018(14) -0.00420(14) 
C1 0.0215(6) 0.0172(6) 0.0187(6) -0.0100(5) -0.0029(5) -0.0005(5) 
C2 0.0192(6) 0.0170(6) 0.0190(6) -0.0081(5) -0.0026(5) -0.0007(5) 
C3 0.0221(6) 0.0206(6) 0.0258(7) -0.0122(5) -0.0028(5) -0.0032(5) 
C4 0.0205(6) 0.0218(6) 0.0288(7) -0.0090(5) -0.0017(5) -0.0037(5) 
C5 0.0224(6) 0.0251(7) 0.0259(7) -0.0117(6) 0.0047(5) -0.0007(5) 
C6 0.0245(6) 0.0213(6) 0.0223(6) -0.0120(5) 0.0018(5) -0.0013(5) 
C7 0.0202(6) 0.0166(6) 0.0182(6) -0.0079(5) -0.0011(5) -0.0006(5) 
C8 0.0220(6) 0.0222(6) 0.0222(6) -0.0112(5) 0.0003(5) -0.0033(5) 
C9 0.0255(7) 0.0267(7) 0.0258(7) -0.0155(6) 0.0010(5) -0.0047(5) 
C10 0.0312(7) 0.0306(7) 0.0294(7) -0.0208(6) 0.0056(6) -0.0091(6) 
C11 0.0570(11) 0.0411(9) 0.0402(10) -0.0201(8) 0.0207(8) -0.0201(8) 
C12 0.0246(7) 0.0550(10) 0.0483(10) -0.0338(9) 0.0049(7) -0.0078(7) 
C13 0.0265(7) 0.0241(7) 0.0232(7) -0.0116(5) -0.0018(5) -0.0049(5) 
C14 0.0300(7) 0.0219(7) 0.0275(7) -0.0113(6) -0.0029(6) -0.0031(5) 
C15 0.0380(8) 0.0340(8) 0.0296(8) -0.0159(7) 0.0059(6) -0.0113(6) 
C16 0.0326(7) 0.0247(7) 0.0302(7) -0.0150(6) -0.0054(6) -0.0015(6) 
C17 0.0416(10) 0.0541(11) 0.0590(11) -0.0384(10) -0.0150(8) 0.0162(8) 
C18 0.0335(8) 0.0296(7) 0.0340(8) -0.0153(6) -0.0118(6) -0.0017(6) 
C19 0.0255(7) 0.0334(8) 0.0372(8) -0.0164(7) 0.0009(6) -0.0084(6) 
 
_geom_special_details 
; 
 All esds (except the esd in the dihedral angle between two l.s. planes) 
 are estimated using the full covariance matrix.  The cell esds are taken 
 into account individually in the estimation of esds in distances, angles 
 and torsion angles; correlations between esds in cell parameters are only 
 used when they are defined by crystal symmetry.  An approximate (isotropic) 
 treatment of cell esds is used for estimating esds involving l.s. planes. 
; 
 
loop_ 
 _geom_bond_atom_site_label_1 
 _geom_bond_atom_site_label_2 
 _geom_bond_distance 
 _geom_bond_site_symmetry_2 
 _geom_bond_publ_flag 
Si1 C9 1.8417(13) . ? 
Si1 C10 1.8815(15) . ? 
Si1 C13 1.8855(14) . ? 
Si1 C16 1.8919(14) . ? 
C1 C7 1.4149(17) 2 ? 
C1 C2 1.4155(18) . ? 
C1 C8 1.4314(17) . ? 
C2 C3 1.4279(17) . ? 
C2 C7 1.4283(17) . ? 
C3 C4 1.3651(19) . ? 
C3 H3 0.9500 . ? 
C4 C5 1.4228(19) . ? 
C4 C19 1.5033(18) . ? 
C5 C6 1.3630(19) . ? 
C5 H5 0.9500 . ? 
C6 C7 1.4254(18) . ? 
C6 H6 0.9500 . ? 
C7 C1 1.4149(17) 2 ? 
C8 C9 1.2071(18) . ? 
C10 C12 1.536(2) . ? 
C10 C11 1.538(2) . ? 
C10 H10 1.0000 . ? 
C11 H11A 0.9800 . ? 
C11 H11B 0.9800 . ? 
C11 H11C 0.9800 . ? 
C12 H12A 0.9800 . ? 
C12 H12B 0.9800 . ? 
C12 H12C 0.9800 . ? 
C13 C15 1.535(2) . ? 
C13 C14 1.5383(18) . ? 
C13 H13 1.0000 . ? 
C14 H14A 0.9800 . ? 
C14 H14B 0.9800 . ? 
C14 H14C 0.9800 . ? 
C15 H15A 0.9800 . ? 
C15 H15B 0.9800 . ? 
C15 H15C 0.9800 . ? 
C16 C18 1.5317(18) . ? 
C16 C17 1.534(2) . ? 
C16 H16 1.0000 . ? 
C17 H17A 0.9800 . ? 
C17 H17B 0.9800 . ? 
C17 H17C 0.9800 . ? 
C18 H18A 0.9800 . ? 
C18 H18B 0.9800 . ? 
C18 H18C 0.9800 . ? 
C19 H19A 0.9800 . ? 
C19 H19B 0.9800 . ? 
C19 H19C 0.9800 . ? 
 
loop_ 
 _geom_angle_atom_site_label_1 
 _geom_angle_atom_site_label_2 
 _geom_angle_atom_site_label_3 
 _geom_angle 
 _geom_angle_site_symmetry_1 
 _geom_angle_site_symmetry_3 
 _geom_angle_publ_flag 
C9 Si1 C10 107.54(6) . . ? 
C9 Si1 C13 106.61(6) . . ? 
C10 Si1 C13 109.97(6) . . ? 
C9 Si1 C16 106.68(6) . . ? 
C10 Si1 C16 110.74(7) . . ? 
C13 Si1 C16 114.91(6) . . ? 
C7 C1 C2 120.70(11) 2 . ? 
C7 C1 C8 120.12(11) 2 . ? 
C2 C1 C8 119.17(11) . . ? 
C1 C2 C3 121.90(11) . . ? 
C1 C2 C7 119.56(11) . . ? 
C3 C2 C7 118.53(11) . . ? 
C4 C3 C2 121.88(12) . . ? 
C4 C3 H3 119.1 . . ? 
C2 C3 H3 119.1 . . ? 
C3 C4 C5 118.86(12) . . ? 
C3 C4 C19 121.87(12) . . ? 
C5 C4 C19 119.27(12) . . ? 
C6 C5 C4 121.35(12) . . ? 
C6 C5 H5 119.3 . . ? 
C4 C5 H5 119.3 . . ? 
C5 C6 C7 120.78(12) . . ? 
C5 C6 H6 119.6 . . ? 
C7 C6 H6 119.6 . . ? 
C1 C7 C6 121.73(11) 2 . ? 
C1 C7 C2 119.75(11) 2 . ? 
C6 C7 C2 118.52(11) . . ? 
C9 C8 C1 178.20(14) . . ? 
C8 C9 Si1 176.97(12) . . ? 
C12 C10 C11 110.52(13) . . ? 
C12 C10 Si1 111.57(10) . . ? 
C11 C10 Si1 112.44(10) . . ? 
C12 C10 H10 107.3 . . ? 
C11 C10 H10 107.3 . . ? 
Si1 C10 H10 107.3 . . ? 
C10 C11 H11A 109.5 . . ? 
C10 C11 H11B 109.5 . . ? 
H11A C11 H11B 109.5 . . ? 
C10 C11 H11C 109.5 . . ? 
H11A C11 H11C 109.5 . . ? 
H11B C11 H11C 109.5 . . ? 
C10 C12 H12A 109.5 . . ? 
C10 C12 H12B 109.5 . . ? 
H12A C12 H12B 109.5 . . ? 
C10 C12 H12C 109.5 . . ? 
H12A C12 H12C 109.5 . . ? 
H12B C12 H12C 109.5 . . ? 
C15 C13 C14 111.00(11) . . ? 
C15 C13 Si1 113.41(10) . . ? 
C14 C13 Si1 112.67(9) . . ? 
C15 C13 H13 106.4 . . ? 
C14 C13 H13 106.4 . . ? 
Si1 C13 H13 106.4 . . ? 
C13 C14 H14A 109.5 . . ? 
C13 C14 H14B 109.5 . . ? 
H14A C14 H14B 109.5 . . ? 
C13 C14 H14C 109.5 . . ? 
H14A C14 H14C 109.5 . . ? 
H14B C14 H14C 109.5 . . ? 
C13 C15 H15A 109.5 . . ? 
C13 C15 H15B 109.5 . . ? 
H15A C15 H15B 109.5 . . ? 
C13 C15 H15C 109.5 . . ? 
H15A C15 H15C 109.5 . . ? 
H15B C15 H15C 109.5 . . ? 
C18 C16 C17 110.95(13) . . ? 
C18 C16 Si1 113.03(10) . . ? 
C17 C16 Si1 114.47(10) . . ? 
C18 C16 H16 105.9 . . ? 
C17 C16 H16 105.9 . . ? 
Si1 C16 H16 105.9 . . ? 
C16 C17 H17A 109.5 . . ? 
C16 C17 H17B 109.5 . . ? 
H17A C17 H17B 109.5 . . ? 
C16 C17 H17C 109.5 . . ? 
H17A C17 H17C 109.5 . . ? 
H17B C17 H17C 109.5 . . ? 
C16 C18 H18A 109.5 . . ? 
C16 C18 H18B 109.5 . . ? 
H18A C18 H18B 109.5 . . ? 
C16 C18 H18C 109.5 . . ? 
H18A C18 H18C 109.5 . . ? 
H18B C18 H18C 109.5 . . ? 
C4 C19 H19A 109.5 . . ? 
C4 C19 H19B 109.5 . . ? 
H19A C19 H19B 109.5 . . ? 
C4 C19 H19C 109.5 . . ? 
H19A C19 H19C 109.5 . . ? 
H19B C19 H19C 109.5 . . ? 
 
loop_ 
 _geom_torsion_atom_site_label_1 
 _geom_torsion_atom_site_label_2 
 _geom_torsion_atom_site_label_3 
 _geom_torsion_atom_site_label_4 
 _geom_torsion 
 _geom_torsion_site_symmetry_1 
 _geom_torsion_site_symmetry_2 
 _geom_torsion_site_symmetry_3 
 _geom_torsion_site_symmetry_4 
 _geom_torsion_publ_flag 
C7 C1 C2 C3 177.87(11) 2 . . . ? 
C8 C1 C2 C3 -0.86(18) . . . . ? 
C7 C1 C2 C7 -0.7(2) 2 . . . ? 
C8 C1 C2 C7 -179.45(11) . . . . ? 
C1 C2 C3 C4 -179.84(12) . . . . ? 
C7 C2 C3 C4 -1.23(19) . . . . ? 
C2 C3 C4 C5 -1.4(2) . . . . ? 
C2 C3 C4 C19 177.86(12) . . . . ? 
C3 C4 C5 C6 2.4(2) . . . . ? 
C19 C4 C5 C6 -176.85(13) . . . . ? 
C4 C5 C6 C7 -0.8(2) . . . . ? 
C5 C6 C7 C1 178.89(12) . . . 2 ? 
C5 C6 C7 C2 -1.90(19) . . . . ? 
C1 C2 C7 C1 0.72(19) . . . 2 ? 
C3 C2 C7 C1 -177.92(11) . . . 2 ? 
C1 C2 C7 C6 -178.51(11) . . . . ? 
C3 C2 C7 C6 2.85(17) . . . . ? 
C7 C1 C8 C9 -168(5) 2 . . . ? 
C2 C1 C8 C9 11(5) . . . . ? 
C1 C8 C9 Si1 -4(7) . . . . ? 
C10 Si1 C9 C8 170(2) . . . . ? 
C13 Si1 C9 C8 52(2) . . . . ? 
C16 Si1 C9 C8 -71(2) . . . . ? 
C9 Si1 C10 C12 -64.53(11) . . . . ? 
C13 Si1 C10 C12 51.18(12) . . . . ? 
C16 Si1 C10 C12 179.27(10) . . . . ? 
C9 Si1 C10 C11 60.29(12) . . . . ? 
C13 Si1 C10 C11 176.00(10) . . . . ? 
C16 Si1 C10 C11 -55.91(12) . . . . ? 
C9 Si1 C13 C15 -64.71(11) . . . . ? 
C10 Si1 C13 C15 179.00(9) . . . . ? 
C16 Si1 C13 C15 53.25(11) . . . . ? 
C9 Si1 C13 C14 168.14(9) . . . . ? 
C10 Si1 C13 C14 51.84(11) . . . . ? 
C16 Si1 C13 C14 -73.90(11) . . . . ? 
C9 Si1 C16 C18 169.57(11) . . . . ? 
C10 Si1 C16 C18 -73.70(12) . . . . ? 
C13 Si1 C16 C18 51.64(13) . . . . ? 
C9 Si1 C16 C17 41.23(13) . . . . ? 
C10 Si1 C16 C17 157.96(12) . . . . ? 
C13 Si1 C16 C17 -76.70(13) . . . . ? 
 
_diffrn_measured_fraction_theta_max    0.998 
_diffrn_reflns_theta_full              27.48 
_diffrn_measured_fraction_theta_full   0.998 
_refine_diff_density_max    0.352 
_refine_diff_density_min   -0.239 
_refine_diff_density_rms    0.045 
