 
data_x12556xs 
 
_audit_creation_method            SHELXL-97 
_chemical_name_systematic 
; 
 ? 
; 
_chemical_name_common             ? 
_chemical_melting_point           ? 
_chemical_formula_moiety 
 'C36 H36 F2 S2 Si2' 
_chemical_formula_sum 
 'C36 H36 F2 S2 Si2' 
_chemical_formula_weight          626.95 
 
loop_ 
 _atom_type_symbol 
 _atom_type_description 
 _atom_type_scat_dispersion_real 
 _atom_type_scat_dispersion_imag 
 _atom_type_scat_source 
 'C'  'C'   0.0181   0.0091 
 'International Tables Vol C Tables 4.2.6.8 and 6.1.1.4' 
 'H'  'H'   0.0000   0.0000 
 'International Tables Vol C Tables 4.2.6.8 and 6.1.1.4' 
 'F'  'F'   0.0727   0.0534 
 'International Tables Vol C Tables 4.2.6.8 and 6.1.1.4' 
 'Si'  'Si'   0.2541   0.3302 
 'International Tables Vol C Tables 4.2.6.8 and 6.1.1.4' 
 'S'  'S'   0.3331   0.5567 
 'International Tables Vol C Tables 4.2.6.8 and 6.1.1.4' 
 
_symmetry_cell_setting            monoclinic 
_symmetry_space_group_name_H-M    'P 21/c' 
_symmetry_space_group_name_Hall   '-P 2ybc' 
 
loop_ 
 _symmetry_equiv_pos_as_xyz 
 'x, y, z' 
 '-x, y+1/2, -z+1/2' 
 '-x, -y, -z' 
 'x, -y-1/2, z-1/2' 
 
_cell_length_a                    7.2312(2) 
_cell_length_b                    32.8894(8) 
_cell_length_c                    7.1873(2) 
_cell_angle_alpha                 90.00 
_cell_angle_beta                  107.398(1) 
_cell_angle_gamma                 90.00 
_cell_volume                      1631.15(8) 
_cell_formula_units_Z             2 
_cell_measurement_temperature     90.0(2) 
_cell_measurement_reflns_used     9993 
_cell_measurement_theta_min       5.38
_cell_measurement_theta_max       68.09 
 
_exptl_crystal_description        plate 
_exptl_crystal_colour             red 
_exptl_crystal_size_max           0.14 
_exptl_crystal_size_mid           0.08 
_exptl_crystal_size_min           0.02 
_exptl_crystal_density_meas       ? 
_exptl_crystal_density_diffrn     1.276 
_exptl_crystal_density_method     'not measured' 
_exptl_crystal_F_000              660 
_exptl_absorpt_coefficient_mu     2.469 
_exptl_absorpt_correction_type    multi-scan 
_exptl_absorpt_correction_T_min   0.599 
_exptl_absorpt_correction_T_max   0.902 
_exptl_absorpt_process_details    
;
Sadabs in APEX2 (BrukerAXS, 2006); XABS2 (Parkin, Moezzi & Hope, 1995)
; 
 
_exptl_special_details 
; 
 ? 
; 
 
_diffrn_ambient_temperature       90.0(2) 
_diffrn_radiation_wavelength      1.54178 
_diffrn_radiation_type            CuK\a 
_diffrn_radiation_source          'fine-focus rotating anode' 
_diffrn_radiation_monochromator   'graded multilayer optics' 
_diffrn_measurement_device_type   'Bruker X8 Proteum diffractometer'
_diffrn_measurement_method        '\f and \w scans'            
_diffrn_detector_area_resol_mean  5.6
_diffrn_standards_number          0 
_diffrn_standards_interval_count  . 
_diffrn_standards_interval_time   . 
_diffrn_standards_decay_%         ? 
_diffrn_reflns_number             17631 
_diffrn_reflns_av_R_equivalents   0.0471 
_diffrn_reflns_av_sigmaI/netI     0.0297 
_diffrn_reflns_limit_h_min        -8 
_diffrn_reflns_limit_h_max        8 
_diffrn_reflns_limit_k_min        -39 
_diffrn_reflns_limit_k_max        39 
_diffrn_reflns_limit_l_min        -8 
_diffrn_reflns_limit_l_max        8 
_diffrn_reflns_theta_min          2.69 
_diffrn_reflns_theta_max          68.09 
_reflns_number_total              2901 
_reflns_number_gt                 2679 
_reflns_threshold_expression      >2\s(I)    
 
_computing_data_collection        'APEX2 (Bruker-AXS, 2006)'            
_computing_cell_refinement        'APEX2'
_computing_data_reduction         'APEX2'
_computing_structure_solution     'SHELXS-97 (Sheldrick, 2008)' 
_computing_structure_refinement   'SHELXL-97 (Sheldrick, 2008)' 
_computing_molecular_graphics     'XP in SHELXTL (Sheldrick, 2008)'
_computing_publication_material
; 
SHELX-97 (Sheldrick, 2008) and local procedures 
; 
 
_publ_section_exptl_refinement
;
H atoms were found in difference Fourier maps and subsequently placed 
in idealized positions with constrained distances of 0.98 \%A (RCH~3~), 
0.99 \%A (R~2~CH~2~), 0.95 \%A (C~sp2~H), and with U~iso~(H) values set 
to either 1.2U~eq~ or 1.5U~eq~ (RCH~3~) of the attached atom. 

To ensure satisfactory refinement of the disordered parts of the structure, 
a combination of constraints and restraints were needed.  The constraints 
(SHELXL97 commands EXYZ and EADP) were used to make the coordinates and/or 
displacement parameters of closely proximate atoms equal.  The restraints 
(SHELXL97 commands SAME, DFIX, DELU, ISOR) were used to ensure similar 
geometries and displacement parameters of overlapping, chemically similar 
groups. 
;

_refine_special_details 
; 
Refinement of F^2^ against all reflections.  The weighted R-value wR and 
goodness of fit S are based on F^2^. Conventional R-values R are based 
on F, with F set to zero for negative F^2^.  The threshold expression of 
F^2^ > 2\s(F^2^) is used only for calculating R-factors(gt) etc. and is 
not relevant to the choice of reflections for refinement.  R-values based 
on F^2^ are statistically about twice as large as those based on F, and  
R-values based on ALL data will be even larger. 
; 
 
_refine_ls_structure_factor_coef  Fsqd  
_refine_ls_matrix_type            full 
_refine_ls_weighting_scheme       calc  
_refine_ls_weighting_details 
 'calc w=1/[\s^2^(Fo^2^)+(0.0476P)^2^+3.4396P] where P=(Fo^2^+2Fc^2^)/3' 
_atom_sites_solution_primary      direct 
_atom_sites_solution_secondary    difmap 
_atom_sites_solution_hydrogens    geom 
_refine_ls_hydrogen_treatment     constr 
_refine_ls_extinction_method      none 
_refine_ls_extinction_coef        ? 
_refine_ls_number_reflns          2901 
_refine_ls_number_parameters      225 
_refine_ls_number_restraints      106 
_refine_ls_R_factor_all           0.0636 
_refine_ls_R_factor_gt            0.0599 
_refine_ls_wR_factor_ref          0.1476 
_refine_ls_wR_factor_gt           0.1449 
_refine_ls_goodness_of_fit_ref    1.079 
_refine_ls_restrained_S_all       1.107 
_refine_ls_shift/su_max           0.000 
_refine_ls_shift/su_mean          0.000 
 
loop_ 
 _atom_site_label 
 _atom_site_type_symbol 
 _atom_site_fract_x 
 _atom_site_fract_y 
 _atom_site_fract_z 
 _atom_site_U_iso_or_equiv 
 _atom_site_adp_type 
 _atom_site_occupancy 
 _atom_site_symmetry_multiplicity 
 _atom_site_calc_flag 
 _atom_site_refinement_flags 
 _atom_site_disorder_assembly 
 _atom_site_disorder_group 
Si1 Si 0.47055(14) 0.33916(2) 0.84501(13) 0.0336(3) Uani 1 1 d . . . 
C1 C 0.4833(4) 0.46183(8) 0.5828(4) 0.0208(6) Uani 1 1 d . . . 
C2 C 0.3885(4) 0.46828(8) 0.3824(4) 0.0212(6) Uani 1 1 d . B . 
C3 C 0.2752(4) 0.43753(8) 0.2633(4) 0.0243(6) Uani 1 1 d . . . 
H3 H 0.2590 0.4120 0.3183 0.029 Uiso 1 1 calc R A 1 
C4 C 0.1895(4) 0.44462(8) 0.0698(4) 0.0248(6) Uani 0.682(3) 1 d PDU B 1 
S5 S 0.0428(3) 0.41075(5) -0.0995(2) 0.0294(4) Uani 0.682(3) 1 d PDU B 1 
C6 C 0.0238(10) 0.44733(15) -0.2816(7) 0.0249(11) Uani 0.682(3) 1 d PDU B 1 
F1 F -0.0810(5) 0.43647(10) -0.4614(4) 0.0345(7) Uani 0.682(3) 1 d PDU B 1 
C7 C 0.113(2) 0.4831(5) -0.2215(15) 0.0269(9) Uani 0.682(3) 1 d PDU B 1 
H7 H 0.1106 0.5057 -0.3045 0.032 Uiso 0.682(3) 1 calc PR B 1 
C8 C 0.2136(4) 0.48266(8) -0.0166(4) 0.0230(6) Uani 0.682(3) 1 d PDU B 1 
C4' C 0.1895(4) 0.44462(8) 0.0698(4) 0.0248(6) Uani 0.318(3) 1 d PDU B 2 
C5' C 0.073(3) 0.4174(5) -0.070(3) 0.0294(4) Uani 0.318(3) 1 d PDU B 2 
H5' H 0.0370 0.3908 -0.0429 0.035 Uiso 0.318(3) 1 calc PR B 2 
F1' F -0.0879(11) 0.4190(2) -0.4172(10) 0.0345(7) Uani 0.318(3) 1 d PDU B 2 
C6' C 0.020(3) 0.4351(4) -0.2471(16) 0.0249(11) Uani 0.318(3) 1 d PDU B 2 
S7' S 0.0985(12) 0.4849(2) -0.2638(6) 0.0269(9) Uani 0.318(3) 1 d PDU B 2 
C8' C 0.2136(4) 0.48266(8) -0.0166(4) 0.0230(6) Uani 0.318(3) 1 d PDU B 2 
C9 C 0.3198(4) 0.51301(8) 0.0949(4) 0.0231(6) Uani 1 1 d . . . 
H9 H 0.3343 0.5383 0.0365 0.028 Uiso 1 1 calc R B 1 
C10 C 0.4087(4) 0.50712(8) 0.2976(4) 0.0216(6) Uani 1 1 d . . . 
C11 C 0.4703(4) 0.42277(8) 0.6662(4) 0.0251(6) Uani 1 1 d . . . 
C12 C 0.4629(4) 0.38974(9) 0.7360(4) 0.0290(6) Uani 1 1 d . C . 
C13 C 0.6840(6) 0.31226(10) 0.8076(6) 0.0492(9) Uani 1 1 d . C . 
H13A H 0.6601 0.3076 0.6663 0.059 Uiso 1 1 calc R . . 
H13B H 0.7993 0.3300 0.8533 0.059 Uiso 1 1 calc R . . 
C14 C 0.7281(9) 0.27138(14) 0.9143(8) 0.0860(18) Uani 1 1 d . . . 
H14A H 0.7563 0.2758 1.0549 0.129 Uiso 1 1 calc R C . 
H14B H 0.8405 0.2588 0.8879 0.129 Uiso 1 1 calc R . . 
H14C H 0.6156 0.2534 0.8683 0.129 Uiso 1 1 calc R . . 
C15 C 0.4992(6) 0.34461(10) 1.1088(5) 0.0442(9) Uani 0.50 1 d PDU C 1 
H15A H 0.3778 0.3562 1.1231 0.053 Uiso 0.50 1 calc PR C 1 
H15B H 0.5148 0.3171 1.1676 0.053 Uiso 0.50 1 calc PR C 1 
C16 C 0.6646(7) 0.37042(14) 1.2234(6) 0.0645(12) Uani 0.50 1 d PDU C 1 
H16A H 0.6661 0.3711 1.3602 0.097 Uiso 0.50 1 calc PR C 1 
H16B H 0.6491 0.3981 1.1704 0.097 Uiso 0.50 1 calc PR C 1 
H16C H 0.7867 0.3589 1.2147 0.097 Uiso 0.50 1 calc PR C 1 
C15' C 0.4992(6) 0.34461(10) 1.1088(5) 0.0442(9) Uani 0.50 1 d PDU C 2 
C16' C 0.6646(7) 0.37042(14) 1.2234(6) 0.0645(12) Uani 0.50 1 d PDU C 2 
H16D H 0.7369 0.3805 1.1373 0.097 Uiso 0.50 1 calc PR C 2 
H16E H 0.7506 0.3542 1.3283 0.097 Uiso 0.50 1 calc PR C 2 
H16F H 0.6144 0.3935 1.2797 0.097 Uiso 0.50 1 calc PR C 2 
C16" C 0.3679(16) 0.3256(3) 1.1788(14) 0.069(3) Uani 0.50 1 d PU C 2 
H16G H 0.3761 0.3280 1.3127 0.083 Uiso 0.50 1 calc PR C 2 
H16H H 0.2677 0.3098 1.0940 0.083 Uiso 0.50 1 calc PR C 2 
C17 C 0.239(3) 0.3141(5) 0.735(2) 0.052(2) Uani 0.50 1 d PDU C 1 
C18 C 0.208(2) 0.2765(4) 0.822(2) 0.107(4) Uani 0.50 1 d PDU C 1 
H18A H 0.3100 0.2726 0.9454 0.160 Uiso 0.50 1 calc PR C 1 
H18B H 0.2111 0.2540 0.7330 0.160 Uiso 0.50 1 calc PR C 1 
H18C H 0.0814 0.2771 0.8453 0.160 Uiso 0.50 1 calc PR C 1 
C18" C 0.1140(12) 0.3244(3) 0.5740(14) 0.056(2) Uani 0.50 1 d PU C 1 
H18D H 0.0060 0.3073 0.5167 0.067 Uiso 0.50 1 calc PR C 1 
H18E H 0.1295 0.3492 0.5121 0.067 Uiso 0.50 1 calc PR C 1 
C17' C 0.245(3) 0.3096(5) 0.6964(19) 0.052(2) Uani 0.50 1 d PDU C 2 
H17A H 0.2640 0.2805 0.7328 0.063 Uiso 0.50 1 calc PR C 2 
H17B H 0.1323 0.3193 0.7357 0.063 Uiso 0.50 1 calc PR C 2 
C18' C 0.1935(17) 0.3127(3) 0.4746(14) 0.077(3) Uani 0.50 1 d PDU C 2 
H18F H 0.0785 0.2962 0.4142 0.115 Uiso 0.50 1 calc PR C 2 
H18G H 0.3025 0.3029 0.4325 0.115 Uiso 0.50 1 calc PR C 2 
H18H H 0.1667 0.3412 0.4349 0.115 Uiso 0.50 1 calc PR C 2 
 
loop_ 
 _atom_site_aniso_label 
 _atom_site_aniso_U_11 
 _atom_site_aniso_U_22 
 _atom_site_aniso_U_33 
 _atom_site_aniso_U_23 
 _atom_site_aniso_U_13 
 _atom_site_aniso_U_12 
Si1 0.0450(5) 0.0190(4) 0.0370(5) 0.0054(3) 0.0125(4) 0.0007(3) 
C1 0.0163(13) 0.0199(12) 0.0270(14) 0.0028(10) 0.0076(11) 0.0023(10) 
C2 0.0168(13) 0.0217(13) 0.0265(14) 0.0025(11) 0.0085(11) 0.0019(10) 
C3 0.0214(14) 0.0207(13) 0.0302(14) 0.0012(11) 0.0069(12) 0.0012(11) 
C4 0.0212(14) 0.0232(13) 0.0284(14) -0.0013(11) 0.0050(11) 0.0024(11) 
S5 0.0287(9) 0.0272(8) 0.0295(8) -0.0020(5) 0.0043(6) -0.0026(5) 
C6 0.0239(17) 0.027(3) 0.022(2) 0.0017(19) 0.0042(19) 0.000(3) 
F1 0.0396(13) 0.0332(19) 0.0252(14) -0.0024(12) 0.0010(11) -0.0044(15) 
C7 0.0249(15) 0.0397(12) 0.014(2) -0.0022(18) 0.0037(19) 0.0038(9) 
C8 0.0159(13) 0.0277(14) 0.0257(14) 0.0013(11) 0.0069(11) 0.0040(10) 
C4' 0.0212(14) 0.0232(13) 0.0284(14) -0.0013(11) 0.0050(11) 0.0024(11) 
C5' 0.0287(9) 0.0272(8) 0.0295(8) -0.0020(5) 0.0043(6) -0.0026(5) 
F1' 0.0396(13) 0.0332(19) 0.0252(14) -0.0024(12) 0.0010(11) -0.0044(15) 
C6' 0.0239(17) 0.027(3) 0.022(2) 0.0017(19) 0.0042(19) 0.000(3) 
S7' 0.0249(15) 0.0397(12) 0.014(2) -0.0022(18) 0.0037(19) 0.0038(9) 
C8' 0.0159(13) 0.0277(14) 0.0257(14) 0.0013(11) 0.0069(11) 0.0040(10) 
C9 0.0212(14) 0.0228(13) 0.0254(14) 0.0041(11) 0.0074(11) 0.0043(11) 
C10 0.0186(13) 0.0208(13) 0.0258(13) 0.0026(11) 0.0074(11) 0.0026(10) 
C11 0.0240(15) 0.0242(14) 0.0256(14) 0.0009(11) 0.0049(11) 0.0004(11) 
C12 0.0292(16) 0.0260(15) 0.0292(15) 0.0021(12) 0.0046(12) -0.0008(12) 
C13 0.062(3) 0.0319(18) 0.054(2) 0.0005(16) 0.0191(19) 0.0132(17) 
C14 0.132(5) 0.057(3) 0.079(3) 0.020(2) 0.045(3) 0.056(3) 
C15 0.061(2) 0.0334(17) 0.0412(18) 0.0101(14) 0.0190(17) 0.0127(16) 
C16 0.082(3) 0.064(3) 0.039(2) -0.0010(18) 0.005(2) 0.008(2) 
C15' 0.061(2) 0.0334(17) 0.0412(18) 0.0101(14) 0.0190(17) 0.0127(16) 
C16' 0.082(3) 0.064(3) 0.039(2) -0.0010(18) 0.005(2) 0.008(2) 
C16" 0.097(6) 0.060(5) 0.060(5) 0.013(4) 0.040(5) 0.007(5) 
C17 0.059(2) 0.034(3) 0.062(4) -0.003(3) 0.017(3) -0.009(2) 
C18 0.106(6) 0.104(5) 0.108(5) 0.016(4) 0.029(4) -0.030(4) 
C18" 0.040(3) 0.051(4) 0.071(4) -0.006(3) 0.008(3) -0.008(3) 
C17' 0.059(2) 0.034(3) 0.062(4) -0.003(3) 0.017(3) -0.009(2) 
C18' 0.077(5) 0.083(5) 0.066(4) -0.004(4) 0.014(4) -0.022(4) 
 
_geom_special_details 
; 
 All esds (except the esd in the dihedral angle between two l.s. planes) 
 are estimated using the full covariance matrix.  The cell esds are taken 
 into account individually in the estimation of esds in distances, angles 
 and torsion angles; correlations between esds in cell parameters are only 
 used when they are defined by crystal symmetry.  An approximate (isotropic) 
 treatment of cell esds is used for estimating esds involving l.s. planes. 
; 
 
loop_ 
 _geom_bond_atom_site_label_1 
 _geom_bond_atom_site_label_2 
 _geom_bond_distance 
 _geom_bond_site_symmetry_2 
 _geom_bond_publ_flag 
Si1 C17 1.82(2) . ? 
Si1 C12 1.833(3) . ? 
Si1 C15 1.853(4) . ? 
Si1 C13 1.867(4) . ? 
Si1 C17' 1.926(18) . ? 
C1 C10 1.411(4) 3_666 ? 
C1 C2 1.414(4) . ? 
C1 C11 1.432(4) . ? 
C2 C3 1.417(4) . ? 
C2 C10 1.441(4) . ? 
C3 C4 1.363(4) . ? 
C3 H3 0.9500 . ? 
C4 C8 1.430(4) . ? 
C4 S5 1.754(3) . ? 
S5 C6 1.752(5) . ? 
C6 F1 1.336(5) . ? 
C6 C7 1.350(15) . ? 
C7 C8 1.434(11) . ? 
C7 H7 0.9500 . ? 
C8 C9 1.364(4) . ? 
C5' C6' 1.346(19) . ? 
C5' H5' 0.9500 . ? 
F1' C6' 1.346(11) . ? 
C6' S7' 1.751(12) . ? 
C9 C10 1.419(4) . ? 
C9 H9 0.9500 . ? 
C10 C1 1.411(4) 3_666 ? 
C11 C12 1.204(4) . ? 
C13 C14 1.534(5) . ? 
C13 H13A 0.9900 . ? 
C13 H13B 0.9900 . ? 
C14 H14A 0.9800 . ? 
C14 H14B 0.9800 . ? 
C14 H14C 0.9800 . ? 
C15 C16 1.497(6) . ? 
C15 H15A 0.9900 . ? 
C15 H15B 0.9900 . ? 
C16 H16A 0.9800 . ? 
C16 H16B 0.9800 . ? 
C16 H16C 0.9800 . ? 
C16" H16G 0.9500 . ? 
C16" H16H 0.9500 . ? 
C17 C18" 1.286(19) . ? 
C17 C18 1.430(16) . ? 
C18 H18A 0.9800 . ? 
C18 H18B 0.9800 . ? 
C18 H18C 0.9800 . ? 
C18" H18D 0.9500 . ? 
C18" H18E 0.9500 . ? 
C17' C18' 1.528(14) . ? 
C17' H17A 0.9900 . ? 
C17' H17B 0.9900 . ? 
C18' H18F 0.9800 . ? 
C18' H18G 0.9800 . ? 
C18' H18H 0.9800 . ? 
 
loop_ 
 _geom_angle_atom_site_label_1 
 _geom_angle_atom_site_label_2 
 _geom_angle_atom_site_label_3 
 _geom_angle 
 _geom_angle_site_symmetry_1 
 _geom_angle_site_symmetry_3 
 _geom_angle_publ_flag 
C17 Si1 C12 108.7(5) . . ? 
C17 Si1 C15 107.1(5) . . ? 
C12 Si1 C15 109.23(15) . . ? 
C17 Si1 C13 114.5(6) . . ? 
C12 Si1 C13 106.81(16) . . ? 
C15 Si1 C13 110.42(18) . . ? 
C17 Si1 C17' 9.6(10) . . ? 
C12 Si1 C17' 108.0(5) . . ? 
C15 Si1 C17' 115.7(5) . . ? 
C13 Si1 C17' 106.3(6) . . ? 
C10 C1 C2 121.6(2) 3_666 . ? 
C10 C1 C11 119.2(2) 3_666 . ? 
C2 C1 C11 119.2(2) . . ? 
C1 C2 C3 121.7(2) . . ? 
C1 C2 C10 119.0(2) . . ? 
C3 C2 C10 119.4(3) . . ? 
C4 C3 C2 119.9(3) . . ? 
C4 C3 H3 120.0 . . ? 
C2 C3 H3 120.0 . . ? 
C3 C4 C8 121.0(2) . . ? 
C3 C4 S5 126.6(2) . . ? 
C8 C4 S5 112.4(2) . . ? 
C6 S5 C4 88.8(2) . . ? 
F1 C6 C7 128.4(6) . . ? 
F1 C6 S5 115.7(3) . . ? 
C7 C6 S5 115.9(6) . . ? 
C6 C7 C8 111.5(10) . . ? 
C6 C7 H7 124.2 . . ? 
C8 C7 H7 124.2 . . ? 
C9 C8 C4 120.4(2) . . ? 
C9 C8 C7 128.3(7) . . ? 
C4 C8 C7 111.4(7) . . ? 
C6' C5' H5' 125.1 . . ? 
C5' C6' F1' 127.8(10) . . ? 
C5' C6' S7' 117.6(9) . . ? 
F1' C6' S7' 114.6(7) . . ? 
C8 C9 C10 120.4(3) . . ? 
C8 C9 H9 119.8 . . ? 
C10 C9 H9 119.8 . . ? 
C1 C10 C9 121.7(2) 3_666 . ? 
C1 C10 C2 119.4(3) 3_666 . ? 
C9 C10 C2 118.9(2) . . ? 
C12 C11 C1 178.7(3) . . ? 
C11 C12 Si1 175.9(3) . . ? 
C14 C13 Si1 113.6(3) . . ? 
C14 C13 H13A 108.8 . . ? 
Si1 C13 H13A 108.8 . . ? 
C14 C13 H13B 108.8 . . ? 
Si1 C13 H13B 108.8 . . ? 
H13A C13 H13B 107.7 . . ? 
C13 C14 H14A 109.5 . . ? 
C13 C14 H14B 109.5 . . ? 
H14A C14 H14B 109.5 . . ? 
C13 C14 H14C 109.5 . . ? 
H14A C14 H14C 109.5 . . ? 
H14B C14 H14C 109.5 . . ? 
C16 C15 Si1 116.4(3) . . ? 
C16 C15 H15A 108.2 . . ? 
Si1 C15 H15A 108.2 . . ? 
C16 C15 H15B 108.2 . . ? 
Si1 C15 H15B 108.2 . . ? 
H15A C15 H15B 107.3 . . ? 
C15 C16 H16A 109.5 . . ? 
C15 C16 H16B 109.5 . . ? 
H16A C16 H16B 109.5 . . ? 
C15 C16 H16C 109.5 . . ? 
H16A C16 H16C 109.5 . . ? 
H16B C16 H16C 109.5 . . ? 
H16G C16" H16H 120.0 . . ? 
C18" C17 C18 117.4(15) . . ? 
C18" C17 Si1 125.3(11) . . ? 
C18 C17 Si1 116.6(12) . . ? 
C17 C18 H18A 109.5 . . ? 
C17 C18 H18B 109.5 . . ? 
H18A C18 H18B 109.5 . . ? 
C17 C18 H18C 109.5 . . ? 
H18A C18 H18C 109.5 . . ? 
H18B C18 H18C 109.5 . . ? 
C17 C18" H18D 120.0 . . ? 
C17 C18" H18E 120.0 . . ? 
H18D C18" H18E 120.0 . . ? 
C18' C17' Si1 116.4(11) . . ? 
C18' C17' H17A 108.2 . . ? 
Si1 C17' H17A 108.2 . . ? 
C18' C17' H17B 108.2 . . ? 
Si1 C17' H17B 108.2 . . ? 
H17A C17' H17B 107.3 . . ? 
C17' C18' H18F 109.5 . . ? 
C17' C18' H18G 109.5 . . ? 
H18F C18' H18G 109.5 . . ? 
C17' C18' H18H 109.5 . . ? 
H18F C18' H18H 109.5 . . ? 
H18G C18' H18H 109.5 . . ? 
 
loop_ 
 _geom_torsion_atom_site_label_1 
 _geom_torsion_atom_site_label_2 
 _geom_torsion_atom_site_label_3 
 _geom_torsion_atom_site_label_4 
 _geom_torsion 
 _geom_torsion_site_symmetry_1 
 _geom_torsion_site_symmetry_2 
 _geom_torsion_site_symmetry_3 
 _geom_torsion_site_symmetry_4 
 _geom_torsion_publ_flag 
C10 C1 C2 C3 -178.1(3) 3_666 . . . ? 
C11 C1 C2 C3 2.3(4) . . . . ? 
C10 C1 C2 C10 2.2(4) 3_666 . . . ? 
C11 C1 C2 C10 -177.5(2) . . . . ? 
C1 C2 C3 C4 -178.6(3) . . . . ? 
C10 C2 C3 C4 1.1(4) . . . . ? 
C2 C3 C4 C8 0.7(4) . . . . ? 
C2 C3 C4 S5 -179.3(2) . . . . ? 
C3 C4 S5 C6 -178.2(4) . . . . ? 
C8 C4 S5 C6 1.7(3) . . . . ? 
C4 S5 C6 F1 179.0(5) . . . . ? 
C4 S5 C6 C7 -2.3(10) . . . . ? 
F1 C6 C7 C8 -179.3(8) . . . . ? 
S5 C6 C7 C8 2.2(16) . . . . ? 
C3 C4 C8 C9 -1.6(4) . . . . ? 
S5 C4 C8 C9 178.5(2) . . . . ? 
C3 C4 C8 C7 179.1(8) . . . . ? 
S5 C4 C8 C7 -0.9(8) . . . . ? 
C6 C7 C8 C9 179.9(7) . . . . ? 
C6 C7 C8 C4 -0.8(15) . . . . ? 
C4 C8 C9 C10 0.5(4) . . . . ? 
C7 C8 C9 C10 179.7(10) . . . . ? 
C8 C9 C10 C1 -178.9(3) . . . 3_666 ? 
C8 C9 C10 C2 1.4(4) . . . . ? 
C1 C2 C10 C1 -2.1(4) . . . 3_666 ? 
C3 C2 C10 C1 178.1(2) . . . 3_666 ? 
C1 C2 C10 C9 177.6(2) . . . . ? 
C3 C2 C10 C9 -2.2(4) . . . . ? 
C10 C1 C11 C12 -81(14) 3_666 . . . ? 
C2 C1 C11 C12 98(14) . . . . ? 
C1 C11 C12 Si1 16(17) . . . . ? 
C17 Si1 C12 C11 -149(4) . . . . ? 
C15 Si1 C12 C11 94(4) . . . . ? 
C13 Si1 C12 C11 -25(4) . . . . ? 
C17' Si1 C12 C11 -139(4) . . . . ? 
C17 Si1 C13 C14 -67.3(6) . . . . ? 
C12 Si1 C13 C14 172.3(3) . . . . ? 
C15 Si1 C13 C14 53.6(4) . . . . ? 
C17' Si1 C13 C14 -72.6(6) . . . . ? 
C17 Si1 C15 C16 -170.5(6) . . . . ? 
C12 Si1 C15 C16 -53.0(3) . . . . ? 
C13 Si1 C15 C16 64.2(3) . . . . ? 
C17' Si1 C15 C16 -175.0(7) . . . . ? 
C12 Si1 C17 C18" 18.1(17) . . . . ? 
C15 Si1 C17 C18" 136.0(14) . . . . ? 
C13 Si1 C17 C18" -101.3(15) . . . . ? 
C17' Si1 C17 C18" -69(5) . . . . ? 
C12 Si1 C17 C18 -171.5(11) . . . . ? 
C15 Si1 C17 C18 -53.6(14) . . . . ? 
C13 Si1 C17 C18 69.2(13) . . . . ? 
C17' Si1 C17 C18 101(6) . . . . ? 
C17 Si1 C17' C18' 140(7) . . . . ? 
C12 Si1 C17' C18' 44.1(14) . . . . ? 
C15 Si1 C17' C18' 166.8(10) . . . . ? 
C13 Si1 C17' C18' -70.2(13) . . . . ? 
 
_diffrn_measured_fraction_theta_max    0.973 
_diffrn_reflns_theta_full              68.09 
_diffrn_measured_fraction_theta_full   0.973 
_refine_diff_density_max    0.578 
_refine_diff_density_min   -0.348 
_refine_diff_density_rms    0.067 
