 
data_x12576 
 
_audit_creation_method            SHELXL-97 
_chemical_name_systematic 
; 
 ? 
; 
_chemical_name_common             ? 
_chemical_melting_point           ? 
_chemical_formula_moiety 
 'C36 H36 F2 S2 Si2' 
_chemical_formula_sum 
 'C36 H36 F2 S2 Si2' 
_chemical_formula_weight          626.95 
 
loop_ 
 _atom_type_symbol 
 _atom_type_description 
 _atom_type_scat_dispersion_real 
 _atom_type_scat_dispersion_imag 
 _atom_type_scat_source 
 'C'  'C'   0.0181   0.0091 
 'International Tables Vol C Tables 4.2.6.8 and 6.1.1.4' 
 'H'  'H'   0.0000   0.0000 
 'International Tables Vol C Tables 4.2.6.8 and 6.1.1.4' 
 'F'  'F'   0.0727   0.0534 
 'International Tables Vol C Tables 4.2.6.8 and 6.1.1.4' 
 'Si'  'Si'   0.2541   0.3302 
 'International Tables Vol C Tables 4.2.6.8 and 6.1.1.4' 
 'S'  'S'   0.3331   0.5567 
 'International Tables Vol C Tables 4.2.6.8 and 6.1.1.4' 
 
_symmetry_cell_setting            monoclinic 
_symmetry_space_group_name_H-M    'P 21/c' 
_symmetry_space_group_name_Hall   '-P 2ybc' 
 
loop_ 
 _symmetry_equiv_pos_as_xyz 
 'x, y, z' 
 '-x, y+1/2, -z+1/2' 
 '-x, -y, -z' 
 'x, -y-1/2, z-1/2' 
 
_cell_length_a                    7.1556(2) 
_cell_length_b                    32.3584(10) 
_cell_length_c                    7.3292(2) 
_cell_angle_alpha                 90.00 
_cell_angle_beta                  109.468(1) 
_cell_angle_gamma                 90.00 
_cell_volume                      1600.01(8) 
_cell_formula_units_Z             2 
_cell_measurement_temperature     90.0(2) 
_cell_measurement_reflns_used     9887 
_cell_measurement_theta_min       5.47 
_cell_measurement_theta_max       68.43 
 
_exptl_crystal_description        flake 
_exptl_crystal_colour             orange 
_exptl_crystal_size_max           0.12 
_exptl_crystal_size_mid           0.10 
_exptl_crystal_size_min           0.02 
_exptl_crystal_density_meas       ? 
_exptl_crystal_density_diffrn     1.301 
_exptl_crystal_density_method     'not measured' 
_exptl_crystal_F_000              660 
_exptl_absorpt_coefficient_mu     2.517 
_exptl_absorpt_correction_type    multi-scan 
_exptl_absorpt_correction_T_min   0.752 
_exptl_absorpt_correction_T_max   0.951 
_exptl_absorpt_process_details    
;
Sadabs in APEX2 (BrukerAXS, 2006); XABS2 (Parkin, Moezzi & Hope, 1995)
; 
 
_exptl_special_details 
; 
 ? 
; 
 
_diffrn_ambient_temperature       90.0(2) 
_diffrn_radiation_wavelength      1.54178 
_diffrn_radiation_type            CuK\a 
_diffrn_radiation_source          'fine-focus rotating anode' 
_diffrn_radiation_monochromator   'graded multilayer optics' 
_diffrn_measurement_device_type   'Bruker X8 Proteum diffractometer'
_diffrn_measurement_method        '\f and \w scans'            
_diffrn_detector_area_resol_mean  5.6
_diffrn_standards_number          0 
_diffrn_standards_interval_count  . 
_diffrn_standards_interval_time   . 
_diffrn_standards_decay_%         ? 
_diffrn_reflns_number             16753 
_diffrn_reflns_av_R_equivalents   0.0419 
_diffrn_reflns_av_sigmaI/netI     0.0268 
_diffrn_reflns_limit_h_min        -8 
_diffrn_reflns_limit_h_max        8 
_diffrn_reflns_limit_k_min        -38 
_diffrn_reflns_limit_k_max        38 
_diffrn_reflns_limit_l_min        -8 
_diffrn_reflns_limit_l_max        8 
_diffrn_reflns_theta_min          5.47 
_diffrn_reflns_theta_max          68.42 
_reflns_number_total              2809 
_reflns_number_gt                 2699 
_reflns_threshold_expression      >2\s(I)    
 
_computing_data_collection        'APEX2 (Bruker-AXS, 2006)'            
_computing_cell_refinement        'APEX2'
_computing_data_reduction         'APEX2'
_computing_structure_solution     'SHELXS-97 (Sheldrick, 2008)' 
_computing_structure_refinement   'SHELXL-97 (Sheldrick, 2008)' 
_computing_molecular_graphics     'XP in SHELXTL (Sheldrick, 2008)'
_computing_publication_material
; 
SHELX-97 (Sheldrick, 2008) and local procedures 
; 
 
_publ_section_exptl_refinement
;
H atoms were found in difference Fourier maps and subsequently placed 
in idealized positions with constrained distances of 0.98 \%A (RCH~3~), 
0.99 \%A (R~2~CH~2~), 1.00 \%A (R~3~CH), 0.95 \%A (C~sp2~H), and with 
U~iso~(H) values set to either 1.2U~eq~ or 1.5U~eq~ (RCH~3~, OH) of the 
attached atom. 

To ensure satisfactory refinement of the disordered parts of the structure, 
a combination of constraints and restraints were needed.  The constraints 
(SHELXL97 commands EXYZ and EADP) were used to make the coordinates and/or 
displacement parameters of closely proximate atoms equal.  The restraints 
(SHELXL97 commands SAME, DELU, ISOR) were used to ensure similar geometries 
and displacement parameters of closely proximate, chemically similar 
groups. 
;

_refine_special_details 
; 
Refinement of F^2^ against all reflections.  The weighted R-value wR and 
goodness of fit S are based on F^2^. Conventional R-values R are based 
on F, with F set to zero for negative F^2^.  The threshold expression of 
F^2^ > 2\s(F^2^) is used only for calculating R-factors(gt) etc. and is 
not relevant to the choice of reflections for refinement.  R-values based 
on F^2^ are statistically about twice as large as those based on F, and  
R-values based on ALL data will be even larger. 
; 
 
_refine_ls_structure_factor_coef  Fsqd  
_refine_ls_matrix_type            full 
_refine_ls_weighting_scheme       calc  
_refine_ls_weighting_details 
 'calc w=1/[\s^2^(Fo^2^)+(0.0136P)^2^+3.5854P] where P=(Fo^2^+2Fc^2^)/3' 
_atom_sites_solution_primary      direct 
_atom_sites_solution_secondary    difmap 
_atom_sites_solution_hydrogens    geom 
_refine_ls_hydrogen_treatment     constr 
_refine_ls_extinction_method      none 
_refine_ls_extinction_coef        ? 
_refine_ls_number_reflns          2809 
_refine_ls_number_parameters      228 
_refine_ls_number_restraints      111 
_refine_ls_R_factor_all           0.0527 
_refine_ls_R_factor_gt            0.0512 
_refine_ls_wR_factor_ref          0.1315 
_refine_ls_wR_factor_gt           0.1308 
_refine_ls_goodness_of_fit_ref    1.251 
_refine_ls_restrained_S_all       1.242 
_refine_ls_shift/su_max           0.001 
_refine_ls_shift/su_mean          0.000 
 
loop_ 
 _atom_site_label 
 _atom_site_type_symbol 
 _atom_site_fract_x 
 _atom_site_fract_y 
 _atom_site_fract_z 
 _atom_site_U_iso_or_equiv 
 _atom_site_adp_type 
 _atom_site_occupancy 
 _atom_site_symmetry_multiplicity 
 _atom_site_calc_flag 
 _atom_site_refinement_flags 
 _atom_site_disorder_assembly 
 _atom_site_disorder_group 
Si1 Si 0.50587(13) 0.33427(2) 0.17348(12) 0.0250(2) Uani 1 1 d . . . 
C1 C 0.5152(4) 0.46091(9) 0.4201(4) 0.0185(6) Uani 1 1 d . . . 
C2 C 0.6107(4) 0.46761(9) 0.6202(4) 0.0184(6) Uani 1 1 d . B . 
C3 C 0.7257(4) 0.43615(9) 0.7426(4) 0.0212(6) Uani 1 1 d . . . 
H3 H 0.7428 0.4102 0.6900 0.025 Uiso 1 1 calc R A 1 
C4 C 0.8110(4) 0.44350(9) 0.9354(4) 0.0201(6) Uani 0.717(3) 1 d PDU B 1 
S5 S 0.9580(3) 0.40883(5) 1.1068(2) 0.0247(4) Uani 0.717(3) 1 d PDU B 1 
C6 C 0.9763(9) 0.44606(14) 1.2853(6) 0.0211(10) Uani 0.717(3) 1 d PDU B 1 
F1 F 1.0800(4) 0.43478(10) 1.4680(4) 0.0307(7) Uani 0.717(3) 1 d PDU B 1 
C7 C 0.887(2) 0.4816(4) 1.2285(15) 0.0240(9) Uani 0.717(3) 1 d PDU B 1 
H7 H 0.8875 0.5040 1.3125 0.029 Uiso 0.717(3) 1 calc PR B 1 
C8 C 0.7880(4) 0.48224(9) 1.0194(4) 0.0195(6) Uani 0.717(3) 1 d PDU B 1 
C4' C 0.8110(4) 0.44350(9) 0.9354(4) 0.0201(6) Uani 0.283(3) 1 d PDU B 2 
C5' C 0.935(4) 0.4164(6) 1.085(3) 0.0247(4) Uani 0.283(3) 1 d PDU B 2 
H5' H 0.9737 0.3893 1.0618 0.030 Uiso 0.283(3) 1 calc PR B 2 
F1' F 1.0962(13) 0.4179(2) 1.4284(11) 0.0307(7) Uani 0.283(3) 1 d PDU B 2 
C6' C 0.987(3) 0.4339(4) 1.2564(16) 0.0211(10) Uani 0.283(3) 1 d PDU B 2 
S7' S 0.9031(14) 0.4848(3) 1.2654(8) 0.0240(9) Uani 0.283(3) 1 d PDU B 2 
C8' C 0.7880(4) 0.48224(9) 1.0194(4) 0.0195(6) Uani 0.283(3) 1 d PDU B 2 
C9 C 0.6816(4) 0.51334(9) 0.9044(4) 0.0196(6) Uani 1 1 d . . . 
H9 H 0.6675 0.5392 0.9602 0.023 Uiso 1 1 calc R B 1 
C10 C 0.5927(4) 0.50714(8) 0.7028(4) 0.0181(6) Uani 1 1 d . . . 
C11 C 0.5230(4) 0.42083(9) 0.3396(4) 0.0216(6) Uani 1 1 d . . . 
C12 C 0.5215(4) 0.38688(9) 0.2721(4) 0.0239(6) Uani 1 1 d . C . 
C13 C 0.5096(5) 0.33632(10) -0.0795(5) 0.0303(7) Uani 1 1 d . C . 
H13A H 0.6431 0.3453 -0.0758 0.036 Uiso 1 1 calc R . . 
H13B H 0.4883 0.3080 -0.1340 0.036 Uiso 1 1 calc R . . 
C14 C 0.3565(6) 0.36490(14) -0.2154(6) 0.0486(10) Uani 1 1 d . . . 
H14A H 0.2232 0.3561 -0.2223 0.073 Uiso 1 1 calc R C . 
H14B H 0.3681 0.3637 -0.3448 0.073 Uiso 1 1 calc R . . 
H14C H 0.3796 0.3933 -0.1666 0.073 Uiso 1 1 calc R . . 
C15 C 0.268(7) 0.3104(12) 0.163(4) 0.043(4) Uani 0.586(8) 1 d P C 1 
H15A H 0.2691 0.3071 0.2979 0.052 Uiso 0.586(8) 1 calc PR C 1 
H15B H 0.1610 0.3301 0.0985 0.052 Uiso 0.586(8) 1 calc PR C 1 
C16 C 0.2138(17) 0.2680(3) 0.0599(14) 0.045(2) Uani 0.586(8) 1 d P C 1 
H16A H 0.2042 0.2709 -0.0761 0.067 Uiso 0.586(8) 1 calc PR C 1 
H16B H 0.0861 0.2587 0.0670 0.067 Uiso 0.586(8) 1 calc PR C 1 
H16C H 0.3166 0.2477 0.1233 0.067 Uiso 0.586(8) 1 calc PR C 1 
C15' C 0.275(10) 0.3112(18) 0.208(7) 0.043(4) Uani 0.414(8) 1 d P C 2 
H15' H 0.2476 0.3191 0.3286 0.052 Uiso 0.414(8) 1 calc PR C 2 
C16' C 0.244(2) 0.2670(4) 0.1474(15) 0.031(3) Uani 0.414(8) 1 d P C 2 
H16D H 0.1954 0.2478 0.2270 0.037 Uiso 0.414(8) 1 calc PR C 2 
H16E H 0.3337 0.2545 0.0849 0.037 Uiso 0.414(8) 1 calc PR C 2 
C16" C 0.1097(11) 0.3013(2) 0.0437(11) 0.028(2) Uani 0.414(8) 1 d P C 2 
H16F H 0.1145 0.3096 -0.0847 0.034 Uiso 0.414(8) 1 calc PR C 2 
H16G H -0.0233 0.3029 0.0569 0.034 Uiso 0.414(8) 1 calc PR C 2 
C17 C 0.7211(6) 0.30486(11) 0.3355(5) 0.0432(10) Uani 0.414(8) 1 d P C 1 
H17A H 0.7041 0.2755 0.2958 0.052 Uiso 0.414(8) 1 calc PR C 1 
H17B H 0.8422 0.3149 0.3129 0.052 Uiso 0.414(8) 1 calc PR C 1 
C18 C 0.7562(5) 0.30689(11) 0.5499(5) 0.0373(8) Uani 0.414(8) 1 d P C 1 
H18A H 0.7651 0.3359 0.5910 0.056 Uiso 0.414(8) 1 calc PR C 1 
H18B H 0.8803 0.2927 0.6201 0.056 Uiso 0.414(8) 1 calc PR C 1 
H18C H 0.6460 0.2935 0.5780 0.056 Uiso 0.414(8) 1 calc PR C 1 
C17' C 0.7211(6) 0.30486(11) 0.3355(5) 0.0432(10) Uani 0.586(8) 1 d P C 2 
H17' H 0.7379 0.2767 0.2871 0.052 Uiso 0.586(8) 1 calc PR C 2 
C18' C 0.7562(5) 0.30689(11) 0.5499(5) 0.0373(8) Uani 0.586(8) 1 d P C 2 
H18D H 0.6798 0.3273 0.5973 0.045 Uiso 0.586(8) 1 calc PR C 2 
H18E H 0.7925 0.2811 0.6265 0.045 Uiso 0.586(8) 1 calc PR C 2 
C18" C 0.8923(9) 0.32256(19) 0.4485(9) 0.0375(17) Uani 0.586(8) 1 d P C 2 
H18F H 0.9048 0.3529 0.4389 0.045 Uiso 0.586(8) 1 calc PR C 2 
H18G H 1.0167 0.3071 0.4679 0.045 Uiso 0.586(8) 1 calc PR C 2 
 
loop_ 
 _atom_site_aniso_label 
 _atom_site_aniso_U_11 
 _atom_site_aniso_U_22 
 _atom_site_aniso_U_33 
 _atom_site_aniso_U_23 
 _atom_site_aniso_U_13 
 _atom_site_aniso_U_12 
Si1 0.0307(5) 0.0225(4) 0.0257(4) -0.0023(3) 0.0144(4) 0.0017(3) 
C1 0.0131(13) 0.0255(14) 0.0178(14) -0.0035(11) 0.0065(11) -0.0005(10) 
C2 0.0127(13) 0.0260(14) 0.0171(14) -0.0026(11) 0.0057(11) -0.0021(10) 
C3 0.0192(14) 0.0227(14) 0.0212(15) -0.0023(11) 0.0059(12) 0.0002(11) 
C4 0.0159(13) 0.0252(13) 0.0192(13) 0.0011(10) 0.0058(11) -0.0028(10) 
S5 0.0234(8) 0.0263(8) 0.0215(6) 0.0021(5) 0.0035(5) -0.0001(5) 
C6 0.0213(16) 0.027(2) 0.0154(17) -0.0002(16) 0.0059(15) -0.004(2) 
F1 0.0346(12) 0.0340(17) 0.0182(13) 0.0026(11) 0.0016(10) 0.0033(13) 
C7 0.0196(16) 0.0364(15) 0.015(2) 0.0001(16) 0.0051(18) -0.0035(11) 
C8 0.0137(13) 0.0284(13) 0.0178(13) -0.0025(11) 0.0072(11) -0.0047(10) 
C4' 0.0159(13) 0.0252(13) 0.0192(13) 0.0011(10) 0.0058(11) -0.0028(10) 
C5' 0.0234(8) 0.0263(8) 0.0215(6) 0.0021(5) 0.0035(5) -0.0001(5) 
F1' 0.0346(12) 0.0340(17) 0.0182(13) 0.0026(11) 0.0016(10) 0.0033(13) 
C6' 0.0213(16) 0.027(2) 0.0154(17) -0.0002(16) 0.0059(15) -0.004(2) 
S7' 0.0196(16) 0.0364(15) 0.015(2) 0.0001(16) 0.0051(18) -0.0035(11) 
C8' 0.0137(13) 0.0284(13) 0.0178(13) -0.0025(11) 0.0072(11) -0.0047(10) 
C9 0.0145(13) 0.0266(14) 0.0188(14) -0.0034(11) 0.0072(12) -0.0020(11) 
C10 0.0137(13) 0.0239(14) 0.0179(14) -0.0019(11) 0.0067(11) -0.0020(10) 
C11 0.0177(14) 0.0290(16) 0.0159(14) -0.0005(12) 0.0029(12) 0.0020(11) 
C12 0.0213(15) 0.0278(16) 0.0204(15) -0.0006(12) 0.0042(12) 0.0031(12) 
C13 0.0302(17) 0.0327(17) 0.0277(17) -0.0107(13) 0.0093(14) -0.0092(13) 
C14 0.048(2) 0.067(3) 0.032(2) 0.0118(18) 0.0154(18) 0.003(2) 
C15 0.063(4) 0.029(2) 0.060(15) -0.004(8) 0.049(11) -0.003(2) 
C16 0.052(5) 0.035(4) 0.043(6) -0.001(5) 0.011(6) -0.021(4) 
C15' 0.063(4) 0.029(2) 0.060(15) -0.004(8) 0.049(11) -0.003(2) 
C16' 0.032(6) 0.035(5) 0.022(6) 0.001(5) 0.004(6) -0.009(4) 
C16" 0.016(4) 0.036(5) 0.031(4) -0.002(3) 0.006(3) -0.007(3) 
C17 0.061(3) 0.0379(19) 0.033(2) 0.0042(15) 0.0186(19) 0.0229(18) 
C18 0.038(2) 0.042(2) 0.0320(19) 0.0090(15) 0.0125(16) 0.0082(15) 
C17' 0.061(3) 0.0379(19) 0.033(2) 0.0042(15) 0.0186(19) 0.0229(18) 
C18' 0.038(2) 0.042(2) 0.0320(19) 0.0090(15) 0.0125(16) 0.0082(15) 
C18" 0.027(3) 0.046(4) 0.038(4) 0.014(3) 0.009(3) 0.006(3) 
 
_geom_special_details 
; 
 All esds (except the esd in the dihedral angle between two l.s. planes) 
 are estimated using the full covariance matrix.  The cell esds are taken 
 into account individually in the estimation of esds in distances, angles 
 and torsion angles; correlations between esds in cell parameters are only 
 used when they are defined by crystal symmetry.  An approximate (isotropic) 
 treatment of cell esds is used for estimating esds involving l.s. planes. 
; 
 
loop_ 
 _geom_bond_atom_site_label_1 
 _geom_bond_atom_site_label_2 
 _geom_bond_distance 
 _geom_bond_site_symmetry_2 
 _geom_bond_publ_flag 
Si1 C12 1.839(3) . ? 
Si1 C15 1.85(5) . ? 
Si1 C17 1.862(4) . ? 
Si1 C13 1.865(3) . ? 
Si1 C15' 1.90(7) . ? 
C1 C2 1.413(4) . ? 
C1 C10 1.418(4) 3_666 ? 
C1 C11 1.433(4) . ? 
C2 C3 1.423(4) . ? 
C2 C10 1.439(4) . ? 
C3 C4 1.360(4) . ? 
C3 H3 0.9500 . ? 
C4 C8 1.430(4) . ? 
C4 S5 1.750(3) . ? 
S5 C6 1.751(5) . ? 
C6 C7 1.314(14) . ? 
C6 F1 1.347(5) . ? 
C7 C8 1.459(11) . ? 
C7 H7 0.9500 . ? 
C8 C9 1.369(4) . ? 
C5' C6' 1.31(2) . ? 
C5' H5' 0.9500 . ? 
F1' C6' 1.347(11) . ? 
C6' S7' 1.762(13) . ? 
C9 C10 1.415(4) . ? 
C9 H9 0.9500 . ? 
C10 C1 1.419(4) 3_666 ? 
C11 C12 1.203(4) . ? 
C13 C14 1.524(5) . ? 
C13 H13A 0.9900 . ? 
C13 H13B 0.9900 . ? 
C14 H14A 0.9800 . ? 
C14 H14B 0.9800 . ? 
C14 H14C 0.9800 . ? 
C15 C16 1.55(4) . ? 
C15 H15A 0.9900 . ? 
C15 H15B 0.9900 . ? 
C16 H16A 0.9800 . ? 
C16 H16B 0.9800 . ? 
C16 H16C 0.9800 . ? 
C15' C16" 1.42(6) . ? 
C15' C16' 1.49(6) . ? 
C15' H15' 1.0000 . ? 
C16' C16" 1.500(15) . ? 
C16' H16D 0.9900 . ? 
C16' H16E 0.9900 . ? 
C16" H16F 0.9900 . ? 
C16" H16G 0.9900 . ? 
C17 C18 1.508(5) . ? 
C17 H17A 0.9900 . ? 
C17 H17B 0.9900 . ? 
C18 H18A 0.9800 . ? 
C18 H18B 0.9800 . ? 
C18 H18C 0.9800 . ? 
C18" H18F 0.9900 . ? 
C18" H18G 0.9900 . ? 
 
loop_ 
 _geom_angle_atom_site_label_1 
 _geom_angle_atom_site_label_2 
 _geom_angle_atom_site_label_3 
 _geom_angle 
 _geom_angle_site_symmetry_1 
 _geom_angle_site_symmetry_3 
 _geom_angle_publ_flag 
C12 Si1 C15 109.7(10) . . ? 
C12 Si1 C17 107.07(16) . . ? 
C15 Si1 C17 111.5(13) . . ? 
C12 Si1 C13 109.82(14) . . ? 
C15 Si1 C13 107.1(9) . . ? 
C17 Si1 C13 111.66(16) . . ? 
C12 Si1 C15' 104.6(16) . . ? 
C15 Si1 C15' 10(2) . . ? 
C17 Si1 C15' 106.5(18) . . ? 
C13 Si1 C15' 116.6(15) . . ? 
C2 C1 C10 121.3(3) . 3_666 ? 
C2 C1 C11 119.6(3) . . ? 
C10 C1 C11 119.1(2) 3_666 . ? 
C1 C2 C3 121.5(3) . . ? 
C1 C2 C10 119.5(3) . . ? 
C3 C2 C10 119.0(3) . . ? 
C4 C3 C2 119.7(3) . . ? 
C4 C3 H3 120.2 . . ? 
C2 C3 H3 120.2 . . ? 
C3 C4 C8 121.6(3) . . ? 
C3 C4 S5 126.0(2) . . ? 
C8 C4 S5 112.4(2) . . ? 
C4 S5 C6 88.44(19) . . ? 
C7 C6 F1 126.9(6) . . ? 
C7 C6 S5 117.3(5) . . ? 
F1 C6 S5 115.8(3) . . ? 
C6 C7 C8 111.1(9) . . ? 
C6 C7 H7 124.5 . . ? 
C8 C7 H7 124.5 . . ? 
C9 C8 C4 120.0(3) . . ? 
C9 C8 C7 129.2(6) . . ? 
C4 C8 C7 110.8(6) . . ? 
C6' C5' H5' 124.2 . . ? 
C5' C6' F1' 128.3(11) . . ? 
C5' C6' S7' 116.7(10) . . ? 
F1' C6' S7' 115.1(8) . . ? 
C8 C9 C10 120.2(3) . . ? 
C8 C9 H9 119.9 . . ? 
C10 C9 H9 119.9 . . ? 
C9 C10 C1 121.3(3) . 3_666 ? 
C9 C10 C2 119.6(3) . . ? 
C1 C10 C2 119.1(3) 3_666 . ? 
C12 C11 C1 177.2(3) . . ? 
C11 C12 Si1 176.5(3) . . ? 
C14 C13 Si1 115.2(2) . . ? 
C14 C13 H13A 108.5 . . ? 
Si1 C13 H13A 108.5 . . ? 
C14 C13 H13B 108.5 . . ? 
Si1 C13 H13B 108.5 . . ? 
H13A C13 H13B 107.5 . . ? 
C13 C14 H14A 109.5 . . ? 
C13 C14 H14B 109.5 . . ? 
H14A C14 H14B 109.5 . . ? 
C13 C14 H14C 109.5 . . ? 
H14A C14 H14C 109.5 . . ? 
H14B C14 H14C 109.5 . . ? 
C16 C15 Si1 118(2) . . ? 
C16 C15 H15A 107.8 . . ? 
Si1 C15 H15A 107.8 . . ? 
C16 C15 H15B 107.8 . . ? 
Si1 C15 H15B 107.8 . . ? 
H15A C15 H15B 107.2 . . ? 
C16" C15' C16' 62(3) . . ? 
C16" C15' Si1 119(3) . . ? 
C16' C15' Si1 113(3) . . ? 
C16" C15' H15' 117.0 . . ? 
C16' C15' H15' 117.0 . . ? 
Si1 C15' H15' 117.0 . . ? 
C15' C16' C16" 56(3) . . ? 
C15' C16' H16D 118.1 . . ? 
C16" C16' H16D 118.1 . . ? 
C15' C16' H16E 118.1 . . ? 
C16" C16' H16E 118.1 . . ? 
H16D C16' H16E 115.3 . . ? 
C15' C16" C16' 62(2) . . ? 
C15' C16" H16F 117.6 . . ? 
C16' C16" H16F 117.6 . . ? 
C15' C16" H16G 117.6 . . ? 
C16' C16" H16G 117.6 . . ? 
H16F C16" H16G 114.7 . . ? 
C18 C17 Si1 117.2(3) . . ? 
C18 C17 H17A 108.0 . . ? 
Si1 C17 H17A 108.0 . . ? 
C18 C17 H17B 108.0 . . ? 
Si1 C17 H17B 108.0 . . ? 
H17A C17 H17B 107.2 . . ? 
H18F C18" H18G 114.5 . . ? 
 
_diffrn_measured_fraction_theta_max    0.956 
_diffrn_reflns_theta_full              68.42 
_diffrn_measured_fraction_theta_full   0.956 
_refine_diff_density_max    0.268 
_refine_diff_density_min   -0.284 
_refine_diff_density_rms    0.065 
