 
data_k06144 
 
_audit_creation_method            SHELXL-97 
_chemical_name_systematic 
; 
 ? 
; 
_chemical_name_common             ? 
_chemical_melting_point           ? 
_chemical_formula_moiety          ? 
_chemical_formula_sum 
 'C34 H36 Cl2 S2 Si2' 
_chemical_formula_weight          635.83 
 
loop_ 
 _atom_type_symbol 
 _atom_type_description 
 _atom_type_scat_dispersion_real 
 _atom_type_scat_dispersion_imag 
 _atom_type_scat_source 
 'C'  'C'   0.0033   0.0016 
 'International Tables Vol C Tables 4.2.6.8 and 6.1.1.4' 
 'H'  'H'   0.0000   0.0000 
 'International Tables Vol C Tables 4.2.6.8 and 6.1.1.4' 
 'S'  'S'   0.1246   0.1234 
 'International Tables Vol C Tables 4.2.6.8 and 6.1.1.4' 
 'Si'  'Si'   0.0817   0.0704 
 'International Tables Vol C Tables 4.2.6.8 and 6.1.1.4' 
 'Cl'  'Cl'   0.1484   0.1585 
 'International Tables Vol C Tables 4.2.6.8 and 6.1.1.4' 
 
_symmetry_cell_setting            triclinic 
_symmetry_space_group_name_H-M    'P-1' 
 
loop_ 
 _symmetry_equiv_pos_as_xyz 
 'x, y, z' 
 '-x, -y, -z' 
 
_cell_length_a                    7.0838(1) 
_cell_length_b                    10.3072(2) 
_cell_length_c                    11.1758(3) 
_cell_angle_alpha                 95.7485(9) 
_cell_angle_beta                  90.0154(9) 
_cell_angle_gamma                 98.9117(9) 
_cell_volume                      801.98(3) 
_cell_formula_units_Z             1 
_cell_measurement_temperature     90.0(2) 
_cell_measurement_reflns_used     3591 
_cell_measurement_theta_min       1.00 
_cell_measurement_theta_max       27.48 
 
_exptl_crystal_description        'long thick needle' 
_exptl_crystal_colour             red 
_exptl_crystal_size_max           0.50 
_exptl_crystal_size_mid           0.07 
_exptl_crystal_size_min           0.02 
_exptl_crystal_density_meas       ? 
_exptl_crystal_density_diffrn     1.317 
_exptl_crystal_density_method     'not measured' 
_exptl_crystal_F_000              334 
_exptl_absorpt_coefficient_mu     0.431 
_exptl_absorpt_correction_type    multi-scan 
_exptl_absorpt_correction_T_min   0.8135 
_exptl_absorpt_correction_T_max   0.9914 
_exptl_absorpt_process_details    'Scalepack (Otwinowski & Minor, 1997)' 
 
_exptl_special_details 
; 
 ? 
; 
 
_diffrn_ambient_temperature       90.0(2) 
_diffrn_radiation_wavelength      0.71073 
_diffrn_radiation_type            MoK\a 
_diffrn_radiation_source          'fine-focus sealed tube' 
_diffrn_radiation_monochromator   graphite 
_diffrn_measurement_device_type   'Nonius KappaCCD diffractometer' 
_diffrn_measurement_method        '\w scans at fixed \c = 55\%' 
_diffrn_detector_area_resol_mean  18 
_diffrn_standards_number          ? 
_diffrn_standards_interval_count  ? 
_diffrn_standards_interval_time   ? 
_diffrn_standards_decay_%         ? 
_diffrn_reflns_number             7095 
_diffrn_reflns_av_R_equivalents   0.0507 
_diffrn_reflns_av_sigmaI/netI     0.0750 
_diffrn_reflns_limit_h_min        -9 
_diffrn_reflns_limit_h_max        9 
_diffrn_reflns_limit_k_min        -13 
_diffrn_reflns_limit_k_max        13 
_diffrn_reflns_limit_l_min        -14 
_diffrn_reflns_limit_l_max        14 
_diffrn_reflns_theta_min          1.83 
_diffrn_reflns_theta_max          27.50 
_reflns_number_total              3671 
_reflns_number_gt                 2397 
_reflns_threshold_expression      >2\s(I) 
 
_computing_data_collection       'COLLECT (Nonius, 1997)'
_computing_cell_refinement       'DENZO-SMN (Nonius, 1997)'
_computing_data_reduction        'DENZO-SMN (Nonius, 1997)'
_computing_structure_solution    'SHELXS-97 (Sheldrick, 1990)'
_computing_structure_refinement  'SHELXL-97 (Sheldrick, 1997)'
_computing_molecular_graphics    'XP in SHELXTL (Bruker, 1995)'
_computing_publication_material  'SHELX-97 and local procedures' 
 
_refine_special_details 
; 
 Refinement of F^2^ against ALL reflections.  The weighted R-factor wR and 
 goodness of fit S are based on F^2^, conventional R-factors R are based 
 on F, with F set to zero for negative F^2^. The threshold expression of 
 F^2^ > 2sigma(F^2^) is used only for calculating R-factors(gt) etc. and is 
 not relevant to the choice of reflections for refinement.  R-factors based 
 on F^2^ are statistically about twice as large as those based on F, and R- 
 factors based on ALL data will be even larger. 
; 
 
_refine_ls_structure_factor_coef  Fsqd  
_refine_ls_matrix_type            full 
_refine_ls_weighting_scheme       calc  
_refine_ls_weighting_details 
 'calc w=1/[\s^2^(Fo^2^)+(0.0541P)^2^+0.0773P] where P=(Fo^2^+2Fc^2^)/3' 
_atom_sites_solution_primary      direct 
_atom_sites_solution_secondary    difmap 
_atom_sites_solution_hydrogens    geom 
_refine_ls_hydrogen_treatment     constr 
_refine_ls_extinction_method      none 
_refine_ls_extinction_coef        ? 
_refine_ls_number_reflns          3671 
_refine_ls_number_parameters      227 
_refine_ls_number_restraints      171 
_refine_ls_R_factor_all           0.0872 
_refine_ls_R_factor_gt            0.0454 
_refine_ls_wR_factor_ref          0.1170 
_refine_ls_wR_factor_gt           0.1014 
_refine_ls_goodness_of_fit_ref    1.027 
_refine_ls_restrained_S_all       1.009 
_refine_ls_shift/su_max           0.001 
_refine_ls_shift/su_mean          0.000 
 
loop_ 
 _atom_site_label 
 _atom_site_type_symbol 
 _atom_site_fract_x 
 _atom_site_fract_y 
 _atom_site_fract_z 
 _atom_site_U_iso_or_equiv 
 _atom_site_adp_type 
 _atom_site_occupancy 
 _atom_site_symmetry_multiplicity 
 _atom_site_calc_flag 
 _atom_site_refinement_flags 
 _atom_site_disorder_assembly 
 _atom_site_disorder_group 
C1 C 0.9474(3) -0.06908(18) 0.10130(17) 0.0189(5) Uani 1 1 d . . . 
C2 C 0.8392(3) 0.02719(18) 0.06980(18) 0.0197(5) Uani 1 1 d . B . 
C3 C 0.6788(3) 0.05622(19) 0.13696(18) 0.0215(5) Uani 1 1 d . . . 
H3 H 0.6439 0.0098 0.2049 0.026 Uiso 1 1 calc R A 1 
C4 C 0.572(3) 0.149(2) 0.1075(19) 0.0199(7) Uani 0.584(2) 1 d PDU B 1 
S5 S 0.3736(2) 0.19889(17) 0.17993(13) 0.0243(4) Uani 0.584(2) 1 d PDU B 1 
C6 C 0.3586(8) 0.3108(6) 0.0731(5) 0.0225(9) Uani 0.584(2) 1 d PDU B 1 
Cl1 Cl 0.1764(2) 0.40345(16) 0.08921(16) 0.0306(4) Uani 0.584(2) 1 d PDU B 1 
C7 C 0.4946(16) 0.3133(10) -0.0105(9) 0.0237(11) Uani 0.584(2) 1 d PDU B 1 
H7 H 0.5052 0.3697 -0.0732 0.028 Uiso 0.584(2) 1 calc PR B 1 
C8 C 0.6214(17) 0.2213(16) 0.0057(14) 0.0195(7) Uani 0.584(2) 1 d PDU B 1 
C8' C 0.641(2) 0.218(2) -0.002(2) 0.0195(7) Uani 0.416(2) 1 d PDU B 2 
S7' S 0.4925(6) 0.3338(3) -0.0258(3) 0.0240(6) Uani 0.416(2) 1 d PDU B 2 
C6' C 0.3582(12) 0.2888(9) 0.0996(7) 0.0226(11) Uani 0.416(2) 1 d PDU B 2 
Cl1' Cl 0.1686(3) 0.3702(2) 0.1345(2) 0.0303(5) Uani 0.416(2) 1 d PDU B 2 
C5' C 0.4160(13) 0.1908(10) 0.1540(8) 0.0241(11) Uani 0.416(2) 1 d PDU B 2 
H5' H 0.3532 0.1532 0.2204 0.029 Uiso 0.416(2) 1 calc PR B 2 
C4' C 0.582(4) 0.150(3) 0.101(3) 0.0199(7) Uani 0.416(2) 1 d PDU B 2 
C9 C 0.7846(3) 0.19453(18) -0.06386(18) 0.0213(5) Uani 1 1 d . . . 
H9 H 0.8199 0.2423 -0.1310 0.026 Uiso 1 1 calc R B 1 
C10 C 0.8930(3) 0.09798(18) -0.03350(18) 0.0195(5) Uani 1 1 d . . . 
C11 C 0.8909(3) -0.13934(19) 0.20385(18) 0.0195(5) Uani 1 1 d . . . 
C12 C 0.8391(3) -0.19700(19) 0.28931(19) 0.0217(5) Uani 1 1 d . . . 
C13 C 0.6431(3) -0.4624(2) 0.33994(19) 0.0270(5) Uani 1 1 d . . . 
H13A H 0.6006 -0.5193 0.4042 0.032 Uiso 1 1 calc R . . 
H13B H 0.5314 -0.4619 0.2868 0.032 Uiso 1 1 calc R . . 
C14 C 0.7965(3) -0.5218(2) 0.2667(2) 0.0309(6) Uani 1 1 d . . . 
H14A H 0.8302 -0.4712 0.1980 0.046 Uiso 1 1 calc R . . 
H14B H 0.7476 -0.6137 0.2376 0.046 Uiso 1 1 calc R . . 
H14C H 0.9102 -0.5186 0.3176 0.046 Uiso 1 1 calc R . . 
C15 C 0.9026(3) -0.2938(2) 0.53288(19) 0.0253(5) Uani 1 1 d . . . 
H15A H 0.8384 -0.3471 0.5944 0.030 Uiso 1 1 calc R . . 
H15B H 1.0066 -0.3397 0.4993 0.030 Uiso 1 1 calc R . . 
C16 C 0.9926(3) -0.1592(2) 0.5955(2) 0.0342(6) Uani 1 1 d . . . 
H16A H 1.0675 -0.1082 0.5375 0.051 Uiso 1 1 calc R . . 
H16B H 1.0762 -0.1723 0.6617 0.051 Uiso 1 1 calc R . . 
H16C H 0.8914 -0.1112 0.6274 0.051 Uiso 1 1 calc R . . 
C17 C 0.5241(3) -0.2059(2) 0.4643(2) 0.0282(5) Uani 1 1 d . . . 
H17A H 0.4617 -0.2514 0.5312 0.034 Uiso 1 1 calc R . . 
H17B H 0.5751 -0.1141 0.4964 0.034 Uiso 1 1 calc R . . 
C18 C 0.3733(3) -0.2031(2) 0.3656(2) 0.0360(6) Uani 1 1 d . . . 
H18A H 0.4365 -0.1682 0.2950 0.054 Uiso 1 1 calc R . . 
H18B H 0.2811 -0.1465 0.3960 0.054 Uiso 1 1 calc R . . 
H18C H 0.3065 -0.2928 0.3432 0.054 Uiso 1 1 calc R . . 
Si1 Si 0.72649(8) -0.29052(5) 0.40991(5) 0.02018(17) Uani 1 1 d . . . 
 
loop_ 
 _atom_site_aniso_label 
 _atom_site_aniso_U_11 
 _atom_site_aniso_U_22 
 _atom_site_aniso_U_33 
 _atom_site_aniso_U_23 
 _atom_site_aniso_U_13 
 _atom_site_aniso_U_12 
C1 0.0249(12) 0.0145(10) 0.0144(11) 0.0013(8) -0.0017(9) -0.0063(8) 
C2 0.0250(12) 0.0139(10) 0.0175(11) -0.0003(8) -0.0006(9) -0.0041(9) 
C3 0.0274(12) 0.0181(11) 0.0167(11) 0.0043(8) -0.0010(9) -0.0049(9) 
C4 0.0225(17) 0.0180(10) 0.0165(19) -0.0013(11) -0.0013(12) -0.0032(12) 
S5 0.0258(8) 0.0235(6) 0.0221(8) -0.0004(5) 0.0054(5) 0.0006(5) 
C6 0.0253(16) 0.0187(19) 0.022(2) -0.0018(15) -0.0026(16) 0.0023(14) 
Cl1 0.0242(6) 0.0277(8) 0.0394(10) -0.0005(6) 0.0042(7) 0.0052(5) 
C7 0.0282(19) 0.020(2) 0.022(2) 0.0009(16) -0.0017(17) 0.0007(17) 
C8 0.0232(18) 0.0170(10) 0.0167(16) 0.0004(11) -0.0019(12) -0.0012(12) 
C8' 0.0232(18) 0.0170(10) 0.0167(16) 0.0004(11) -0.0019(12) -0.0012(12) 
S7' 0.0280(9) 0.0212(11) 0.0239(11) 0.0037(7) -0.0004(7) 0.0061(8) 
C6' 0.0255(19) 0.020(2) 0.020(2) -0.0024(19) 0.0019(18) 0.0013(17) 
Cl1' 0.0282(9) 0.0281(11) 0.0346(13) -0.0018(8) -0.0001(9) 0.0078(8) 
C5' 0.026(2) 0.0224(19) 0.022(2) -0.0001(18) 0.0027(18) -0.0011(18) 
C4' 0.0225(17) 0.0180(10) 0.0165(19) -0.0013(11) -0.0013(12) -0.0032(12) 
C9 0.0286(13) 0.0155(10) 0.0180(11) 0.0041(8) -0.0025(10) -0.0035(9) 
C10 0.0246(12) 0.0147(10) 0.0169(11) 0.0016(8) -0.0036(9) -0.0039(8) 
C11 0.0229(12) 0.0173(10) 0.0179(11) 0.0008(8) -0.0016(9) 0.0027(8) 
C12 0.0241(12) 0.0197(11) 0.0214(12) 0.0023(9) -0.0015(10) 0.0035(9) 
C13 0.0314(13) 0.0237(12) 0.0243(12) 0.0051(9) -0.0002(10) -0.0020(10) 
C14 0.0385(15) 0.0230(12) 0.0303(13) -0.0017(10) -0.0016(11) 0.0053(10) 
C15 0.0292(13) 0.0280(12) 0.0195(12) 0.0080(9) 0.0010(10) 0.0029(10) 
C16 0.0373(15) 0.0361(14) 0.0261(13) -0.0018(10) -0.0021(11) -0.0012(11) 
C17 0.0328(14) 0.0302(13) 0.0239(12) 0.0069(10) 0.0066(10) 0.0096(10) 
C18 0.0301(14) 0.0471(16) 0.0339(14) 0.0112(12) 0.0053(11) 0.0104(12) 
Si1 0.0238(3) 0.0186(3) 0.0184(3) 0.0050(2) 0.0021(2) 0.0022(2) 
 
_geom_special_details 
; 
 All esds (except the esd in the dihedral angle between two l.s. planes) 
 are estimated using the full covariance matrix.  The cell esds are taken 
 into account individually in the estimation of esds in distances, angles 
 and torsion angles; correlations between esds in cell parameters are only 
 used when they are defined by crystal symmetry.  An approximate (isotropic) 
 treatment of cell esds is used for estimating esds involving l.s. planes. 
; 
 
loop_ 
 _geom_bond_atom_site_label_1 
 _geom_bond_atom_site_label_2 
 _geom_bond_distance 
 _geom_bond_site_symmetry_2 
 _geom_bond_publ_flag 
C1 C2 1.414(3) . ? 
C1 C10 1.414(3) 2_755 ? 
C1 C11 1.440(3) . ? 
C2 C3 1.416(3) . ? 
C2 C10 1.447(3) . ? 
C3 C4' 1.359(15) . ? 
C3 C4 1.370(11) . ? 
C3 H3 0.9500 . ? 
C4 C8 1.437(5) . ? 
C4 S5 1.744(12) . ? 
S5 C6 1.755(5) . ? 
C6 C7 1.341(10) . ? 
C6 Cl1 1.720(4) . ? 
C7 C8 1.427(14) . ? 
C7 H7 0.9500 . ? 
C8 C9 1.440(10) . ? 
C8' C9 1.267(13) . ? 
C8' C4' 1.436(6) . ? 
C8' S7' 1.748(15) . ? 
S7' C6' 1.755(7) . ? 
C6' C5' 1.345(11) . ? 
C6' Cl1' 1.716(5) . ? 
C5' C4' 1.424(17) . ? 
C5' H5' 0.9500 . ? 
C9 C10 1.414(3) . ? 
C9 H9 0.9500 . ? 
C10 C1 1.414(3) 2_755 ? 
C11 C12 1.203(3) . ? 
C12 Si1 1.845(2) . ? 
C13 C14 1.527(3) . ? 
C13 Si1 1.870(2) . ? 
C13 H13A 0.9900 . ? 
C13 H13B 0.9900 . ? 
C14 H14A 0.9800 . ? 
C14 H14B 0.9800 . ? 
C14 H14C 0.9800 . ? 
C15 C16 1.534(3) . ? 
C15 Si1 1.862(2) . ? 
C15 H15A 0.9900 . ? 
C15 H15B 0.9900 . ? 
C16 H16A 0.9800 . ? 
C16 H16B 0.9800 . ? 
C16 H16C 0.9800 . ? 
C17 C18 1.541(3) . ? 
C17 Si1 1.862(2) . ? 
C17 H17A 0.9900 . ? 
C17 H17B 0.9900 . ? 
C18 H18A 0.9800 . ? 
C18 H18B 0.9800 . ? 
C18 H18C 0.9800 . ? 
 
loop_ 
 _geom_angle_atom_site_label_1 
 _geom_angle_atom_site_label_2 
 _geom_angle_atom_site_label_3 
 _geom_angle 
 _geom_angle_site_symmetry_1 
 _geom_angle_site_symmetry_3 
 _geom_angle_publ_flag 
C2 C1 C10 121.29(18) . 2_755 ? 
C2 C1 C11 118.74(19) . . ? 
C10 C1 C11 119.96(19) 2_755 . ? 
C1 C2 C3 121.60(18) . . ? 
C1 C2 C10 119.46(19) . . ? 
C3 C2 C10 118.94(19) . . ? 
C4' C3 C4 4.4(15) . . ? 
C4' C3 C2 117.9(9) . . ? 
C4 C3 C2 122.4(7) . . ? 
C4' C3 H3 123.3 . . ? 
C4 C3 H3 118.8 . . ? 
C2 C3 H3 118.8 . . ? 
C3 C4 C8 120.3(12) . . ? 
C3 C4 S5 128.8(10) . . ? 
C8 C4 S5 110.9(9) . . ? 
C4 S5 C6 90.1(4) . . ? 
C7 C6 Cl1 128.5(5) . . ? 
C7 C6 S5 114.7(4) . . ? 
Cl1 C6 S5 116.8(3) . . ? 
C6 C7 C8 112.1(8) . . ? 
C6 C7 H7 123.9 . . ? 
C8 C7 H7 123.9 . . ? 
C7 C8 C4 112.2(9) . . ? 
C7 C8 C9 129.2(11) . . ? 
C4 C8 C9 118.6(11) . . ? 
C9 C8' C4' 122.2(16) . . ? 
C9 C8' S7' 127.0(14) . . ? 
C4' C8' S7' 110.8(11) . . ? 
C8' S7' C6' 90.1(6) . . ? 
C5' C6' Cl1' 128.5(6) . . ? 
C5' C6' S7' 114.6(5) . . ? 
Cl1' C6' S7' 116.9(4) . . ? 
C6' C5' C4' 112.1(9) . . ? 
C6' C5' H5' 123.9 . . ? 
C4' C5' H5' 123.9 . . ? 
C3 C4' C5' 126.4(15) . . ? 
C3 C4' C8' 121.3(16) . . ? 
C5' C4' C8' 112.3(13) . . ? 
C8' C9 C10 120.6(9) . . ? 
C8' C9 C8 0.2(19) . . ? 
C10 C9 C8 120.8(6) . . ? 
C8' C9 H9 119.7 . . ? 
C10 C9 H9 119.6 . . ? 
C8 C9 H9 119.6 . . ? 
C9 C10 C1 121.73(18) . 2_755 ? 
C9 C10 C2 119.03(19) . . ? 
C1 C10 C2 119.24(19) 2_755 . ? 
C12 C11 C1 178.3(2) . . ? 
C11 C12 Si1 171.97(19) . . ? 
C14 C13 Si1 113.33(15) . . ? 
C14 C13 H13A 108.9 . . ? 
Si1 C13 H13A 108.9 . . ? 
C14 C13 H13B 108.9 . . ? 
Si1 C13 H13B 108.9 . . ? 
H13A C13 H13B 107.7 . . ? 
C13 C14 H14A 109.5 . . ? 
C13 C14 H14B 109.5 . . ? 
H14A C14 H14B 109.5 . . ? 
C13 C14 H14C 109.5 . . ? 
H14A C14 H14C 109.5 . . ? 
H14B C14 H14C 109.5 . . ? 
C16 C15 Si1 116.08(16) . . ? 
C16 C15 H15A 108.3 . . ? 
Si1 C15 H15A 108.3 . . ? 
C16 C15 H15B 108.3 . . ? 
Si1 C15 H15B 108.3 . . ? 
H15A C15 H15B 107.4 . . ? 
C15 C16 H16A 109.5 . . ? 
C15 C16 H16B 109.5 . . ? 
H16A C16 H16B 109.5 . . ? 
C15 C16 H16C 109.5 . . ? 
H16A C16 H16C 109.5 . . ? 
H16B C16 H16C 109.5 . . ? 
C18 C17 Si1 113.22(15) . . ? 
C18 C17 H17A 108.9 . . ? 
Si1 C17 H17A 108.9 . . ? 
C18 C17 H17B 108.9 . . ? 
Si1 C17 H17B 108.9 . . ? 
H17A C17 H17B 107.7 . . ? 
C17 C18 H18A 109.5 . . ? 
C17 C18 H18B 109.5 . . ? 
H18A C18 H18B 109.5 . . ? 
C17 C18 H18C 109.5 . . ? 
H18A C18 H18C 109.5 . . ? 
H18B C18 H18C 109.5 . . ? 
C12 Si1 C15 110.60(10) . . ? 
C12 Si1 C17 106.19(10) . . ? 
C15 Si1 C17 111.60(10) . . ? 
C12 Si1 C13 106.53(10) . . ? 
C15 Si1 C13 109.64(10) . . ? 
C17 Si1 C13 112.12(10) . . ? 
 
loop_ 
 _geom_torsion_atom_site_label_1 
 _geom_torsion_atom_site_label_2 
 _geom_torsion_atom_site_label_3 
 _geom_torsion_atom_site_label_4 
 _geom_torsion 
 _geom_torsion_site_symmetry_1 
 _geom_torsion_site_symmetry_2 
 _geom_torsion_site_symmetry_3 
 _geom_torsion_site_symmetry_4 
 _geom_torsion_publ_flag 
C10 C1 C2 C3 179.73(18) 2_755 . . . ? 
C11 C1 C2 C3 0.4(3) . . . . ? 
C10 C1 C2 C10 -0.2(3) 2_755 . . . ? 
C11 C1 C2 C10 -179.54(17) . . . . ? 
C1 C2 C3 C4' -180(2) . . . . ? 
C10 C2 C3 C4' 0(2) . . . . ? 
C1 C2 C3 C4 -179.8(15) . . . . ? 
C10 C2 C3 C4 0.1(15) . . . . ? 
C4' C3 C4 C8 0(38) . . . . ? 
C2 C3 C4 C8 0(3) . . . . ?  
C2 C3 C4 S5 -179.2(15) . . . . ? 
C3 C4 S5 C6 180(2) . . . . ? 
C8 C4 S5 C6 1.0(15) . . . . ? 
C4 S5 C6 C7 -1.1(12) . . . . ? 
C4 S5 C6 Cl1 179.6(11) . . . . ? 
Cl1 C6 C7 C8 180.0(9) . . . . ? 
S5 C6 C7 C8 0.8(14) . . . . ? 
C6 C7 C8 C4 0.0(18) . . . . ? 
C6 C7 C8 C9 -179.7(14) . . . . ? 
C3 C4 C8 C7 -180(2) . . . . ? 
S5 C4 C8 C7 -1(2) . . . . ? 
C3 C4 C8 C9 0(3) . . . . ? 
S5 C4 C8 C9 178.9(15) . . . . ? 
C9 C8' S7' C6' -179(2) . . . . ? 
C4' C8' S7' C6' 0.0(19) . . . . ? 
C8' S7' C6' C5' -1.9(12) . . . . ? 
C8' S7' C6' Cl1' 180.0(10) . . . . ? 
Cl1' C6' C5' C4' -179(2) . . . . ? 
S7' C6' C5' C4' 3(2) . . . . ? 
C4 C3 C4' C5' -1(36) . . . . ? 
C2 C3 C4' C5' 178(2) . . . . ?  
C2 C3 C4' C8' 0(4) . . . . ? 
C6' C5' C4' C3 178(3) . . . . ? 
C6' C5' C4' C8' -3(3) . . . . ? 
C9 C8' C4' C3 0(4) . . . . ? 
S7' C8' C4' C3 -179(3) . . . . ? 
C9 C8' C4' C5' -179(3) . . . . ? 
S7' C8' C4' C5' 2(3) . . . . ? 
C4' C8' C9 C10 0(3) . . . . ? 
S7' C8' C9 C10 179.7(12) . . . . ?  
C7 C8 C9 C10 -179.7(12) . . . . ? 
C4 C8 C9 C10 0.7(16) . . . . ? 
C8' C9 C10 C1 179.6(13) . . . 2_755 ? 
C8 C9 C10 C1 179.3(8) . . . 2_755 ? 
C8' C9 C10 C2 -0.6(14) . . . . ? 
C8 C9 C10 C2 -0.8(9) . . . . ? 
C1 C2 C10 C9 -179.66(18) . . . . ? 
C3 C2 C10 C9 0.4(3) . . . . ? 
C1 C2 C10 C1 0.2(3) . . . 2_755 ? 
C3 C2 C10 C1 -179.74(17) . . . 2_755 ? 
C2 C1 C11 C12 18(7) . . . . ? 
C10 C1 C11 C12 -161(7) 2_755 . . . ? 
C1 C11 C12 Si1 34(8) . . . . ? 
C11 C12 Si1 C15 -179(100) . . . . ? 
C11 C12 Si1 C17 -58.0(14) . . . . ? 
C11 C12 Si1 C13 61.7(14) . . . . ? 
C16 C15 Si1 C12 59.90(18) . . . . ? 
C16 C15 Si1 C17 -58.08(19) . . . . ? 
C16 C15 Si1 C13 177.08(16) . . . . ? 
C18 C17 Si1 C12 60.36(18) . . . . ? 
C18 C17 Si1 C15 -179.05(15) . . . . ? 
C18 C17 Si1 C13 -55.61(19) . . . . ? 
C14 C13 Si1 C12 49.58(18) . . . . ? 
C14 C13 Si1 C15 -70.12(18) . . . . ? 
C14 C13 Si1 C17 165.35(15) . . . . ? 
 
_diffrn_measured_fraction_theta_max    0.998 
_diffrn_reflns_theta_full              27.50 
_diffrn_measured_fraction_theta_full   0.998 
_refine_diff_density_max    0.407 
_refine_diff_density_min   -0.302 
_refine_diff_density_rms    0.067 
