 
data_k07305 
 
_audit_creation_method            SHELXL-97 
_chemical_name_systematic 
; 
 ? 
; 
_chemical_name_common             ? 
_chemical_melting_point           ? 
_chemical_formula_moiety 
 'C40 H48 F4 Si2' 
_chemical_formula_sum 
 'C40 H48 F4 Si2' 
_chemical_formula_weight          660.96 
 
loop_ 
 _atom_type_symbol 
 _atom_type_description 
 _atom_type_scat_dispersion_real 
 _atom_type_scat_dispersion_imag 
 _atom_type_scat_source 
 'C'  'C'   0.0033   0.0016 
 'International Tables Vol C Tables 4.2.6.8 and 6.1.1.4' 
 'H'  'H'   0.0000   0.0000 
 'International Tables Vol C Tables 4.2.6.8 and 6.1.1.4' 
 'F'  'F'   0.0171   0.0103 
 'International Tables Vol C Tables 4.2.6.8 and 6.1.1.4' 
 'Si'  'Si'   0.0817   0.0704 
 'International Tables Vol C Tables 4.2.6.8 and 6.1.1.4' 
 
_symmetry_cell_setting            triclinic 
_symmetry_space_group_name_H-M    'P -1'
_symmetry_space_group_name_Hall   '-P 1'
 
loop_ 
 _symmetry_equiv_pos_as_xyz 
 'x, y, z' 
 '-x, -y, -z' 
 
_cell_length_a                    7.5836(1) 
_cell_length_b                    14.2117(2) 
_cell_length_c                    17.6747(3) 
_cell_angle_alpha                 70.7200(6) 
_cell_angle_beta                  81.7256(6) 
_cell_angle_gamma                 83.1750(7) 
_cell_volume                      1774.16(5) 
_cell_formula_units_Z             2 
_cell_measurement_temperature     90.0(2) 
_cell_measurement_reflns_used     7920
_cell_measurement_theta_min       1.00
_cell_measurement_theta_max       27.48
 
_exptl_crystal_description        block
_exptl_crystal_colour             red
_exptl_crystal_size_max           0.35 
_exptl_crystal_size_mid           0.30 
_exptl_crystal_size_min           0.25 
_exptl_crystal_density_meas       ? 
_exptl_crystal_density_diffrn     1.237 
_exptl_crystal_density_method     'not measured' 
_exptl_crystal_F_000              704 
_exptl_absorpt_coefficient_mu     0.148 
_exptl_absorpt_correction_type    multi-scan 
_exptl_absorpt_correction_T_min   0.9499 
_exptl_absorpt_correction_T_max   0.9639 
_exptl_absorpt_process_details    'Scalepack (Otwinowski & Minor, 1997)' 
 
_exptl_special_details 
; 
 ? 
; 
 
_diffrn_ambient_temperature       90.0(2) 
_diffrn_radiation_wavelength      0.71073 
_diffrn_radiation_type            MoK\a 
_diffrn_radiation_source          'fine-focus sealed tube'    
_diffrn_radiation_monochromator   'graphite'                 
_diffrn_measurement_device_type   'Nonius KappaCCD diffractometer'  
_diffrn_measurement_method        '\w scans at fixed \c = 55\%'
_diffrn_detector_area_resol_mean  18
_diffrn_standards_number          0 
_diffrn_standards_interval_count  . 
_diffrn_standards_interval_time   . 
_diffrn_standards_decay_%         ? 
_diffrn_reflns_number             15749 
_diffrn_reflns_av_R_equivalents   0.0201 
_diffrn_reflns_av_sigmaI/netI     0.0322 
_diffrn_reflns_limit_h_min        -9 
_diffrn_reflns_limit_h_max        9 
_diffrn_reflns_limit_k_min        -18 
_diffrn_reflns_limit_k_max        18 
_diffrn_reflns_limit_l_min        -22 
_diffrn_reflns_limit_l_max        22 
_diffrn_reflns_theta_min          1.23 
_diffrn_reflns_theta_max          27.49 
_reflns_number_total              8100 
_reflns_number_gt                 6704 
_reflns_threshold_expression      >2\s(I)    
 
_computing_data_collection        'COLLECT (Nonius, 1998)'
_computing_cell_refinement        'SCALEPACK (Otwinowski & Minor, 1997)'
_computing_data_reduction         'DENZO-SMN (Otwinowski & Minor, 1997)'
_computing_structure_solution     'SHELXS-97 (Sheldrick, 1997)' 
_computing_structure_refinement   'SHELXL-97 (Sheldrick, 1997)' 
_computing_molecular_graphics     'XP in SHELXTL (Sheldrick, 1994)'
_computing_publication_material
; 
SHELX97-2 (Sheldrick, 1997) and local procedures 
; 
 
_refine_special_details 
; 
 Refinement of F^2^ against ALL reflections.  The weighted R-factor wR and 
 goodness of fit S are based on F^2^, conventional R-factors R are based 
 on F, with F set to zero for negative F^2^. The threshold expression of 
 F^2^ > 2\s(F^2^) is used only for calculating R-factors(gt) etc. and is 
 not relevant to the choice of reflections for refinement.  R-factors based 
 on F^2^ are statistically about twice as large as those based on F, and R- 
 factors based on ALL data will be even larger. 
; 

_publ_section_exptl_refinement
;
H atoms were found in difference Fourier maps and subsequently placed in
idealized positions with constrained C-H distances of 0.98 \%A (C~Me~H),
1.00 \%A (R~3~CH) and 0.95 \%A (C~Ar~H) with U~iso~(H) values set to either 
1.2U~eq~ or 1.5U~eq~ (C~Me~H only) of the attached C atom.
;
  
_refine_ls_structure_factor_coef  Fsqd  
_refine_ls_matrix_type            full 
_refine_ls_weighting_scheme       calc  
_refine_ls_weighting_details 
 'calc w=1/[\s^2^(Fo^2^)+(0.0619P)^2^+0.5727P] where P=(Fo^2^+2Fc^2^)/3' 
_atom_sites_solution_primary      direct 
_atom_sites_solution_secondary    difmap 
_atom_sites_solution_hydrogens    geom 
_refine_ls_hydrogen_treatment     constr 
_refine_ls_extinction_method      SHELXL 
_refine_ls_extinction_coef        0.021(2) 
_refine_ls_extinction_expression 
 'Fc^*^=kFc[1+0.001xFc^2^\l^3^/sin(2\q)]^-1/4^' 
_refine_ls_number_reflns          8100 
_refine_ls_number_parameters      438 
_refine_ls_number_restraints      3 
_refine_ls_R_factor_all           0.0518 
_refine_ls_R_factor_gt            0.0402 
_refine_ls_wR_factor_ref          0.1145 
_refine_ls_wR_factor_gt           0.1066 
_refine_ls_goodness_of_fit_ref    1.066 
_refine_ls_restrained_S_all       1.066 
_refine_ls_shift/su_max           0.001 
_refine_ls_shift/su_mean          0.000 
 
loop_ 
 _atom_site_label 
 _atom_site_type_symbol 
 _atom_site_fract_x 
 _atom_site_fract_y 
 _atom_site_fract_z 
 _atom_site_U_iso_or_equiv 
 _atom_site_adp_type 
 _atom_site_occupancy 
 _atom_site_symmetry_multiplicity 
 _atom_site_calc_flag 
 _atom_site_refinement_flags 
 _atom_site_disorder_assembly 
 _atom_site_disorder_group 
Si1 Si 0.25023(5) 0.60864(3) 0.81077(2) 0.01818(11) Uani 1 1 d . . . 
C1 C 0.61953(17) 0.67439(10) 0.58113(8) 0.0149(3) Uani 1 1 d . A . 
Si2 Si 1.14637(5) 0.85935(3) 0.18771(2) 0.01619(10) Uani 1 1 d . . . 
F1 F 0.49264(11) 0.98374(6) 0.67371(5) 0.02413(19) Uani 1 1 d . . . 
F2 F 0.59288(12) 1.17432(6) 0.61265(5) 0.0259(2) Uani 1 1 d . . . 
F3 F 0.80488(11) 1.23372(6) 0.47310(5) 0.0249(2) Uani 1 1 d . . . 
F4 F 0.91982(12) 1.10570(6) 0.38758(5) 0.0270(2) Uani 1 1 d . . . 
C2 C 0.66788(17) 0.77504(10) 0.55025(8) 0.0146(3) Uani 1 1 d . . . 
C3 C 0.60922(17) 0.84385(10) 0.59228(8) 0.0162(3) Uani 1 1 d . . . 
H3 H 0.5351 0.8229 0.6420 0.019 Uiso 1 1 calc R . . 
C4 C 0.65779(17) 0.94156(10) 0.56233(8) 0.0154(3) Uani 1 1 d . . . 
C5 C 0.59948(18) 1.01258(10) 0.60365(8) 0.0182(3) Uani 1 1 d . . . 
C6 C 0.64818(18) 1.10738(10) 0.57384(8) 0.0190(3) Uani 1 1 d . . . 
C7 C 0.75907(18) 1.13896(10) 0.49977(9) 0.0194(3) Uani 1 1 d . . . 
C8 C 0.81577(18) 1.07482(10) 0.45774(8) 0.0176(3) Uani 1 1 d . . . 
C9 C 0.76834(17) 0.97407(10) 0.48672(8) 0.0160(3) Uani 1 1 d . . . 
C10 C 0.82511(17) 0.90719(10) 0.44439(8) 0.0156(3) Uani 1 1 d . . . 
H10 H 0.8971 0.9291 0.3941 0.019 Uiso 1 1 calc R . . 
C11 C 0.77816(16) 0.80773(10) 0.47447(8) 0.0146(3) Uani 1 1 d . . . 
C12 C 0.83614(17) 0.73888(10) 0.43104(8) 0.0148(3) Uani 1 1 d . . . 
C13 C 0.79249(17) 0.63882(10) 0.46352(8) 0.0154(3) Uani 1 1 d . . . 
C14 C 0.85225(18) 0.56747(10) 0.42227(8) 0.0181(3) Uani 1 1 d . . . 
H14 H 0.9201 0.5883 0.3709 0.022 Uiso 1 1 calc R . . 
C15 C 0.81354(19) 0.47055(10) 0.45538(8) 0.0207(3) Uani 1 1 d . . . 
H15 H 0.8542 0.4246 0.4268 0.025 Uiso 1 1 calc R . . 
C16 C 0.71241(19) 0.43692(11) 0.53263(8) 0.0208(3) Uani 1 1 d . . . 
H16 H 0.6893 0.3684 0.5560 0.025 Uiso 1 1 calc R . . 
C17 C 0.64917(18) 0.50289(10) 0.57284(8) 0.0187(3) Uani 1 1 d . . . 
H17 H 0.5794 0.4801 0.6236 0.022 Uiso 1 1 calc R . . 
C18 C 0.68550(17) 0.60563(10) 0.54021(8) 0.0154(3) Uani 1 1 d . . . 
C19 C 0.50119(17) 0.64571(10) 0.65436(8) 0.0168(3) Uani 1 1 d . . . 
C20 C 0.39736(18) 0.62893(10) 0.71508(8) 0.0193(3) Uani 1 1 d . A . 
C21 C 0.01935(19) 0.58883(10) 0.79415(8) 0.0206(3) Uani 1 1 d . A . 
H21 H -0.0579 0.5770 0.8468 0.025 Uiso 1 1 calc R . . 
C22 C -0.0645(2) 0.68060(12) 0.73272(10) 0.0284(3) Uani 1 1 d . . . 
H22A H 0.0083 0.6937 0.6803 0.043 Uiso 1 1 calc R A . 
H22B H -0.0699 0.7388 0.7513 0.043 Uiso 1 1 calc R . . 
H22C H -0.1856 0.6680 0.7273 0.043 Uiso 1 1 calc R . . 
C23 C 0.0209(2) 0.49632(12) 0.76757(10) 0.0299(3) Uani 1 1 d . . . 
H23A H -0.0983 0.4915 0.7545 0.045 Uiso 1 1 calc R A . 
H23B H 0.0542 0.4363 0.8114 0.045 Uiso 1 1 calc R . . 
H23C H 0.1078 0.5021 0.7198 0.045 Uiso 1 1 calc R . . 
C24 C 0.3470(3) 0.48605(16) 0.87894(12) 0.0207(5) Uani 0.785(4) 1 d PD A 1 
H24 H 0.3468 0.4365 0.8498 0.025 Uiso 0.785(4) 1 calc PR A 1 
C25 C 0.2317(6) 0.4446(3) 0.95936(19) 0.0312(8) Uani 0.785(4) 1 d PD A 1 
H25A H 0.2878 0.3805 0.9907 0.047 Uiso 0.785(4) 1 calc PR A 1 
H25B H 0.1127 0.4347 0.9491 0.047 Uiso 0.785(4) 1 calc PR A 1 
H25C H 0.2208 0.4920 0.9897 0.047 Uiso 0.785(4) 1 calc PR A 1 
C26 C 0.5409(5) 0.4910(3) 0.8872(3) 0.0345(8) Uani 0.785(4) 1 d PD A 1 
H26A H 0.5502 0.5393 0.9149 0.052 Uiso 0.785(4) 1 calc PR A 1 
H26B H 0.6083 0.5120 0.8335 0.052 Uiso 0.785(4) 1 calc PR A 1 
H26C H 0.5899 0.4249 0.9185 0.052 Uiso 0.785(4) 1 calc PR A 1 
C24' C 0.3586(9) 0.5163(6) 0.9008(5) 0.0207(5) Uani 0.215(4) 1 d PD A 2 
H24' H 0.3544 0.5565 0.9381 0.025 Uiso 0.215(4) 1 calc PR A 2 
C25' C 0.551(2) 0.4776(15) 0.8950(12) 0.0312(8) Uani 0.215(4) 1 d PD A 2 
H25D H 0.6240 0.5326 0.8632 0.047 Uiso 0.215(4) 1 calc PR A 2 
H25E H 0.5651 0.4258 0.8688 0.047 Uiso 0.215(4) 1 calc PR A 2 
H25F H 0.5883 0.4492 0.9493 0.047 Uiso 0.215(4) 1 calc PR A 2 
C26' C 0.238(2) 0.4349(13) 0.9477(10) 0.0345(8) Uani 0.215(4) 1 d PD A 2 
H26D H 0.1136 0.4632 0.9497 0.052 Uiso 0.215(4) 1 calc PR A 2 
H26E H 0.2709 0.4050 1.0027 0.052 Uiso 0.215(4) 1 calc PR A 2 
H26F H 0.2501 0.3834 0.9213 0.052 Uiso 0.215(4) 1 calc PR A 2 
C27 C 0.24547(19) 0.72731(11) 0.83735(9) 0.0233(3) Uani 1 1 d . A . 
H27 H 0.1978 0.7823 0.7913 0.028 Uiso 1 1 calc R . . 
C28 C 0.1157(2) 0.72758(13) 0.91213(10) 0.0312(4) Uani 1 1 d . . . 
H28A H 0.1563 0.6748 0.9594 0.047 Uiso 1 1 calc R A . 
H28B H -0.0039 0.7155 0.9043 0.047 Uiso 1 1 calc R . . 
H28C H 0.1117 0.7926 0.9206 0.047 Uiso 1 1 calc R . . 
C29 C 0.4297(2) 0.75652(13) 0.84478(10) 0.0334(4) Uani 1 1 d . . . 
H29A H 0.4189 0.8253 0.8464 0.050 Uiso 1 1 calc R A . 
H29B H 0.5135 0.7518 0.7982 0.050 Uiso 1 1 calc R . . 
H29C H 0.4742 0.7111 0.8945 0.050 Uiso 1 1 calc R . . 
C30 C 0.93944(18) 0.77376(10) 0.35387(8) 0.0163(3) Uani 1 1 d . . . 
C31 C 1.02434(18) 0.80740(10) 0.28887(8) 0.0182(3) Uani 1 1 d . . . 
C32 C 0.97924(19) 0.88631(11) 0.11219(8) 0.0204(3) Uani 1 1 d . . . 
H32 H 1.0417 0.9205 0.0578 0.024 Uiso 1 1 calc R . . 
C33 C 0.9160(2) 0.78896(11) 0.10923(9) 0.0248(3) Uani 1 1 d . . . 
H33A H 0.8588 0.7521 0.1625 0.037 Uiso 1 1 calc R . . 
H33B H 1.0188 0.7479 0.0937 0.037 Uiso 1 1 calc R . . 
H33C H 0.8300 0.8048 0.0695 0.037 Uiso 1 1 calc R . . 
C34 C 0.8189(2) 0.95683(12) 0.12829(10) 0.0271(3) Uani 1 1 d . . . 
H34A H 0.7350 0.9672 0.0884 0.041 Uiso 1 1 calc R . . 
H34B H 0.8608 1.0212 0.1241 0.041 Uiso 1 1 calc R . . 
H34C H 0.7586 0.9270 0.1826 0.041 Uiso 1 1 calc R . . 
C35 C 1.32177(18) 0.75917(11) 0.17286(8) 0.0195(3) Uani 1 1 d . . . 
H35 H 1.2579 0.6989 0.1791 0.023 Uiso 1 1 calc R . . 
C36 C 1.4221(2) 0.78998(12) 0.08744(9) 0.0260(3) Uani 1 1 d . . . 
H36A H 1.4882 0.8484 0.0794 0.039 Uiso 1 1 calc R . . 
H36B H 1.3362 0.8067 0.0476 0.039 Uiso 1 1 calc R . . 
H36C H 1.5059 0.7345 0.0808 0.039 Uiso 1 1 calc R . . 
C37 C 1.4524(2) 0.72795(11) 0.23730(9) 0.0251(3) Uani 1 1 d . . . 
H37A H 1.5340 0.6718 0.2303 0.038 Uiso 1 1 calc R . . 
H37B H 1.3851 0.7076 0.2911 0.038 Uiso 1 1 calc R . . 
H37C H 1.5213 0.7845 0.2316 0.038 Uiso 1 1 calc R . . 
C38 C 1.25099(18) 0.97647(10) 0.18212(8) 0.0191(3) Uani 1 1 d . . . 
H38 H 1.3698 0.9545 0.2031 0.023 Uiso 1 1 calc R . . 
C39 C 1.2866(2) 1.04592(11) 0.09516(9) 0.0259(3) Uani 1 1 d . . . 
H39A H 1.1728 1.0697 0.0724 0.039 Uiso 1 1 calc R . . 
H39B H 1.3620 1.0093 0.0627 0.039 Uiso 1 1 calc R . . 
H39C H 1.3476 1.1032 0.0948 0.039 Uiso 1 1 calc R . . 
C40 C 1.1441(2) 1.03563(11) 0.23458(9) 0.0240(3) Uani 1 1 d . . . 
H40A H 1.2081 1.0935 0.2304 0.036 Uiso 1 1 calc R . . 
H40B H 1.1298 0.9925 0.2909 0.036 Uiso 1 1 calc R . . 
H40C H 1.0261 1.0587 0.2159 0.036 Uiso 1 1 calc R . . 
 
loop_ 
 _atom_site_aniso_label 
 _atom_site_aniso_U_11 
 _atom_site_aniso_U_22 
 _atom_site_aniso_U_33 
 _atom_site_aniso_U_23 
 _atom_site_aniso_U_13 
 _atom_site_aniso_U_12 
Si1 0.01608(19) 0.0192(2) 0.01578(19) -0.00283(15) 0.00340(14) -0.00219(14) 
C1 0.0116(6) 0.0175(6) 0.0141(6) -0.0034(5) -0.0006(5) -0.0012(5) 
Si2 0.01581(19) 0.01710(19) 0.01430(18) -0.00418(14) 0.00185(13) -0.00266(14) 
F1 0.0271(5) 0.0261(4) 0.0201(4) -0.0109(3) 0.0030(3) -0.0022(3) 
F2 0.0307(5) 0.0224(4) 0.0302(5) -0.0170(4) -0.0029(4) 0.0005(4) 
F3 0.0292(5) 0.0144(4) 0.0318(5) -0.0080(3) -0.0026(4) -0.0042(3) 
F4 0.0289(5) 0.0215(4) 0.0278(5) -0.0062(4) 0.0052(4) -0.0063(4) 
C2 0.0129(6) 0.0167(6) 0.0140(6) -0.0045(5) -0.0017(5) -0.0009(5) 
C3 0.0140(6) 0.0191(7) 0.0148(6) -0.0051(5) -0.0007(5) -0.0007(5) 
C4 0.0132(6) 0.0168(6) 0.0169(6) -0.0063(5) -0.0032(5) 0.0009(5) 
C5 0.0159(6) 0.0222(7) 0.0173(6) -0.0077(5) -0.0023(5) 0.0001(5) 
C6 0.0201(7) 0.0179(7) 0.0229(7) -0.0116(6) -0.0055(5) 0.0023(5) 
C7 0.0187(7) 0.0136(6) 0.0265(7) -0.0055(5) -0.0062(5) -0.0016(5) 
C8 0.0147(6) 0.0177(7) 0.0196(7) -0.0051(5) -0.0007(5) -0.0025(5) 
C9 0.0122(6) 0.0160(6) 0.0196(6) -0.0051(5) -0.0038(5) 0.0003(5) 
C10 0.0130(6) 0.0168(6) 0.0157(6) -0.0041(5) 0.0004(5) -0.0018(5) 
C11 0.0116(6) 0.0160(6) 0.0158(6) -0.0049(5) -0.0011(5) 0.0003(5) 
C12 0.0128(6) 0.0170(6) 0.0141(6) -0.0049(5) -0.0001(5) -0.0007(5) 
C13 0.0136(6) 0.0166(6) 0.0155(6) -0.0046(5) -0.0009(5) -0.0010(5) 
C14 0.0182(7) 0.0194(7) 0.0170(6) -0.0069(5) 0.0008(5) -0.0020(5) 
C15 0.0240(7) 0.0186(7) 0.0214(7) -0.0100(6) -0.0007(5) -0.0011(5) 
C16 0.0231(7) 0.0162(7) 0.0223(7) -0.0047(5) -0.0011(5) -0.0039(5) 
C17 0.0185(7) 0.0179(7) 0.0176(6) -0.0035(5) 0.0011(5) -0.0039(5) 
C18 0.0134(6) 0.0167(6) 0.0156(6) -0.0040(5) -0.0018(5) -0.0022(5) 
C19 0.0156(6) 0.0155(6) 0.0198(7) -0.0059(5) -0.0017(5) -0.0022(5) 
C20 0.0190(7) 0.0180(7) 0.0201(7) -0.0056(5) 0.0004(5) -0.0027(5) 
C21 0.0192(7) 0.0215(7) 0.0204(7) -0.0074(6) 0.0046(5) -0.0049(5) 
C22 0.0231(8) 0.0272(8) 0.0345(9) -0.0077(7) -0.0059(6) -0.0031(6) 
C23 0.0349(9) 0.0265(8) 0.0316(8) -0.0136(7) 0.0010(7) -0.0080(7) 
C24 0.0228(8) 0.0201(10) 0.0174(10) -0.0050(7) 0.0003(7) -0.0003(7) 
C25 0.0331(12) 0.0305(15) 0.0192(14) 0.0030(9) 0.0058(10) -0.0028(10) 
C26 0.0215(11) 0.0293(19) 0.0399(19) 0.0084(14) -0.0120(10) 0.0016(10) 
C24' 0.0228(8) 0.0201(10) 0.0174(10) -0.0050(7) 0.0003(7) -0.0003(7) 
C25' 0.0331(12) 0.0305(15) 0.0192(14) 0.0030(9) 0.0058(10) -0.0028(10) 
C26' 0.0215(11) 0.0293(19) 0.0399(19) 0.0084(14) -0.0120(10) 0.0016(10) 
C27 0.0220(7) 0.0284(8) 0.0213(7) -0.0108(6) 0.0025(6) -0.0060(6) 
C28 0.0357(9) 0.0322(9) 0.0279(8) -0.0160(7) 0.0084(7) -0.0070(7) 
C29 0.0325(9) 0.0392(10) 0.0341(9) -0.0167(8) -0.0017(7) -0.0116(7) 
C30 0.0165(6) 0.0140(6) 0.0187(6) -0.0063(5) -0.0020(5) 0.0003(5) 
C31 0.0184(7) 0.0167(6) 0.0196(7) -0.0067(5) -0.0003(5) -0.0014(5) 
C32 0.0206(7) 0.0213(7) 0.0177(6) -0.0035(5) -0.0004(5) -0.0055(5) 
C33 0.0239(7) 0.0265(8) 0.0257(7) -0.0091(6) -0.0027(6) -0.0059(6) 
C34 0.0229(8) 0.0253(8) 0.0326(8) -0.0069(6) -0.0077(6) -0.0009(6) 
C35 0.0182(7) 0.0208(7) 0.0192(7) -0.0074(5) 0.0025(5) -0.0026(5) 
C36 0.0237(7) 0.0320(8) 0.0222(7) -0.0115(6) 0.0049(6) -0.0017(6) 
C37 0.0244(7) 0.0239(7) 0.0251(7) -0.0078(6) -0.0015(6) 0.0037(6) 
C38 0.0187(7) 0.0193(7) 0.0186(7) -0.0049(5) -0.0006(5) -0.0031(5) 
C39 0.0305(8) 0.0216(7) 0.0234(7) -0.0038(6) 0.0021(6) -0.0098(6) 
C40 0.0266(8) 0.0224(7) 0.0238(7) -0.0088(6) -0.0010(6) -0.0028(6) 
 
_geom_special_details 
; 
 All esds (except the esd in the dihedral angle between two l.s. planes) 
 are estimated using the full covariance matrix.  The cell esds are taken 
 into account individually in the estimation of esds in distances, angles 
 and torsion angles; correlations between esds in cell parameters are only 
 used when they are defined by crystal symmetry.  An approximate (isotropic) 
 treatment of cell esds is used for estimating esds involving l.s. planes. 
; 
 
loop_ 
 _geom_bond_atom_site_label_1 
 _geom_bond_atom_site_label_2 
 _geom_bond_distance 
 _geom_bond_site_symmetry_2 
 _geom_bond_publ_flag 
Si1 C20 1.8439(14) . ? 
Si1 C21 1.8844(15) . ? 
Si1 C27 1.8894(15) . ? 
Si1 C24 1.8946(19) . ? 
Si1 C24' 1.916(7) . ? 
C1 C18 1.4053(18) . ? 
C1 C2 1.4247(18) . ? 
C1 C19 1.4322(18) . ? 
Si2 C31 1.8473(14) . ? 
Si2 C35 1.8872(14) . ? 
Si2 C32 1.8891(14) . ? 
Si2 C38 1.8953(14) . ? 
F1 C5 1.3465(16) . ? 
F2 C6 1.3434(15) . ? 
F3 C7 1.3422(15) . ? 
F4 C8 1.3396(16) . ? 
C2 C3 1.4098(18) . ? 
C2 C11 1.4382(18) . ? 
C3 C4 1.3872(19) . ? 
C3 H3 0.9500 . ? 
C4 C5 1.4267(18) . ? 
C4 C9 1.4367(18) . ? 
C5 C6 1.350(2) . ? 
C6 C7 1.417(2) . ? 
C7 C8 1.3527(19) . ? 
C8 C9 1.4236(19) . ? 
C9 C10 1.3886(18) . ? 
C10 C11 1.4058(18) . ? 
C10 H10 0.9500 . ? 
C11 C12 1.4271(17) . ? 
C12 C13 1.4069(18) . ? 
C12 C30 1.4346(18) . ? 
C13 C14 1.4315(18) . ? 
C13 C18 1.4389(18) . ? 
C14 C15 1.3564(19) . ? 
C14 H14 0.9500 . ? 
C15 C16 1.4268(19) . ? 
C15 H15 0.9500 . ? 
C16 C17 1.3598(19) . ? 
C16 H16 0.9500 . ? 
C17 C18 1.4263(19) . ? 
C17 H17 0.9500 . ? 
C19 C20 1.209(2) . ? 
C21 C22 1.533(2) . ? 
C21 C23 1.534(2) . ? 
C21 H21 1.0000 . ? 
C22 H22A 0.9800 . ? 
C22 H22B 0.9800 . ? 
C22 H22C 0.9800 . ? 
C23 H23A 0.9800 . ? 
C23 H23B 0.9800 . ? 
C23 H23C 0.9800 . ? 
C24 C26 1.510(5) . ? 
C24 C25 1.531(3) . ? 
C24 H24 1.0000 . ? 
C25 H25A 0.9800 . ? 
C25 H25B 0.9800 . ? 
C25 H25C 0.9800 . ? 
C26 H26A 0.9800 . ? 
C26 H26B 0.9800 . ? 
C26 H26C 0.9800 . ? 
C24' C25' 1.495(15) . ? 
C24' C26' 1.505(15) . ? 
C24' H24' 1.0000 . ? 
C25' H25D 0.9800 . ? 
C25' H25E 0.9800 . ? 
C25' H25F 0.9800 . ? 
C26' H26D 0.9800 . ? 
C26' H26E 0.9800 . ? 
C26' H26F 0.9800 . ? 
C27 C28 1.531(2) . ? 
C27 C29 1.539(2) . ? 
C27 H27 1.0000 . ? 
C28 H28A 0.9800 . ? 
C28 H28B 0.9800 . ? 
C28 H28C 0.9800 . ? 
C29 H29A 0.9800 . ? 
C29 H29B 0.9800 . ? 
C29 H29C 0.9800 . ? 
C30 C31 1.2086(19) . ? 
C32 C33 1.536(2) . ? 
C32 C34 1.537(2) . ? 
C32 H32 1.0000 . ? 
C33 H33A 0.9800 . ? 
C33 H33B 0.9800 . ? 
C33 H33C 0.9800 . ? 
C34 H34A 0.9800 . ? 
C34 H34B 0.9800 . ? 
C34 H34C 0.9800 . ? 
C35 C37 1.537(2) . ? 
C35 C36 1.5370(19) . ? 
C35 H35 1.0000 . ? 
C36 H36A 0.9800 . ? 
C36 H36B 0.9800 . ? 
C36 H36C 0.9800 . ? 
C37 H37A 0.9800 . ? 
C37 H37B 0.9800 . ? 
C37 H37C 0.9800 . ? 
C38 C39 1.5334(19) . ? 
C38 C40 1.5365(19) . ? 
C38 H38 1.0000 . ? 
C39 H39A 0.9800 . ? 
C39 H39B 0.9800 . ? 
C39 H39C 0.9800 . ? 
C40 H40A 0.9800 . ? 
C40 H40B 0.9800 . ? 
C40 H40C 0.9800 . ? 
 
loop_ 
 _geom_angle_atom_site_label_1 
 _geom_angle_atom_site_label_2 
 _geom_angle_atom_site_label_3 
 _geom_angle 
 _geom_angle_site_symmetry_1 
 _geom_angle_site_symmetry_3 
 _geom_angle_publ_flag 
C20 Si1 C21 108.92(6) . . ? 
C20 Si1 C27 105.64(6) . . ? 
C21 Si1 C27 110.10(6) . . ? 
C20 Si1 C24 103.66(8) . . ? 
C21 Si1 C24 107.73(8) . . ? 
C27 Si1 C24 120.19(9) . . ? 
C20 Si1 C24' 112.6(2) . . ? 
C21 Si1 C24' 119.0(2) . . ? 
C27 Si1 C24' 99.5(3) . . ? 
C18 C1 C2 120.63(12) . . ? 
C18 C1 C19 121.13(12) . . ? 
C2 C1 C19 118.24(11) . . ? 
C31 Si2 C35 106.81(6) . . ? 
C31 Si2 C32 107.06(6) . . ? 
C35 Si2 C32 110.00(6) . . ? 
C31 Si2 C38 109.50(6) . . ? 
C35 Si2 C38 111.42(6) . . ? 
C32 Si2 C38 111.82(6) . . ? 
C3 C2 C1 121.38(12) . . ? 
C3 C2 C11 119.02(12) . . ? 
C1 C2 C11 119.60(11) . . ? 
C4 C3 C2 121.20(12) . . ? 
C4 C3 H3 119.4 . . ? 
C2 C3 H3 119.4 . . ? 
C3 C4 C5 122.18(12) . . ? 
C3 C4 C9 119.73(12) . . ? 
C5 C4 C9 118.08(12) . . ? 
F1 C5 C6 119.76(12) . . ? 
F1 C5 C4 118.72(12) . . ? 
C6 C5 C4 121.52(13) . . ? 
F2 C6 C5 121.51(13) . . ? 
F2 C6 C7 118.17(12) . . ? 
C5 C6 C7 120.31(12) . . ? 
F3 C7 C8 121.61(13) . . ? 
F3 C7 C6 117.99(12) . . ? 
C8 C7 C6 120.40(13) . . ? 
F4 C8 C7 119.85(12) . . ? 
F4 C8 C9 118.76(11) . . ? 
C7 C8 C9 121.39(13) . . ? 
C10 C9 C8 122.21(12) . . ? 
C10 C9 C4 119.51(12) . . ? 
C8 C9 C4 118.28(12) . . ? 
C9 C10 C11 121.30(12) . . ? 
C9 C10 H10 119.4 . . ? 
C11 C10 H10 119.4 . . ? 
C10 C11 C12 121.41(12) . . ? 
C10 C11 C2 119.24(11) . . ? 
C12 C11 C2 119.35(12) . . ? 
C13 C12 C11 120.44(11) . . ? 
C13 C12 C30 120.85(11) . . ? 
C11 C12 C30 118.70(12) . . ? 
C12 C13 C14 121.73(12) . . ? 
C12 C13 C18 120.11(11) . . ? 
C14 C13 C18 118.16(12) . . ? 
C15 C14 C13 121.09(12) . . ? 
C15 C14 H14 119.5 . . ? 
C13 C14 H14 119.5 . . ? 
C14 C15 C16 120.74(12) . . ? 
C14 C15 H15 119.6 . . ? 
C16 C15 H15 119.6 . . ? 
C17 C16 C15 119.98(13) . . ? 
C17 C16 H16 120.0 . . ? 
C15 C16 H16 120.0 . . ? 
C16 C17 C18 121.26(13) . . ? 
C16 C17 H17 119.4 . . ? 
C18 C17 H17 119.4 . . ? 
C1 C18 C17 121.59(12) . . ? 
C1 C18 C13 119.70(12) . . ? 
C17 C18 C13 118.71(12) . . ? 
C20 C19 C1 175.15(14) . . ? 
C19 C20 Si1 175.44(13) . . ? 
C22 C21 C23 109.90(12) . . ? 
C22 C21 Si1 112.18(10) . . ? 
C23 C21 Si1 111.30(10) . . ? 
C22 C21 H21 107.8 . . ? 
C23 C21 H21 107.8 . . ? 
Si1 C21 H21 107.8 . . ? 
C21 C22 H22A 109.5 . . ? 
C21 C22 H22B 109.5 . . ? 
H22A C22 H22B 109.5 . . ? 
C21 C22 H22C 109.5 . . ? 
H22A C22 H22C 109.5 . . ? 
H22B C22 H22C 109.5 . . ? 
C21 C23 H23A 109.5 . . ? 
C21 C23 H23B 109.5 . . ? 
H23A C23 H23B 109.5 . . ? 
C21 C23 H23C 109.5 . . ? 
H23A C23 H23C 109.5 . . ? 
H23B C23 H23C 109.5 . . ? 
C26 C24 C25 114.1(3) . . ? 
C26 C24 Si1 111.49(19) . . ? 
C25 C24 Si1 113.9(2) . . ? 
C26 C24 H24 105.5 . . ? 
C25 C24 H24 105.5 . . ? 
Si1 C24 H24 105.5 . . ? 
C25' C24' C26' 112.1(11) . . ? 
C25' C24' Si1 122.7(9) . . ? 
C26' C24' Si1 111.0(8) . . ? 
C25' C24' H24' 102.6 . . ? 
C26' C24' H24' 102.6 . . ? 
Si1 C24' H24' 102.6 . . ? 
C24' C25' H25D 109.5 . . ? 
C24' C25' H25E 109.5 . . ? 
H25D C25' H25E 109.5 . . ? 
C24' C25' H25F 109.5 . . ? 
H25D C25' H25F 109.5 . . ? 
H25E C25' H25F 109.5 . . ? 
C24' C26' H26D 109.5 . . ? 
C24' C26' H26E 109.5 . . ? 
H26D C26' H26E 109.5 . . ? 
C24' C26' H26F 109.5 . . ? 
H26D C26' H26F 109.5 . . ? 
H26E C26' H26F 109.5 . . ? 
C28 C27 C29 110.34(13) . . ? 
C28 C27 Si1 112.97(10) . . ? 
C29 C27 Si1 114.83(11) . . ? 
C28 C27 H27 106.0 . . ? 
C29 C27 H27 106.0 . . ? 
Si1 C27 H27 106.0 . . ? 
C27 C28 H28A 109.5 . . ? 
C27 C28 H28B 109.5 . . ? 
H28A C28 H28B 109.5 . . ? 
C27 C28 H28C 109.5 . . ? 
H28A C28 H28C 109.5 . . ? 
H28B C28 H28C 109.5 . . ? 
C27 C29 H29A 109.5 . . ? 
C27 C29 H29B 109.5 . . ? 
H29A C29 H29B 109.5 . . ? 
C27 C29 H29C 109.5 . . ? 
H29A C29 H29C 109.5 . . ? 
H29B C29 H29C 109.5 . . ? 
C31 C30 C12 177.12(14) . . ? 
C30 C31 Si2 177.85(12) . . ? 
C33 C32 C34 110.65(12) . . ? 
C33 C32 Si2 110.99(10) . . ? 
C34 C32 Si2 112.58(10) . . ? 
C33 C32 H32 107.5 . . ? 
C34 C32 H32 107.5 . . ? 
Si2 C32 H32 107.5 . . ? 
C32 C33 H33A 109.5 . . ? 
C32 C33 H33B 109.5 . . ? 
H33A C33 H33B 109.5 . . ? 
C32 C33 H33C 109.5 . . ? 
H33A C33 H33C 109.5 . . ? 
H33B C33 H33C 109.5 . . ? 
C32 C34 H34A 109.5 . . ? 
C32 C34 H34B 109.5 . . ? 
H34A C34 H34B 109.5 . . ? 
C32 C34 H34C 109.5 . . ? 
H34A C34 H34C 109.5 . . ? 
H34B C34 H34C 109.5 . . ? 
C37 C35 C36 111.17(12) . . ? 
C37 C35 Si2 112.21(9) . . ? 
C36 C35 Si2 111.86(10) . . ? 
C37 C35 H35 107.1 . . ? 
C36 C35 H35 107.1 . . ? 
Si2 C35 H35 107.1 . . ? 
C35 C36 H36A 109.5 . . ? 
C35 C36 H36B 109.5 . . ? 
H36A C36 H36B 109.5 . . ? 
C35 C36 H36C 109.5 . . ? 
H36A C36 H36C 109.5 . . ? 
H36B C36 H36C 109.5 . . ? 
C35 C37 H37A 109.5 . . ? 
C35 C37 H37B 109.5 . . ? 
H37A C37 H37B 109.5 . . ? 
C35 C37 H37C 109.5 . . ? 
H37A C37 H37C 109.5 . . ? 
H37B C37 H37C 109.5 . . ? 
C39 C38 C40 109.62(12) . . ? 
C39 C38 Si2 112.22(10) . . ? 
C40 C38 Si2 113.97(10) . . ? 
C39 C38 H38 106.9 . . ? 
C40 C38 H38 106.9 . . ? 
Si2 C38 H38 106.9 . . ? 
C38 C39 H39A 109.5 . . ? 
C38 C39 H39B 109.5 . . ? 
H39A C39 H39B 109.5 . . ? 
C38 C39 H39C 109.5 . . ? 
H39A C39 H39C 109.5 . . ? 
H39B C39 H39C 109.5 . . ? 
C38 C40 H40A 109.5 . . ? 
C38 C40 H40B 109.5 . . ? 
H40A C40 H40B 109.5 . . ? 
C38 C40 H40C 109.5 . . ? 
H40A C40 H40C 109.5 . . ? 
H40B C40 H40C 109.5 . . ? 
 
loop_ 
 _geom_torsion_atom_site_label_1 
 _geom_torsion_atom_site_label_2 
 _geom_torsion_atom_site_label_3 
 _geom_torsion_atom_site_label_4 
 _geom_torsion 
 _geom_torsion_site_symmetry_1 
 _geom_torsion_site_symmetry_2 
 _geom_torsion_site_symmetry_3 
 _geom_torsion_site_symmetry_4 
 _geom_torsion_publ_flag 
C18 C1 C2 C3 -177.22(12) . . . . ? 
C19 C1 C2 C3 3.29(19) . . . . ? 
C18 C1 C2 C11 3.06(18) . . . . ? 
C19 C1 C2 C11 -176.44(11) . . . . ? 
C1 C2 C3 C4 179.47(12) . . . . ? 
C11 C2 C3 C4 -0.80(19) . . . . ? 
C2 C3 C4 C5 179.75(12) . . . . ? 
C2 C3 C4 C9 0.65(19) . . . . ? 
C3 C4 C5 F1 -0.54(19) . . . . ? 
C9 C4 C5 F1 178.58(11) . . . . ? 
C3 C4 C5 C6 179.84(13) . . . . ? 
C9 C4 C5 C6 -1.04(19) . . . . ? 
F1 C5 C6 F2 0.2(2) . . . . ? 
C4 C5 C6 F2 179.82(12) . . . . ? 
F1 C5 C6 C7 -179.36(12) . . . . ? 
C4 C5 C6 C7 0.3(2) . . . . ? 
F2 C6 C7 F3 0.97(18) . . . . ? 
C5 C6 C7 F3 -179.45(12) . . . . ? 
F2 C6 C7 C8 -178.89(12) . . . . ? 
C5 C6 C7 C8 0.7(2) . . . . ? 
F3 C7 C8 F4 -0.2(2) . . . . ? 
C6 C7 C8 F4 179.66(12) . . . . ? 
F3 C7 C8 C9 179.33(12) . . . . ? 
C6 C7 C8 C9 -0.8(2) . . . . ? 
F4 C8 C9 C10 -0.53(19) . . . . ? 
C7 C8 C9 C10 179.94(13) . . . . ? 
F4 C8 C9 C4 179.55(11) . . . . ? 
C7 C8 C9 C4 0.01(19) . . . . ? 
C3 C4 C9 C10 0.11(19) . . . . ? 
C5 C4 C9 C10 -179.03(12) . . . . ? 
C3 C4 C9 C8 -179.97(12) . . . . ? 
C5 C4 C9 C8 0.89(18) . . . . ? 
C8 C9 C10 C11 179.38(12) . . . . ? 
C4 C9 C10 C11 -0.70(19) . . . . ? 
C9 C10 C11 C12 179.92(12) . . . . ? 
C9 C10 C11 C2 0.54(19) . . . . ? 
C3 C2 C11 C10 0.21(18) . . . . ? 
C1 C2 C11 C10 179.94(12) . . . . ? 
C3 C2 C11 C12 -179.18(11) . . . . ? 
C1 C2 C11 C12 0.55(18) . . . . ? 
C10 C11 C12 C13 177.90(12) . . . . ? 
C2 C11 C12 C13 -2.72(18) . . . . ? 
C10 C11 C12 C30 -2.11(19) . . . . ? 
C2 C11 C12 C30 177.27(11) . . . . ? 
C11 C12 C13 C14 -178.51(12) . . . . ? 
C30 C12 C13 C14 1.50(19) . . . . ? 
C11 C12 C13 C18 1.34(19) . . . . ? 
C30 C12 C13 C18 -178.66(12) . . . . ? 
C12 C13 C14 C15 178.05(13) . . . . ? 
C18 C13 C14 C15 -1.8(2) . . . . ? 
C13 C14 C15 C16 -0.2(2) . . . . ? 
C14 C15 C16 C17 2.0(2) . . . . ? 
C15 C16 C17 C18 -1.6(2) . . . . ? 
C2 C1 C18 C17 175.51(12) . . . . ? 
C19 C1 C18 C17 -5.01(19) . . . . ? 
C2 C1 C18 C13 -4.46(19) . . . . ? 
C19 C1 C18 C13 175.02(12) . . . . ? 
C16 C17 C18 C1 179.54(13) . . . . ? 
C16 C17 C18 C13 -0.5(2) . . . . ? 
C12 C13 C18 C1 2.26(19) . . . . ? 
C14 C13 C18 C1 -177.89(12) . . . . ? 
C12 C13 C18 C17 -177.71(12) . . . . ? 
C14 C13 C18 C17 2.14(18) . . . . ? 
C20 Si1 C21 C22 -62.37(11) . . . . ? 
C27 Si1 C21 C22 53.03(12) . . . . ? 
C24 Si1 C21 C22 -174.19(11) . . . . ? 
C24' Si1 C21 C22 166.7(3) . . . . ? 
C20 Si1 C21 C23 61.24(12) . . . . ? 
C27 Si1 C21 C23 176.63(10) . . . . ? 
C24 Si1 C21 C23 -50.58(13) . . . . ? 
C24' Si1 C21 C23 -69.6(3) . . . . ? 
C20 Si1 C24 C26 57.4(3) . . . . ? 
C21 Si1 C24 C26 172.8(3) . . . . ? 
C27 Si1 C24 C26 -60.1(3) . . . . ? 
C24' Si1 C24 C26 -61.0(7) . . . . ? 
C20 Si1 C24 C25 -171.8(2) . . . . ? 
C21 Si1 C24 C25 -56.4(2) . . . . ? 
C27 Si1 C24 C25 70.7(2) . . . . ? 
C24' Si1 C24 C25 69.8(7) . . . . ? 
C20 Si1 C24' C25' 8.5(13) . . . . ? 
C21 Si1 C24' C25' 137.7(12) . . . . ? 
C27 Si1 C24' C25' -103.0(12) . . . . ? 
C24 Si1 C24' C25' 76.2(14) . . . . ? 
C20 Si1 C24' C26' -128.2(9) . . . . ? 
C21 Si1 C24' C26' 1.0(11) . . . . ? 
C27 Si1 C24' C26' 120.4(9) . . . . ? 
C24 Si1 C24' C26' -60.4(10) . . . . ? 
C20 Si1 C27 C28 175.03(11) . . . . ? 
C21 Si1 C27 C28 57.57(13) . . . . ? 
C24 Si1 C27 C28 -68.45(14) . . . . ? 
C24' Si1 C27 C28 -68.1(2) . . . . ? 
C20 Si1 C27 C29 -57.24(12) . . . . ? 
C21 Si1 C27 C29 -174.69(11) . . . . ? 
C24 Si1 C27 C29 59.28(14) . . . . ? 
C24' Si1 C27 C29 59.6(2) . . . . ? 
C31 Si2 C32 C33 -68.12(11) . . . . ? 
C35 Si2 C32 C33 47.58(11) . . . . ? 
C38 Si2 C32 C33 171.94(9) . . . . ? 
C31 Si2 C32 C34 56.54(12) . . . . ? 
C35 Si2 C32 C34 172.24(10) . . . . ? 
C38 Si2 C32 C34 -63.40(12) . . . . ? 
C31 Si2 C35 C37 -59.33(11) . . . . ? 
C32 Si2 C35 C37 -175.20(10) . . . . ? 
C38 Si2 C35 C37 60.21(11) . . . . ? 
C31 Si2 C35 C36 174.93(10) . . . . ? 
C32 Si2 C35 C36 59.06(12) . . . . ? 
C38 Si2 C35 C36 -65.53(11) . . . . ? 
C31 Si2 C38 C39 -156.65(10) . . . . ? 
C35 Si2 C38 C39 85.41(11) . . . . ? 
C32 Si2 C38 C39 -38.15(12) . . . . ? 
C31 Si2 C38 C40 -31.30(12) . . . . ? 
C35 Si2 C38 C40 -149.24(10) . . . . ? 
C32 Si2 C38 C40 87.20(11) . . . . ? 
 
_diffrn_measured_fraction_theta_max    0.996 
_diffrn_reflns_theta_full              27.49 
_diffrn_measured_fraction_theta_full   0.996 
_refine_diff_density_max    0.423 
_refine_diff_density_min   -0.291 
_refine_diff_density_rms    0.079 
