 
data_x07069 
 
_audit_creation_method            SHELXL-97 
_chemical_name_systematic 
; 
 ? 
; 
_chemical_name_common             ? 
_chemical_melting_point           ? 
_chemical_formula_moiety 
 'C32 H36 N2 S2 Si2' 
_chemical_formula_sum 
 'C32 H36 N2 S2 Si2' 
_chemical_formula_weight          568.93 
 
loop_ 
 _atom_type_symbol 
 _atom_type_description 
 _atom_type_scat_dispersion_real 
 _atom_type_scat_dispersion_imag 
 _atom_type_scat_source 
 'C'  'C'   0.0181   0.0091 
 'International Tables Vol C Tables 4.2.6.8 and 6.1.1.4' 
 'H'  'H'   0.0000   0.0000 
 'International Tables Vol C Tables 4.2.6.8 and 6.1.1.4' 
 'N'  'N'   0.0311   0.0180 
 'International Tables Vol C Tables 4.2.6.8 and 6.1.1.4' 
 'Si'  'Si'   0.2541   0.3302 
 'International Tables Vol C Tables 4.2.6.8 and 6.1.1.4' 
 'S'  'S'   0.3331   0.5567 
 'International Tables Vol C Tables 4.2.6.8 and 6.1.1.4' 
 
_symmetry_cell_setting            triclinic
_symmetry_space_group_name_H-M    'P -1'
_symmetry_space_group_name_Hall   '-P 1'
 
loop_ 
 _symmetry_equiv_pos_as_xyz 
 'x, y, z' 
 '-x, -y, -z' 
 
_cell_length_a                    6.5550(4) 
_cell_length_b                    7.1254(4) 
_cell_length_c                    16.8837(10) 
_cell_angle_alpha                 99.819(2) 
_cell_angle_beta                  93.255(2) 
_cell_angle_gamma                 103.909(2) 
_cell_volume                      750.30(8) 
_cell_formula_units_Z             1 
_cell_measurement_temperature     90.0(2) 
_cell_measurement_reflns_used     8623
_cell_measurement_theta_min       2.67
_cell_measurement_theta_max       69.37
 
_exptl_crystal_description        'block'
_exptl_crystal_colour             red
_exptl_crystal_size_max           0.10 
_exptl_crystal_size_mid           0.08 
_exptl_crystal_size_min           0.06 
_exptl_crystal_density_meas       ? 
_exptl_crystal_density_diffrn     1.259 
_exptl_crystal_density_method     'not measured' 
_exptl_crystal_F_000              302 
_exptl_absorpt_coefficient_mu     2.549 
_exptl_absorpt_correction_type    multi-scan 
_exptl_absorpt_correction_T_min   0.7846 
_exptl_absorpt_correction_T_max   0.8621 
_exptl_absorpt_process_details    'Sadabs in APEX2 (BrukerAXS, 2006)' 
 
_exptl_special_details 
; 
 ? 
; 
 
_diffrn_ambient_temperature       90.0(2) 
_diffrn_radiation_wavelength      1.54178 
_diffrn_radiation_type            CuK\a 
_diffrn_radiation_source          'fine-focus rotating anode' 
_diffrn_radiation_monochromator   'graded multilayer optics' 
_diffrn_measurement_device_type   'Bruker X8 Proteum diffractometer'
_diffrn_measurement_method        '\f and \w scans'            
_diffrn_detector_area_resol_mean  18
_diffrn_standards_number          0 
_diffrn_standards_interval_count  . 
_diffrn_standards_interval_time   . 
_diffrn_standards_decay_%         ? 
_diffrn_reflns_number             10946 
_diffrn_reflns_av_R_equivalents   0.0374 
_diffrn_reflns_av_sigmaI/netI     0.0300 
_diffrn_reflns_limit_h_min        -7 
_diffrn_reflns_limit_h_max        7 
_diffrn_reflns_limit_k_min        -8 
_diffrn_reflns_limit_k_max        8 
_diffrn_reflns_limit_l_min        -20 
_diffrn_reflns_limit_l_max        20 
_diffrn_reflns_theta_min          5.35 
_diffrn_reflns_theta_max          69.41 
_reflns_number_total              2744 
_reflns_number_gt                 2659 
_reflns_threshold_expression      >2\s(I)    
 
_computing_data_collection        'APEX2 (Bruker-AXS, 2006)'            
_computing_cell_refinement        'APEX2 (Bruker-AXS, 2006)'            
_computing_data_reduction         'APEX2 (Bruker-AXS, 2006)'            
_computing_structure_solution     'SHELXS-97 (Sheldrick, 1997)' 
_computing_structure_refinement   'SHELXL-97 (Sheldrick, 1997)' 
_computing_molecular_graphics     'XP in SHELXTL (Sheldrick, 1994)'
_computing_publication_material
; 
SHELX97-2 (Sheldrick, 1997) and local procedures 
; 
 
_refine_special_details 
; 
 Refinement of F^2^ against ALL reflections.  The weighted R-factor wR and 
 goodness of fit S are based on F^2^, conventional R-factors R are based 
 on F, with F set to zero for negative F^2^. The threshold expression of 
 F^2^ > 2\s(F^2^) is used only for calculating R-factors(gt) etc. and is 
 not relevant to the choice of reflections for refinement.  R-factors based 
 on F^2^ are statistically about twice as large as those based on F, and R- 
 factors based on ALL data will be even larger. 
; 

_publ_section_exptl_refinement
;
H atoms were found in difference Fourier maps and subsequently placed in
idealized positions with constrained C-H distances of 0.98 \%A (RCH~3~),
0.99 \%A (R~2~CH~2~) and 0.95 \%A (C~Ar~H). U~iso~(H) values were set to 
either 1.2U~eq~ or 1.5U~eq~ (RCH~3~ only) of the attached C atom.
;
 
_refine_ls_structure_factor_coef  Fsqd  
_refine_ls_matrix_type            full 
_refine_ls_weighting_scheme       calc  
_refine_ls_weighting_details 
 'calc w=1/[\s^2^(Fo^2^)+(0.0179P)^2^+1.1179P] where P=(Fo^2^+2Fc^2^)/3' 
_atom_sites_solution_primary      direct 
_atom_sites_solution_secondary    difmap 
_atom_sites_solution_hydrogens    geom 
_refine_ls_hydrogen_treatment     constr 
_refine_ls_extinction_method      none 
_refine_ls_extinction_coef        ? 
_refine_ls_number_reflns          2744 
_refine_ls_number_parameters      191 
_refine_ls_number_restraints      118 
_refine_ls_R_factor_all           0.0524 
_refine_ls_R_factor_gt            0.0509 
_refine_ls_wR_factor_ref          0.1174 
_refine_ls_wR_factor_gt           0.1162 
_refine_ls_goodness_of_fit_ref    1.162 
_refine_ls_restrained_S_all       1.143 
_refine_ls_shift/su_max           0.001 
_refine_ls_shift/su_mean          0.000 
 
loop_ 
 _atom_site_label 
 _atom_site_type_symbol 
 _atom_site_fract_x 
 _atom_site_fract_y 
 _atom_site_fract_z 
 _atom_site_U_iso_or_equiv 
 _atom_site_adp_type 
 _atom_site_occupancy 
 _atom_site_symmetry_multiplicity 
 _atom_site_calc_flag 
 _atom_site_refinement_flags 
 _atom_site_disorder_assembly 
 _atom_site_disorder_group 
Si1 Si 0.20661(12) 0.60529(10) 0.82229(4) 0.0280(2) Uani 1 1 d . . . 
C1 C 0.4336(4) 0.5364(3) 0.57781(13) 0.0196(5) Uani 1 1 d . . . 
C2 C 0.6406(4) 0.6306(3) 0.56439(13) 0.0200(5) Uani 1 1 d . B . 
C3 C 0.7810(4) 0.7662(3) 0.62702(14) 0.0244(5) Uani 1 1 d . . . 
H3 H 0.7394 0.7981 0.6796 0.029 Uiso 1 1 calc R A 1 
C4 C 0.9866(11) 0.8524(16) 0.6076(4) 0.0208(10) Uani 0.706(3) 1 d PDU B 1 
S5 S 1.19186(18) 1.02510(13) 0.66962(5) 0.0244(3) Uani 0.706(3) 1 d PDU B 1 
C6 C 1.3442(6) 1.0125(6) 0.5889(3) 0.0247(8) Uani 0.706(3) 1 d PDU B 1 
H6 H 1.4865 1.0887 0.5945 0.030 Uiso 0.706(3) 1 calc PR B 1 
N7 N 1.2618(11) 0.8988(11) 0.5213(4) 0.0286(10) Uani 0.706(3) 1 d PDU B 1 
C8 C 1.0548(11) 0.8070(15) 0.5299(4) 0.0205(9) Uani 0.706(3) 1 d PDU B 1 
C4' C 0.960(3) 0.854(4) 0.6208(11) 0.0208(10) Uani 0.294(3) 1 d PDU B 2 
N5' N 1.1045(13) 0.9895(12) 0.6793(5) 0.0244(3) Uani 0.294(3) 1 d PDU B 2 
C6' C 1.2815(13) 1.0439(12) 0.6464(5) 0.0247(8) Uani 0.294(3) 1 d PDU B 2 
H6' H 1.4001 1.1376 0.6769 0.030 Uiso 0.294(3) 1 calc PR B 2 
S7' S 1.2942(7) 0.9423(7) 0.5470(3) 0.0286(10) Uani 0.294(3) 1 d PDU B 2 
C8' C 1.035(2) 0.807(4) 0.5445(10) 0.0205(9) Uani 0.294(3) 1 d PDU B 2 
C9 C 0.9176(4) 0.6805(3) 0.47221(14) 0.0228(5) Uani 1 1 d . . . 
H9 H 0.9621 0.6492 0.4201 0.027 Uiso 1 1 calc R B 1 
C10 C 0.7085(4) 0.5912(3) 0.48566(13) 0.0194(4) Uani 1 1 d . . . 
C11 C 0.3664(4) 0.5694(3) 0.65662(13) 0.0232(5) Uani 1 1 d . . . 
C12 C 0.3047(4) 0.5899(3) 0.72225(14) 0.0268(5) Uani 1 1 d . . . 
C13 C -0.0881(5) 0.5401(5) 0.80989(16) 0.0440(7) Uani 1 1 d . . . 
H13A H -0.1388 0.5381 0.8639 0.053 Uiso 1 1 calc R . . 
H13B H -0.1343 0.6456 0.7883 0.053 Uiso 1 1 calc R . . 
C14 C -0.1942(5) 0.3451(6) 0.7553(2) 0.0578(9) Uani 1 1 d . . . 
H14A H -0.1597 0.3504 0.6998 0.087 Uiso 1 1 calc R . . 
H14B H -0.3476 0.3189 0.7566 0.087 Uiso 1 1 calc R . . 
H14C H -0.1439 0.2397 0.7740 0.087 Uiso 1 1 calc R . . 
C15 C 0.3069(4) 0.4248(4) 0.87140(14) 0.0274(5) Uani 1 1 d . . . 
H15A H 0.2665 0.2953 0.8344 0.033 Uiso 1 1 calc R . . 
H15B H 0.4631 0.4677 0.8791 0.033 Uiso 1 1 calc R . . 
C16 C 0.2259(5) 0.3993(4) 0.95278(15) 0.0351(6) Uani 1 1 d . . . 
H16A H 0.2600 0.5274 0.9894 0.053 Uiso 1 1 calc R . . 
H16B H 0.2933 0.3094 0.9760 0.053 Uiso 1 1 calc R . . 
H16C H 0.0724 0.3445 0.9452 0.053 Uiso 1 1 calc R . . 
C17 C 0.3060(6) 0.8623(4) 0.87968(17) 0.0485(8) Uani 1 1 d . . . 
H17A H 0.2319 0.9476 0.8553 0.058 Uiso 1 1 calc R . . 
H17B H 0.2688 0.8657 0.9358 0.058 Uiso 1 1 calc R . . 
C18 C 0.5400(7) 0.9473(5) 0.8822(2) 0.0615(10) Uani 1 1 d . . . 
H18A H 0.6157 0.8659 0.9073 0.092 Uiso 1 1 calc R . . 
H18B H 0.5786 1.0817 0.9138 0.092 Uiso 1 1 calc R . . 
H18C H 0.5785 0.9495 0.8270 0.092 Uiso 1 1 calc R . . 
 
loop_ 
 _atom_site_aniso_label 
 _atom_site_aniso_U_11 
 _atom_site_aniso_U_22 
 _atom_site_aniso_U_33 
 _atom_site_aniso_U_23 
 _atom_site_aniso_U_13 
 _atom_site_aniso_U_12 
Si1 0.0425(4) 0.0285(4) 0.0174(3) 0.0048(2) 0.0044(3) 0.0169(3) 
C1 0.0280(12) 0.0160(10) 0.0183(10) 0.0072(8) 0.0014(9) 0.0099(9) 
C2 0.0255(12) 0.0160(10) 0.0203(11) 0.0058(8) -0.0030(9) 0.0084(9) 
C3 0.0345(13) 0.0192(11) 0.0211(11) 0.0052(9) -0.0045(9) 0.0101(10) 
C4 0.0228(19) 0.0163(10) 0.024(3) 0.006(2) -0.0040(15) 0.0061(16) 
S5 0.0245(6) 0.0210(5) 0.0249(5) 0.0041(3) -0.0041(4) 0.0024(4) 
C6 0.0204(17) 0.0194(17) 0.035(2) 0.0093(16) -0.0023(15) 0.0054(13) 
N7 0.0201(18) 0.021(2) 0.047(3) 0.0134(18) 0.0007(19) 0.0060(15) 
C8 0.0209(16) 0.0173(11) 0.027(2) 0.011(2) 0.0012(14) 0.0077(13) 
C4' 0.0228(19) 0.0163(10) 0.024(3) 0.006(2) -0.0040(15) 0.0061(16) 
N5' 0.0245(6) 0.0210(5) 0.0249(5) 0.0041(3) -0.0041(4) 0.0024(4) 
C6' 0.0204(17) 0.0194(17) 0.035(2) 0.0093(16) -0.0023(15) 0.0054(13) 
S7' 0.0201(18) 0.021(2) 0.047(3) 0.0134(18) 0.0007(19) 0.0060(15) 
C8' 0.0209(16) 0.0173(11) 0.027(2) 0.011(2) 0.0012(14) 0.0077(13) 
C9 0.0254(12) 0.0189(11) 0.0283(12) 0.0089(9) 0.0024(9) 0.0104(9) 
C10 0.0235(11) 0.0157(10) 0.0210(11) 0.0062(8) -0.0007(8) 0.0079(9) 
C11 0.0308(12) 0.0173(11) 0.0222(12) 0.0058(9) -0.0009(9) 0.0073(9) 
C12 0.0385(14) 0.0200(11) 0.0228(12) 0.0044(9) 0.0016(10) 0.0092(10) 
C13 0.0477(17) 0.073(2) 0.0259(13) 0.0145(13) 0.0105(12) 0.0377(16) 
C14 0.0319(16) 0.089(3) 0.0462(18) 0.0021(17) 0.0109(13) 0.0100(16) 
C15 0.0323(13) 0.0297(13) 0.0230(12) 0.0072(10) 0.0044(10) 0.0110(10) 
C16 0.0415(15) 0.0436(15) 0.0277(13) 0.0141(11) 0.0082(11) 0.0193(12) 
C17 0.092(3) 0.0319(15) 0.0243(13) 0.0020(11) 0.0055(14) 0.0238(16) 
C18 0.103(3) 0.0321(16) 0.0375(17) -0.0002(13) -0.0076(18) 0.0022(18) 
 
_geom_special_details 
; 
 All esds (except the esd in the dihedral angle between two l.s. planes) 
 are estimated using the full covariance matrix.  The cell esds are taken 
 into account individually in the estimation of esds in distances, angles 
 and torsion angles; correlations between esds in cell parameters are only 
 used when they are defined by crystal symmetry.  An approximate (isotropic) 
 treatment of cell esds is used for estimating esds involving l.s. planes. 
; 
 
loop_ 
 _geom_bond_atom_site_label_1 
 _geom_bond_atom_site_label_2 
 _geom_bond_distance 
 _geom_bond_site_symmetry_2 
 _geom_bond_publ_flag 
Si1 C12 1.836(2) . ? 
Si1 C17 1.862(3) . ? 
Si1 C15 1.866(2) . ? 
Si1 C13 1.866(3) . ? 
C1 C10 1.411(3) 2_666 ? 
C1 C2 1.411(3) . ? 
C1 C11 1.425(3) . ? 
C2 C3 1.418(3) . ? 
C2 C10 1.430(3) . ? 
C3 C4' 1.211(14) . ? 
C3 C4 1.422(6) . ? 
C3 H3 0.9500 . ? 
C4 C8 1.420(4) . ? 
C4 S5 1.739(6) . ? 
S5 C6 1.738(4) . ? 
C6 N7 1.286(5) . ? 
C6 H6 0.9500 . ? 
N7 C8 1.385(8) . ? 
C8 C9 1.335(6) . ? 
C4' N5' 1.391(12) . ? 
C4' C8' 1.418(8) . ? 
N5' C6' 1.318(8) . ? 
C6' S7' 1.726(8) . ? 
C6' H6' 0.9500 . ? 
S7' C8' 1.735(11) . ? 
C8' C9 1.443(14) . ? 
C9 C10 1.414(3) . ? 
C9 H9 0.9500 . ? 
C10 C1 1.411(3) 2_666 ? 
C11 C12 1.199(3) . ? 
C13 C14 1.513(5) . ? 
C13 H13A 0.9900 . ? 
C13 H13B 0.9900 . ? 
C14 H14A 0.9800 . ? 
C14 H14B 0.9800 . ? 
C14 H14C 0.9800 . ? 
C15 C16 1.524(3) . ? 
C15 H15A 0.9900 . ? 
C15 H15B 0.9900 . ? 
C16 H16A 0.9800 . ? 
C16 H16B 0.9800 . ? 
C16 H16C 0.9800 . ? 
C17 C18 1.503(5) . ? 
C17 H17A 0.9900 . ? 
C17 H17B 0.9900 . ? 
C18 H18A 0.9800 . ? 
C18 H18B 0.9800 . ? 
C18 H18C 0.9800 . ? 
 
loop_ 
 _geom_angle_atom_site_label_1 
 _geom_angle_atom_site_label_2 
 _geom_angle_atom_site_label_3 
 _geom_angle 
 _geom_angle_site_symmetry_1 
 _geom_angle_site_symmetry_3 
 _geom_angle_publ_flag 
C12 Si1 C17 108.97(13) . . ? 
C12 Si1 C15 105.98(11) . . ? 
C17 Si1 C15 112.40(13) . . ? 
C12 Si1 C13 109.30(12) . . ? 
C17 Si1 C13 109.03(15) . . ? 
C15 Si1 C13 111.07(13) . . ? 
C10 C1 C2 121.0(2) 2_666 . ? 
C10 C1 C11 119.2(2) 2_666 . ? 
C2 C1 C11 119.8(2) . . ? 
C1 C2 C3 121.3(2) . . ? 
C1 C2 C10 119.2(2) . . ? 
C3 C2 C10 119.4(2) . . ? 
C4' C3 C2 125.7(7) . . ? 
C2 C3 C4 117.1(3) . . ? 
C4' C3 H3 112.8 . . ? 
C2 C3 H3 121.5 . . ? 
C4 C3 H3 121.5 . . ? 
C8 C4 C3 123.0(5) . . ? 
C8 C4 S5 108.7(5) . . ? 
C3 C4 S5 128.3(4) . . ? 
C6 S5 C4 87.8(2) . . ? 
N7 C6 S5 119.1(5) . . ? 
N7 C6 H6 120.4 . . ? 
S5 C6 H6 120.4 . . ? 
C6 N7 C8 108.3(6) . . ? 
C9 C8 N7 125.8(5) . . ? 
C9 C8 C4 118.2(5) . . ? 
N7 C8 C4 116.0(6) . . ? 
C3 C4' N5' 128.5(13) . . ? 
C3 C4' C8' 115.7(12) . . ? 
N5' C4' C8' 115.8(12) . . ? 
C6' N5' C4' 107.6(8) . . ? 
N5' C6' S7' 118.9(6) . . ? 
N5' C6' H6' 120.5 . . ? 
S7' C6' H6' 120.5 . . ? 
C6' S7' C8' 88.2(6) . . ? 
C4' C8' C9 127.7(12) . . ? 
C4' C8' S7' 109.4(11) . . ? 
C9 C8' S7' 122.7(10) . . ? 
C8 C9 C10 122.6(3) . . ? 
C10 C9 C8' 111.7(6) . . ? 
C8 C9 H9 118.7 . . ? 
C10 C9 H9 118.7 . . ? 
C8' C9 H9 129.6 . . ? 
C1 C10 C9 120.7(2) 2_666 . ? 
C1 C10 C2 119.7(2) 2_666 . ? 
C9 C10 C2 119.6(2) . . ? 
C12 C11 C1 177.4(2) . . ? 
C11 C12 Si1 176.6(2) . . ? 
C14 C13 Si1 115.7(2) . . ? 
C14 C13 H13A 108.3 . . ? 
Si1 C13 H13A 108.3 . . ? 
C14 C13 H13B 108.3 . . ? 
Si1 C13 H13B 108.3 . . ? 
H13A C13 H13B 107.4 . . ? 
C13 C14 H14A 109.5 . . ? 
C13 C14 H14B 109.5 . . ? 
H14A C14 H14B 109.5 . . ? 
C13 C14 H14C 109.5 . . ? 
H14A C14 H14C 109.5 . . ? 
H14B C14 H14C 109.5 . . ? 
C16 C15 Si1 114.75(17) . . ? 
C16 C15 H15A 108.6 . . ? 
Si1 C15 H15A 108.6 . . ? 
C16 C15 H15B 108.6 . . ? 
Si1 C15 H15B 108.6 . . ? 
H15A C15 H15B 107.6 . . ? 
C15 C16 H16A 109.5 . . ? 
C15 C16 H16B 109.5 . . ? 
H16A C16 H16B 109.5 . . ? 
C15 C16 H16C 109.5 . . ? 
H16A C16 H16C 109.5 . . ? 
H16B C16 H16C 109.5 . . ? 
C18 C17 Si1 114.9(2) . . ? 
C18 C17 H17A 108.5 . . ? 
Si1 C17 H17A 108.5 . . ? 
C18 C17 H17B 108.5 . . ? 
Si1 C17 H17B 108.5 . . ? 
H17A C17 H17B 107.5 . . ? 
C17 C18 H18A 109.5 . . ? 
C17 C18 H18B 109.5 . . ? 
H18A C18 H18B 109.5 . . ? 
C17 C18 H18C 109.5 . . ? 
H18A C18 H18C 109.5 . . ? 
H18B C18 H18C 109.5 . . ? 
 
loop_ 
 _geom_torsion_atom_site_label_1 
 _geom_torsion_atom_site_label_2 
 _geom_torsion_atom_site_label_3 
 _geom_torsion_atom_site_label_4 
 _geom_torsion 
 _geom_torsion_site_symmetry_1 
 _geom_torsion_site_symmetry_2 
 _geom_torsion_site_symmetry_3 
 _geom_torsion_site_symmetry_4 
 _geom_torsion_publ_flag 
C10 C1 C2 C3 177.0(2) 2_666 . . . ? 
C11 C1 C2 C3 -3.2(3) . . . . ? 
C10 C1 C2 C10 -1.8(3) 2_666 . . . ? 
C11 C1 C2 C10 177.93(19) . . . . ? 
C1 C2 C3 C4' -180(2) . . . . ? 
C10 C2 C3 C4' -1(2) . . . . ? 
C1 C2 C3 C4 179.6(6) . . . . ? 
C10 C2 C3 C4 -1.6(7) . . . . ? 
C4' C3 C4 C8 -178(16) . . . . ? 
C2 C3 C4 C8 -0.6(14) . . . . ? 
C4' C3 C4 S5 1(14) . . . . ? 
C2 C3 C4 S5 178.8(7) . . . . ? 
C8 C4 S5 C6 -1.7(8) . . . . ? 
C3 C4 S5 C6 178.8(11) . . . . ? 
C4 S5 C6 N7 1.0(8) . . . . ? 
S5 C6 N7 C8 0.2(10) . . . . ? 
C6 N7 C8 C9 178.9(10) . . . . ? 
C6 N7 C8 C4 -1.7(13) . . . . ? 
C3 C4 C8 C9 1.4(17) . . . . ? 
S5 C4 C8 C9 -178.2(9) . . . . ? 
C3 C4 C8 N7 -178.1(10) . . . . ? 
S5 C4 C8 N7 2.4(13) . . . . ? 
C2 C3 C4' N5' 179(2) . . . . ? 
C4 C3 C4' N5' -178(18) . . . . ? 
C2 C3 C4' C8' -3(4) . . . . ? 
C4 C3 C4' C8' 0(13) . . . . ? 
C3 C4' N5' C6' 179(3) . . . . ? 
C8' C4' N5' C6' 1(3) . . . . ? 
C4' N5' C6' S7' -0.3(19) . . . . ? 
N5' C6' S7' C8' 0.0(14) . . . . ? 
C3 C4' C8' C9 5(5) . . . . ? 
N5' C4' C8' C9 -177(3) . . . . ? 
C3 C4' C8' S7' -179(2) . . . . ? 
N5' C4' C8' S7' -1(3) . . . . ? 
C6' S7' C8' C4' 0(2) . . . . ? 
C6' S7' C8' C9 176(2) . . . . ? 
N7 C8 C9 C10 179.5(8) . . . . ? 
C4 C8 C9 C10 0.1(13) . . . . ? 
N7 C8 C9 C8' 173(11) . . . . ? 
C4 C8 C9 C8' -6(9) . . . . ? 
C4' C8' C9 C8 171(13) . . . . ? 
S7' C8' C9 C8 -4(8) . . . . ? 
C4' C8' C9 C10 -3(4) . . . . ? 
S7' C8' C9 C10 -178.5(17) . . . . ? 
C8 C9 C10 C1 177.8(7) . . . 2_666 ? 
C8' C9 C10 C1 179.1(15) . . . 2_666 ? 
C8 C9 C10 C2 -2.3(7) . . . . ? 
C8' C9 C10 C2 -1.0(15) . . . . ? 
C1 C2 C10 C1 1.8(3) . . . 2_666 ? 
C3 C2 C10 C1 -177.03(19) . . . 2_666 ? 
C1 C2 C10 C9 -178.15(19) . . . . ? 
C3 C2 C10 C9 3.0(3) . . . . ? 
C12 Si1 C13 C14 53.4(3) . . . . ? 
C17 Si1 C13 C14 172.4(2) . . . . ? 
C15 Si1 C13 C14 -63.2(3) . . . . ? 
C12 Si1 C15 C16 -174.46(19) . . . . ? 
C17 Si1 C15 C16 66.6(2) . . . . ? 
C13 Si1 C15 C16 -55.9(2) . . . . ? 
C12 Si1 C17 C18 -50.8(3) . . . . ? 
C15 Si1 C17 C18 66.3(2) . . . . ? 
C13 Si1 C17 C18 -170.0(2) . . . . ? 
 
_diffrn_measured_fraction_theta_max    0.978 
_diffrn_reflns_theta_full              69.41 
_diffrn_measured_fraction_theta_full   0.978 
_refine_diff_density_max    0.419 
_refine_diff_density_min   -0.392 
_refine_diff_density_rms    0.056 
