 
data_x09077t 
 
_audit_creation_method            SHELXL-97 
_chemical_name_systematic 
; 
 ? 
; 
_chemical_name_common             ? 
_chemical_melting_point           ? 
_chemical_formula_moiety 
 'C66 H76 F4 Si2' 
_chemical_formula_sum 
 'C66 H76 F4 Si2' 
_chemical_formula_weight          1001.45 
 
loop_ 
 _atom_type_symbol 
 _atom_type_description 
 _atom_type_scat_dispersion_real 
 _atom_type_scat_dispersion_imag 
 _atom_type_scat_source 
 'C'  'C'   0.0181   0.0091 
 'International Tables Vol C Tables 4.2.6.8 and 6.1.1.4' 
 'H'  'H'   0.0000   0.0000 
 'International Tables Vol C Tables 4.2.6.8 and 6.1.1.4' 
 'F'  'F'   0.0727   0.0534 
 'International Tables Vol C Tables 4.2.6.8 and 6.1.1.4' 
 'Si'  'Si'   0.2541   0.3302 
 'International Tables Vol C Tables 4.2.6.8 and 6.1.1.4' 
 
_symmetry_cell_setting            monoclinic
_symmetry_space_group_name_H-M    'P 21/n'
_symmetry_space_group_name_Hall   '-P 2yn'
 
loop_ 
 _symmetry_equiv_pos_as_xyz 
 'x, y, z' 
 '-x+1/2, y+1/2, -z+1/2' 
 '-x, -y, -z' 
 'x-1/2, -y-1/2, z-1/2' 
 
_cell_length_a                    17.3204(10) 
_cell_length_b                    9.1990(5) 
_cell_length_c                    34.233(2) 
_cell_angle_alpha                 90.00 
_cell_angle_beta                  91.259(4) 
_cell_angle_gamma                 90.00 
_cell_volume                      5453.1(5) 
_cell_formula_units_Z             4 
_cell_measurement_temperature     90.0(2) 
_cell_measurement_reflns_used     5109
_cell_measurement_theta_min       2.58 
_cell_measurement_theta_max       68.44
 
_exptl_crystal_description        lath
_exptl_crystal_colour             green
_exptl_crystal_size_max           0.16 
_exptl_crystal_size_mid           0.04 
_exptl_crystal_size_min           0.01 
_exptl_crystal_density_meas       ? 
_exptl_crystal_density_diffrn     1.220 
_exptl_crystal_density_method     'not measured' 
_exptl_crystal_F_000              2144 
_exptl_absorpt_coefficient_mu     1.021 
_exptl_absorpt_correction_type    multi-scan 
_exptl_absorpt_correction_T_min   0.607
_exptl_absorpt_correction_T_max   0.990 
_exptl_absorpt_process_details    'Sadabs in APEX2 (BrukerAXS, 2006)' 
 
_exptl_special_details 
; 
 ? 
; 
 
_diffrn_ambient_temperature       90.0(2) 
_diffrn_radiation_wavelength      1.54178 
_diffrn_radiation_type            CuK\a 
_diffrn_radiation_source          'fine-focus rotating anode' 
_diffrn_radiation_monochromator   'graded multilayer optics' 
_diffrn_measurement_device_type   'Bruker X8 Proteum diffractometer'
_diffrn_measurement_method        '\f and \w scans'            
_diffrn_detector_area_resol_mean  5.6
_diffrn_standards_number          0 
_diffrn_standards_interval_count  . 
_diffrn_standards_interval_time   . 
_diffrn_standards_decay_%         ? 
_diffrn_reflns_number             77266 
_diffrn_reflns_av_R_equivalents   0.0679 
_diffrn_reflns_av_sigmaI/netI     0.0951 
_diffrn_reflns_limit_h_min        -20 
_diffrn_reflns_limit_h_max        20 
_diffrn_reflns_limit_k_min        -11 
_diffrn_reflns_limit_k_max        11 
_diffrn_reflns_limit_l_min        -41 
_diffrn_reflns_limit_l_max        41 
_diffrn_reflns_theta_min          2.58 
_diffrn_reflns_theta_max          69.16 
_reflns_number_total              9960 
_reflns_number_gt                 6696 
_reflns_threshold_expression      >2\s(I)    
 
_computing_data_collection        'APEX2 (Bruker-AXS, 2006)'            
_computing_cell_refinement        'APEX2'
_computing_data_reduction         'APEX2'
_computing_structure_solution     'SHELXS-97 (Sheldrick, 2008)' 
_computing_structure_refinement   'SHELXL-97 (Sheldrick, 2008)' 
_computing_molecular_graphics     'XP in SHELXTL (Sheldrick, 2008)'
_computing_publication_material
; 
SHELX-97 (Sheldrick, 2008) and local procedures 
; 
 
_publ_section_exptl_refinement
;
H atoms were found in difference Fourier maps and subsequently placed in
idealized positions with constrained distances of 
0.99 \%A (R~2~CH~2~),
1.00 \%A (R~3~CH),
0.95 \%A (C~Ar~H),
and with U~iso~(H) values set to either 1.2U~eq~  
of the attached atom. 
;

_refine_special_details 
; 
 Refinement of F^2^ against ALL reflections.  The weighted R-factor wR and 
 goodness of fit S are based on F^2^, conventional R-factors R are based 
 on F, with F set to zero for negative F^2^. The threshold expression of 
 F^2^ > 2\s(F^2^) is used only for calculating R-factors(gt) etc. and is 
 not relevant to the choice of reflections for refinement.  R-factors based 
 on F^2^ are statistically about twice as large as those based on F, and R- 
 factors based on ALL data will be even larger. 
 
 Restraints on distances, angles and displacement parameters were 
 necessary (SAME, DELU) owing to the large amount of disorder and
 twinning pesent in this crystal structure.
; 
 
_refine_ls_structure_factor_coef  Fsqd  
_refine_ls_matrix_type            full 
_refine_ls_weighting_scheme       calc  
_refine_ls_weighting_details 
 'calc w=1/[\s^2^(Fo^2^)+(0.0859P)^2^+21.8570P] where P=(Fo^2^+2Fc^2^)/3' 
_atom_sites_solution_primary      direct 
_atom_sites_solution_secondary    difmap 
_atom_sites_solution_hydrogens    geom 
_refine_ls_hydrogen_treatment     constr 
_refine_ls_extinction_method      SHELXL 
_refine_ls_extinction_coef        0.00208(17) 
_refine_ls_extinction_expression 
 'Fc^*^=kFc[1+0.001xFc^2^\l^3^/sin(2\q)]^-1/4^' 
_refine_ls_number_reflns          9960 
_refine_ls_number_parameters      738 
_refine_ls_number_restraints      141 
_refine_ls_R_factor_all           0.1493 
_refine_ls_R_factor_gt            0.1051 
_refine_ls_wR_factor_ref          0.2751 
_refine_ls_wR_factor_gt           0.2507 
_refine_ls_goodness_of_fit_ref    1.086 
_refine_ls_restrained_S_all       1.081 
_refine_ls_shift/su_max           0.007 
_refine_ls_shift/su_mean          0.000 
 
loop_ 
 _atom_site_label 
 _atom_site_type_symbol 
 _atom_site_fract_x 
 _atom_site_fract_y 
 _atom_site_fract_z 
 _atom_site_U_iso_or_equiv 
 _atom_site_adp_type 
 _atom_site_occupancy 
 _atom_site_symmetry_multiplicity 
 _atom_site_calc_flag 
 _atom_site_refinement_flags 
 _atom_site_disorder_assembly 
 _atom_site_disorder_group 
Si1 Si 0.23750(10) 0.61659(18) 0.13910(5) 0.0290(4) Uani 1 1 d . . . 
C1 C 0.2531(4) 0.8804(7) 0.02979(17) 0.0331(14) Uani 1 1 d . . . 
C2 C 0.1924(4) 0.9768(7) 0.01953(17) 0.0319(14) Uani 1 1 d . B . 
C3 C 0.1260(4) 0.9882(7) 0.04213(18) 0.0332(14) Uani 1 1 d . . . 
H3 H 0.1215 0.9278 0.0645 0.040 Uiso 1 1 calc R A 1 
C4 C 0.0666(4) 1.0848(7) 0.03300(18) 0.0341(14) Uani 0.802(6) 1 d PDU B 1 
C5 C -0.0005(9) 1.095(3) 0.0554(7) 0.036(3) Uani 0.802(6) 1 d PDU B 1 
C6 C -0.0580(6) 1.1871(15) 0.0463(4) 0.036(2) Uani 0.802(6) 1 d PDU B 1 
C7 C -0.0509(7) 1.2839(19) 0.0143(4) 0.038(2) Uani 0.802(6) 1 d PDU B 1 
C8 C 0.0110(8) 1.2779(17) -0.0074(4) 0.037(3) Uani 0.802(6) 1 d PDU B 1 
F1 F -0.0092(3) 1.0072(6) 0.08714(13) 0.0428(13) Uani 0.802(6) 1 d PDU B 1 
F2 F -0.1223(3) 1.2005(9) 0.06805(19) 0.0451(16) Uani 0.802(6) 1 d PDU B 1 
F3 F -0.1101(4) 1.3747(8) 0.0062(2) 0.0471(15) Uani 0.802(6) 1 d PDU B 1 
F4 F 0.0176(3) 1.3679(5) -0.03879(14) 0.0435(13) Uani 0.802(6) 1 d PDU B 1 
C9 C 0.0749(4) 1.1791(7) -0.00056(19) 0.0363(14) Uani 0.802(6) 1 d PDU B 1 
C4A C 0.0666(4) 1.0848(7) 0.03300(18) 0.0341(14) Uani 0.198(6) 1 d PD B 2 
C5A C -0.004(5) 1.101(13) 0.053(3) 0.054(14) Uiso 0.198(6) 1 d PDU B 2 
H5A H -0.0163 1.0342 0.0728 0.064 Uiso 0.198(6) 1 calc PR B 2 
C6A C -0.055(3) 1.212(8) 0.0430(19) 0.052(11) Uiso 0.198(6) 1 d PDU B 2 
C17A C -0.131(3) 1.215(8) 0.059(2) 0.059(10) Uiso 0.198(6) 1 d PDU B 2 
H17A H -0.1474 1.1422 0.0769 0.071 Uiso 0.198(6) 1 calc PR B 2 
C18A C -0.180(2) 1.325(4) 0.0484(11) 0.066(8) Uiso 0.198(6) 1 d PDU B 2 
H18A H -0.2243 1.3401 0.0635 0.079 Uiso 0.198(6) 1 calc PR B 2 
C19A C -0.168(2) 1.419(4) 0.0159(11) 0.061(8) Uiso 0.198(6) 1 d PDU B 2 
H19A H -0.2045 1.4917 0.0089 0.073 Uiso 0.198(6) 1 calc PR B 2 
C20A C -0.104(3) 1.400(7) -0.0043(18) 0.053(10) Uiso 0.198(6) 1 d PDU B 2 
H20A H -0.0957 1.4602 -0.0263 0.064 Uiso 0.198(6) 1 calc PR B 2 
C7A C -0.048(4) 1.292(10) 0.006(2) 0.047(10) Uiso 0.198(6) 1 d PDU B 2 
C8A C 0.018(3) 1.271(9) -0.0146(17) 0.044(13) Uiso 0.198(6) 1 d PDU B 2 
H8A H 0.0242 1.3191 -0.0389 0.053 Uiso 0.198(6) 1 calc PR B 2 
C9A C 0.0749(4) 1.1791(7) -0.00056(19) 0.0363(14) Uani 0.198(6) 1 d PD B 2 
C10 C 0.1396(4) 1.1691(7) -0.02309(19) 0.0349(15) Uani 1 1 d . . . 
H10 H 0.1437 1.2308 -0.0452 0.042 Uiso 1 1 calc R B 1 
C11 C 0.1999(4) 1.0706(7) -0.01453(17) 0.0310(13) Uani 1 1 d . B . 
C12 C 0.2666(4) 1.0620(7) -0.03678(17) 0.0324(14) Uani 1 1 d . . . 
C13 C 0.3298(4) 0.9709(7) -0.02525(17) 0.0310(14) Uani 1 1 d . B . 
C14 C 0.3994(4) 0.9710(7) -0.04549(18) 0.0355(15) Uani 1 1 d . . . 
H14 H 0.4050 1.0342 -0.0672 0.043 Uiso 1 1 calc R B 1 
C15 C 0.4611(4) 0.8791(7) -0.03427(17) 0.0348(14) Uani 0.802(6) 1 d PDU B 1 
C16 C 0.5315(7) 0.885(2) -0.0536(5) 0.039(3) Uani 0.802(6) 1 d PDU B 1 
H16 H 0.5371 0.9504 -0.0749 0.047 Uiso 0.802(6) 1 calc PR B 1 
C17 C 0.5934(7) 0.7976(17) -0.0420(5) 0.039(3) Uani 0.802(6) 1 d PDU B 1 
C18 C 0.6659(7) 0.800(2) -0.0616(5) 0.043(3) Uani 0.802(6) 1 d PDU B 1 
H18 H 0.6743 0.8671 -0.0822 0.052 Uiso 0.802(6) 1 calc PR B 1 
C19 C 0.7225(5) 0.7052(11) -0.0502(3) 0.049(2) Uani 0.802(6) 1 d PDU B 1 
H19 H 0.7705 0.7077 -0.0631 0.059 Uiso 0.802(6) 1 calc PR B 1 
C20 C 0.7120(5) 0.6023(10) -0.0197(3) 0.048(2) Uani 0.802(6) 1 d PDU B 1 
H20 H 0.7525 0.5368 -0.0129 0.057 Uiso 0.802(6) 1 calc PR B 1 
C21 C 0.6461(10) 0.597(2) -0.0007(8) 0.047(4) Uani 0.802(6) 1 d PDU B 1 
H21 H 0.6408 0.5296 0.0200 0.056 Uiso 0.802(6) 1 calc PR B 1 
C22 C 0.5824(7) 0.692(2) -0.0107(5) 0.039(3) Uani 0.802(6) 1 d PDU B 1 
C23 C 0.5136(12) 0.690(4) 0.0083(9) 0.039(5) Uani 0.802(6) 1 d PDU B 1 
H23 H 0.5075 0.6228 0.0292 0.047 Uiso 0.802(6) 1 calc PR B 1 
C24 C 0.4521(4) 0.7813(7) -0.00167(18) 0.0352(14) Uani 0.802(6) 1 d PDU B 1 
C15B C 0.4611(4) 0.8791(7) -0.03427(17) 0.0348(14) Uani 0.198(6) 1 d PD B 2 
C16B C 0.537(3) 0.872(10) -0.050(2) 0.05(2) Uiso 0.198(6) 1 d PDU B 2 
C17B C 0.590(2) 0.769(6) -0.0403(15) 0.027(13) Uiso 0.198(6) 1 d PDU B 2 
C22B C 0.582(3) 0.688(12) -0.005(2) 0.06(2) Uiso 0.198(6) 1 d PDU B 2 
C23B C 0.515(5) 0.690(19) 0.012(4) 0.039(18) Uiso 0.198(6) 1 d PDU B 2 
F1B F 0.5505(11) 0.944(2) -0.0835(5) 0.042(5) Uiso 0.198(6) 1 d PDU B 2 
F2B F 0.6619(17) 0.761(4) -0.0562(11) 0.050(12) Uiso 0.198(6) 1 d PDU B 2 
F3B F 0.640(2) 0.599(6) 0.0058(15) 0.048(12) Uiso 0.198(6) 1 d PDU B 2 
F4B F 0.5123(12) 0.608(2) 0.0456(5) 0.048(6) Uiso 0.198(6) 1 d PDU B 2 
C24B C 0.4521(4) 0.7813(7) -0.00167(18) 0.0352(14) Uani 0.198(6) 1 d PD B 2 
C25 C 0.3830(4) 0.7833(8) 0.0185(2) 0.0383(15) Uani 1 1 d . . . 
H25 H 0.3773 0.7197 0.0401 0.046 Uiso 1 1 calc R B 1 
C26 C 0.3219(4) 0.8756(7) 0.00801(17) 0.0316(13) Uani 1 1 d . B . 
C27 C 0.2468(4) 0.7908(7) 0.06356(16) 0.0297(13) Uani 1 1 d . . . 
C28 C 0.2428(4) 0.7179(7) 0.09297(18) 0.0349(14) Uani 1 1 d . . . 
C29 C 0.3252(4) 0.4938(7) 0.14319(18) 0.0335(14) Uani 1 1 d . . . 
H29 H 0.3113 0.4031 0.1285 0.040 Uiso 1 1 calc R . . 
C30 C 0.3977(4) 0.5538(9) 0.1241(2) 0.0467(18) Uani 1 1 d . . . 
H30A H 0.4133 0.6450 0.1375 0.056 Uiso 1 1 calc R . . 
H30B H 0.3855 0.5774 0.0965 0.056 Uiso 1 1 calc R . . 
C31 C 0.4655(4) 0.4467(9) 0.1259(2) 0.0477(19) Uani 1 1 d . . . 
H31A H 0.5118 0.4932 0.1150 0.057 Uiso 1 1 calc R . . 
H31B H 0.4527 0.3602 0.1098 0.057 Uiso 1 1 calc R . . 
C32 C 0.4830(4) 0.3993(8) 0.1681(2) 0.0467(18) Uani 1 1 d . . . 
H32A H 0.5246 0.3256 0.1685 0.056 Uiso 1 1 calc R . . 
H32B H 0.5011 0.4841 0.1836 0.056 Uiso 1 1 calc R . . 
C33 C 0.4114(4) 0.3363(8) 0.1862(2) 0.0481(19) Uani 1 1 d . . . 
H33A H 0.4232 0.3087 0.2136 0.058 Uiso 1 1 calc R . . 
H33B H 0.3956 0.2475 0.1718 0.058 Uiso 1 1 calc R . . 
C34 C 0.3451(4) 0.4461(8) 0.18505(19) 0.0389(16) Uani 1 1 d . . . 
H34A H 0.3598 0.5323 0.2008 0.047 Uiso 1 1 calc R . . 
H34B H 0.2990 0.4018 0.1968 0.047 Uiso 1 1 calc R . . 
C35 C 0.1475(4) 0.5000(7) 0.13609(18) 0.0338(14) Uani 1 1 d . . . 
H35 H 0.1597 0.4199 0.1175 0.041 Uiso 1 1 calc R . . 
C36 C 0.1268(4) 0.4247(7) 0.17417(19) 0.0354(15) Uani 1 1 d . . . 
H36A H 0.1726 0.3715 0.1845 0.043 Uiso 1 1 calc R . . 
H36B H 0.1127 0.4990 0.1937 0.043 Uiso 1 1 calc R . . 
C37 C 0.0599(4) 0.3187(8) 0.1685(2) 0.0456(18) Uani 1 1 d . . . 
H37A H 0.0760 0.2386 0.1512 0.055 Uiso 1 1 calc R . . 
H37B H 0.0469 0.2761 0.1941 0.055 Uiso 1 1 calc R . . 
C38 C -0.0101(4) 0.3903(8) 0.1512(2) 0.0432(17) Uani 1 1 d . . . 
H38A H -0.0304 0.4615 0.1701 0.052 Uiso 1 1 calc R . . 
H38B H -0.0505 0.3161 0.1462 0.052 Uiso 1 1 calc R . . 
C39 C 0.0078(5) 0.4678(9) 0.1131(2) 0.0486(18) Uani 1 1 d . . . 
H39A H -0.0386 0.5210 0.1036 0.058 Uiso 1 1 calc R . . 
H39B H 0.0214 0.3951 0.0931 0.058 Uiso 1 1 calc R . . 
C40 C 0.0747(4) 0.5745(9) 0.1189(2) 0.0481(19) Uani 1 1 d . . . 
H40A H 0.0588 0.6534 0.1367 0.058 Uiso 1 1 calc R . . 
H40B H 0.0871 0.6189 0.0934 0.058 Uiso 1 1 calc R . . 
C41 C 0.2363(3) 0.7579(6) 0.17851(18) 0.0294(13) Uani 1 1 d . . . 
H41 H 0.2329 0.7059 0.2041 0.035 Uiso 1 1 calc R . . 
C42 C 0.1660(4) 0.8596(8) 0.1749(2) 0.0394(16) Uani 1 1 d . . . 
H42A H 0.1647 0.9041 0.1486 0.047 Uiso 1 1 calc R . . 
H42B H 0.1182 0.8017 0.1776 0.047 Uiso 1 1 calc R . . 
C43 C 0.1674(4) 0.9804(8) 0.2057(2) 0.0392(16) Uani 1 1 d . . . 
H43A H 0.1230 1.0462 0.2007 0.047 Uiso 1 1 calc R . . 
H43B H 0.1614 0.9367 0.2318 0.047 Uiso 1 1 calc R . . 
C44 C 0.2411(4) 1.0679(7) 0.2054(2) 0.0367(15) Uani 1 1 d . . . 
H44A H 0.2404 1.1412 0.2265 0.044 Uiso 1 1 calc R . . 
H44B H 0.2448 1.1200 0.1802 0.044 Uiso 1 1 calc R . . 
C45 C 0.3105(4) 0.9698(7) 0.2111(2) 0.0367(15) Uani 1 1 d . . . 
H45A H 0.3090 0.9246 0.2373 0.044 Uiso 1 1 calc R . . 
H45B H 0.3583 1.0284 0.2097 0.044 Uiso 1 1 calc R . . 
C46 C 0.3119(4) 0.8499(7) 0.17976(19) 0.0339(14) Uani 1 1 d . . . 
H46A H 0.3564 0.7848 0.1852 0.041 Uiso 1 1 calc R . . 
H46B H 0.3192 0.8950 0.1539 0.041 Uiso 1 1 calc R . . 
C47 C 0.2705(4) 1.1433(7) -0.07219(17) 0.0357(15) Uani 1 1 d . B . 
C48 C 0.2712(4) 1.2025(7) -0.10394(19) 0.0357(14) Uani 1 1 d . . . 
Si2 Si 0.26521(10) 1.28408(17) -0.15309(5) 0.0276(4) Uani 1 1 d . B . 
C49 C 0.3384(4) 1.1870(7) -0.18398(18) 0.0330(14) Uani 1 1 d . . . 
H49 H 0.3146 1.0928 -0.1924 0.040 Uiso 1 1 calc R B . 
C50 C 0.4127(4) 1.1505(7) -0.16161(19) 0.0350(15) Uani 1 1 d . B . 
H50A H 0.4003 1.0910 -0.1385 0.042 Uiso 1 1 calc R . . 
H50B H 0.4372 1.2417 -0.1522 0.042 Uiso 1 1 calc R . . 
C51 C 0.4697(4) 1.0677(8) -0.1867(2) 0.0415(16) Uani 1 1 d . . . 
H51A H 0.5185 1.0529 -0.1716 0.050 Uiso 1 1 calc R B . 
H51B H 0.4481 0.9710 -0.1933 0.050 Uiso 1 1 calc R . . 
C52 C 0.4864(4) 1.1502(9) -0.2241(2) 0.0435(17) Uani 1 1 d . B . 
H52A H 0.5139 1.2415 -0.2176 0.052 Uiso 1 1 calc R . . 
H52B H 0.5204 1.0906 -0.2406 0.052 Uiso 1 1 calc R . . 
C53 C 0.4130(4) 1.1853(8) -0.24673(19) 0.0367(15) Uani 1 1 d . . . 
H53A H 0.3880 1.0939 -0.2555 0.044 Uiso 1 1 calc R B . 
H53B H 0.4256 1.2430 -0.2702 0.044 Uiso 1 1 calc R . . 
C54 C 0.3570(3) 1.2719(7) -0.22123(17) 0.0285(13) Uani 1 1 d . B . 
H54A H 0.3806 1.3665 -0.2140 0.034 Uiso 1 1 calc R . . 
H54B H 0.3087 1.2913 -0.2363 0.034 Uiso 1 1 calc R . . 
C55 C 0.2896(4) 1.4824(7) -0.14674(19) 0.0385(15) Uani 0.852(10) 1 d PDU B 1 
H55 H 0.3471 1.4888 -0.1476 0.046 Uiso 0.852(10) 1 calc PR B 1 
C56 C 0.2584(7) 1.5837(7) -0.1799(3) 0.031(3) Uani 0.852(10) 1 d PDU B 1 
H56A H 0.2772 1.5489 -0.2053 0.038 Uiso 0.852(10) 1 calc PR B 1 
H56B H 0.2012 1.5796 -0.1808 0.038 Uiso 0.852(10) 1 calc PR B 1 
C57 C 0.2842(5) 1.7403(7) -0.1734(2) 0.0317(17) Uani 0.852(10) 1 d PDU B 1 
H57A H 0.3408 1.7466 -0.1765 0.038 Uiso 0.852(10) 1 calc PR B 1 
H57B H 0.2595 1.8030 -0.1936 0.038 Uiso 0.852(10) 1 calc PR B 1 
C58 C 0.2637(5) 1.7958(8) -0.1333(2) 0.041(2) Uani 0.852(10) 1 d PDU B 1 
H58A H 0.2859 1.8942 -0.1295 0.049 Uiso 0.852(10) 1 calc PR B 1 
H58B H 0.2069 1.8038 -0.1317 0.049 Uiso 0.852(10) 1 calc PR B 1 
C59 C 0.2936(5) 1.6971(8) -0.1010(2) 0.042(2) Uani 0.852(10) 1 d PDU B 1 
H59A H 0.3508 1.7006 -0.1000 0.050 Uiso 0.852(10) 1 calc PR B 1 
H59B H 0.2749 1.7328 -0.0756 0.050 Uiso 0.852(10) 1 calc PR B 1 
C60 C 0.2676(5) 1.5415(8) -0.1069(2) 0.039(2) Uani 0.852(10) 1 d PDU B 1 
H60A H 0.2108 1.5362 -0.1044 0.047 Uiso 0.852(10) 1 calc PR B 1 
H60B H 0.2913 1.4798 -0.0862 0.047 Uiso 0.852(10) 1 calc PR B 1 
C55' C 0.2896(4) 1.4824(7) -0.14674(19) 0.0385(15) Uani 0.148(10) 1 d PD B 2 
H55' H 0.2540 1.5017 -0.1247 0.046 Uiso 0.148(10) 1 calc PR B 2 
C56' C 0.246(5) 1.575(3) -0.178(2) 0.053(15) Uiso 0.148(10) 1 d PDU B 2 
H56C H 0.2704 1.5605 -0.2033 0.064 Uiso 0.148(10) 1 calc PR B 2 
H56D H 0.1921 1.5374 -0.1804 0.064 Uiso 0.148(10) 1 calc PR B 2 
C57' C 0.242(3) 1.737(4) -0.1699(16) 0.056(12) Uiso 0.148(10) 1 d PDU B 2 
H57C H 0.2265 1.7881 -0.1944 0.067 Uiso 0.148(10) 1 calc PR B 2 
H57D H 0.2010 1.7558 -0.1506 0.067 Uiso 0.148(10) 1 calc PR B 2 
C58' C 0.317(3) 1.799(4) -0.1546(14) 0.060(11) Uiso 0.148(10) 1 d PDU B 2 
H58C H 0.3098 1.9021 -0.1472 0.072 Uiso 0.148(10) 1 calc PR B 2 
H58D H 0.3559 1.7955 -0.1755 0.072 Uiso 0.148(10) 1 calc PR B 2 
C59' C 0.347(3) 1.714(4) -0.1194(12) 0.059(11) Uiso 0.148(10) 1 d PDU B 2 
H59C H 0.3966 1.7567 -0.1100 0.071 Uiso 0.148(10) 1 calc PR B 2 
H59D H 0.3096 1.7223 -0.0980 0.071 Uiso 0.148(10) 1 calc PR B 2 
C60' C 0.359(2) 1.557(4) -0.1293(15) 0.067(12) Uiso 0.148(10) 1 d PDU B 2 
H60C H 0.4016 1.5497 -0.1478 0.081 Uiso 0.148(10) 1 calc PR B 2 
H60D H 0.3748 1.5048 -0.1052 0.081 Uiso 0.148(10) 1 calc PR B 2 
C61 C 0.1627(4) 1.2483(6) -0.17196(18) 0.0305(13) Uani 1 1 d . . . 
H61 H 0.1281 1.3195 -0.1589 0.037 Uiso 1 1 calc R B . 
C62 C 0.1347(4) 1.0946(7) -0.1611(2) 0.0393(15) Uani 1 1 d . B . 
H62A H 0.1700 1.0215 -0.1721 0.047 Uiso 1 1 calc R . . 
H62B H 0.1363 1.0839 -0.1323 0.047 Uiso 1 1 calc R . . 
C63 C 0.0535(4) 1.0664(8) -0.1762(2) 0.0387(15) Uani 1 1 d . . . 
H63A H 0.0395 0.9644 -0.1705 0.046 Uiso 1 1 calc R B . 
H63B H 0.0174 1.1302 -0.1622 0.046 Uiso 1 1 calc R . . 
C64 C 0.0440(4) 1.0924(8) -0.2192(2) 0.0425(16) Uani 1 1 d . B . 
H64A H -0.0110 1.0794 -0.2270 0.051 Uiso 1 1 calc R . . 
H64B H 0.0747 1.0200 -0.2336 0.051 Uiso 1 1 calc R . . 
C65 C 0.0698(4) 1.2444(7) -0.2303(2) 0.0373(15) Uani 1 1 d . . . 
H65A H 0.0353 1.3171 -0.2184 0.045 Uiso 1 1 calc R B . 
H65B H 0.0664 1.2560 -0.2590 0.045 Uiso 1 1 calc R . . 
C66 C 0.1527(4) 1.2704(7) -0.21609(18) 0.0343(14) Uani 1 1 d . B . 
H66A H 0.1680 1.3709 -0.2228 0.041 Uiso 1 1 calc R . . 
H66B H 0.1875 1.2030 -0.2298 0.041 Uiso 1 1 calc R . . 
 
loop_ 
 _atom_site_aniso_label 
 _atom_site_aniso_U_11 
 _atom_site_aniso_U_22 
 _atom_site_aniso_U_33 
 _atom_site_aniso_U_23 
 _atom_site_aniso_U_13 
 _atom_site_aniso_U_12 
Si1 0.0282(9) 0.0282(8) 0.0306(8) 0.0036(6) -0.0012(6) -0.0001(7) 
C1 0.034(4) 0.032(3) 0.032(3) 0.005(2) -0.001(3) -0.008(3) 
C2 0.034(4) 0.029(3) 0.032(3) 0.004(2) -0.003(3) -0.009(3) 
C3 0.035(4) 0.032(3) 0.033(3) 0.003(2) 0.002(3) -0.002(3) 
C4 0.032(3) 0.031(3) 0.040(3) 0.002(2) -0.005(2) -0.005(3) 
C5 0.031(5) 0.039(6) 0.037(6) -0.001(3) -0.002(4) -0.003(3) 
C6 0.028(4) 0.037(7) 0.044(5) -0.006(3) -0.006(3) 0.000(4) 
C7 0.029(4) 0.033(5) 0.050(8) -0.004(5) -0.013(4) 0.001(4) 
C8 0.043(6) 0.033(5) 0.034(6) -0.001(5) -0.014(4) 0.000(4) 
F1 0.042(3) 0.054(3) 0.033(2) 0.005(2) 0.007(2) 0.004(2) 
F2 0.034(3) 0.055(4) 0.046(4) -0.011(3) 0.004(3) 0.007(2) 
F3 0.039(3) 0.036(4) 0.066(5) -0.005(3) -0.008(3) 0.013(3) 
F4 0.045(3) 0.034(3) 0.051(3) 0.009(2) -0.006(2) 0.009(2) 
C9 0.036(4) 0.032(4) 0.041(3) 0.003(3) -0.009(3) -0.006(3) 
C4A 0.032(3) 0.031(3) 0.040(3) 0.002(2) -0.005(2) -0.005(3) 
C9A 0.036(4) 0.032(4) 0.041(3) 0.003(3) -0.009(3) -0.006(3) 
C10 0.044(4) 0.025(3) 0.036(3) 0.003(2) -0.009(3) -0.007(3) 
C11 0.038(4) 0.022(3) 0.032(3) 0.003(2) -0.006(3) -0.006(3) 
C12 0.038(4) 0.033(3) 0.026(3) 0.005(2) -0.007(3) -0.010(3) 
C13 0.036(4) 0.027(3) 0.031(3) -0.001(2) 0.001(3) -0.009(3) 
C14 0.040(4) 0.033(4) 0.033(3) -0.002(3) -0.001(3) -0.008(3) 
C15 0.041(4) 0.031(3) 0.033(3) -0.004(2) 0.003(3) -0.008(3) 
C16 0.040(5) 0.052(8) 0.026(5) -0.007(4) -0.001(4) -0.017(4) 
C17 0.034(5) 0.033(7) 0.051(7) -0.020(4) 0.003(3) -0.014(4) 
C18 0.038(5) 0.052(8) 0.040(6) -0.020(5) 0.002(4) -0.011(5) 
C19 0.029(4) 0.051(6) 0.069(6) -0.021(4) 0.004(4) -0.006(4) 
C20 0.034(4) 0.044(5) 0.066(6) -0.020(4) 0.002(4) -0.005(4) 
C21 0.035(6) 0.027(6) 0.079(11) -0.016(6) 0.009(5) 0.000(4) 
C22 0.029(4) 0.035(6) 0.054(7) -0.017(4) -0.005(4) -0.010(3) 
C23 0.041(6) 0.021(5) 0.055(11) -0.002(6) 0.007(5) -0.005(3) 
C24 0.033(3) 0.030(3) 0.042(4) -0.001(3) 0.001(3) -0.005(3) 
C15B 0.041(4) 0.031(3) 0.033(3) -0.004(2) 0.003(3) -0.008(3) 
C24B 0.033(3) 0.030(3) 0.042(4) -0.001(3) 0.001(3) -0.005(3) 
C25 0.039(4) 0.035(4) 0.041(4) -0.001(3) 0.002(3) -0.004(3) 
C26 0.038(4) 0.022(3) 0.035(3) 0.001(2) -0.001(3) -0.002(3) 
C27 0.033(3) 0.028(3) 0.028(3) 0.008(2) 0.003(2) -0.001(3) 
C28 0.026(3) 0.040(4) 0.039(4) -0.003(3) 0.001(3) 0.001(3) 
C29 0.036(4) 0.028(3) 0.036(3) -0.002(2) -0.009(3) 0.006(3) 
C30 0.046(4) 0.056(5) 0.037(4) 0.005(3) 0.000(3) 0.015(4) 
C31 0.042(4) 0.057(5) 0.044(4) -0.012(3) -0.011(3) 0.019(4) 
C32 0.046(4) 0.034(4) 0.060(5) 0.003(3) -0.019(3) 0.003(3) 
C33 0.042(4) 0.033(4) 0.069(5) 0.013(3) -0.019(4) -0.010(3) 
C34 0.033(4) 0.040(4) 0.044(4) 0.008(3) -0.008(3) -0.012(3) 
C35 0.036(4) 0.028(3) 0.038(3) 0.001(3) 0.004(3) -0.005(3) 
C36 0.027(3) 0.040(4) 0.039(4) 0.008(3) 0.002(3) 0.010(3) 
C37 0.039(4) 0.031(4) 0.068(5) 0.009(3) 0.014(3) -0.002(3) 
C38 0.032(4) 0.044(4) 0.054(4) -0.001(3) 0.001(3) -0.013(3) 
C39 0.050(5) 0.048(5) 0.048(4) 0.002(3) -0.008(3) -0.012(4) 
C40 0.049(4) 0.050(5) 0.045(4) 0.015(3) -0.017(3) -0.010(4) 
C41 0.025(3) 0.025(3) 0.039(3) 0.005(2) 0.002(2) -0.005(2) 
C42 0.030(4) 0.044(4) 0.044(4) -0.004(3) -0.004(3) 0.000(3) 
C43 0.029(3) 0.042(4) 0.047(4) -0.008(3) 0.002(3) 0.003(3) 
C44 0.033(4) 0.031(3) 0.046(4) -0.001(3) 0.001(3) 0.007(3) 
C45 0.029(3) 0.029(4) 0.052(4) -0.005(3) -0.003(3) -0.001(3) 
C46 0.026(3) 0.030(3) 0.045(4) -0.004(3) 0.002(3) -0.003(3) 
C47 0.048(4) 0.033(4) 0.025(3) 0.003(2) -0.002(3) -0.011(3) 
C48 0.035(4) 0.035(4) 0.038(4) -0.004(3) 0.000(3) -0.005(3) 
Si2 0.0293(9) 0.0219(8) 0.0314(8) 0.0018(6) -0.0010(6) -0.0055(7) 
C49 0.028(3) 0.033(4) 0.038(3) 0.002(3) -0.001(3) -0.002(3) 
C50 0.034(4) 0.030(3) 0.041(4) 0.006(3) -0.003(3) 0.001(3) 
C51 0.029(4) 0.044(4) 0.052(4) 0.002(3) -0.003(3) 0.010(3) 
C52 0.030(4) 0.051(5) 0.050(4) 0.002(3) 0.006(3) 0.005(3) 
C53 0.031(4) 0.039(4) 0.040(4) -0.004(3) 0.006(3) 0.000(3) 
C54 0.023(3) 0.025(3) 0.038(3) 0.002(2) 0.002(2) 0.006(2) 
C55 0.047(4) 0.030(3) 0.039(3) 0.006(2) -0.002(3) -0.001(3) 
C56 0.052(7) 0.013(3) 0.030(4) 0.001(2) 0.002(4) -0.006(3) 
C57 0.031(4) 0.018(3) 0.047(4) 0.000(3) 0.007(3) -0.003(3) 
C58 0.051(5) 0.028(4) 0.044(4) -0.005(3) -0.001(4) -0.002(4) 
C59 0.049(5) 0.027(4) 0.048(4) -0.003(3) -0.010(4) -0.001(4) 
C60 0.055(5) 0.031(4) 0.030(4) 0.004(3) -0.005(3) -0.008(4) 
C55' 0.047(4) 0.030(3) 0.039(3) 0.006(2) -0.002(3) -0.001(3) 
C61 0.033(3) 0.021(3) 0.038(3) 0.000(2) 0.002(3) 0.004(2) 
C62 0.036(4) 0.032(4) 0.050(4) 0.002(3) 0.005(3) -0.004(3) 
C63 0.030(4) 0.034(4) 0.052(4) 0.006(3) 0.003(3) -0.003(3) 
C64 0.038(4) 0.040(4) 0.050(4) -0.006(3) 0.001(3) -0.011(3) 
C65 0.030(3) 0.035(4) 0.047(4) 0.002(3) -0.005(3) -0.003(3) 
C66 0.032(3) 0.035(4) 0.036(3) 0.000(3) 0.000(3) -0.010(3) 
 
_geom_special_details 
; 
 All esds (except the esd in the dihedral angle between two l.s. planes) 
 are estimated using the full covariance matrix.  The cell esds are taken 
 into account individually in the estimation of esds in distances, angles 
 and torsion angles; correlations between esds in cell parameters are only 
 used when they are defined by crystal symmetry.  An approximate (isotropic) 
 treatment of cell esds is used for estimating esds involving l.s. planes. 
; 
 
loop_ 
 _geom_bond_atom_site_label_1 
 _geom_bond_atom_site_label_2 
 _geom_bond_distance 
 _geom_bond_site_symmetry_2 
 _geom_bond_publ_flag 
Si1 C28 1.838(7) . ? 
Si1 C41 1.874(6) . ? 
Si1 C35 1.893(7) . ? 
Si1 C29 1.895(6) . ? 
C1 C2 1.414(9) . ? 
C1 C26 1.421(9) . ? 
C1 C27 1.426(8) . ? 
C2 C3 1.404(9) . ? 
C2 C11 1.458(8) . ? 
C3 C4 1.390(9) . ? 
C3 H3 0.9500 . ? 
C4 C5 1.409(12) . ? 
C4 C9 1.449(8) . ? 
C5 C6 1.341(13) . ? 
C5 F1 1.362(12) . ? 
C6 F2 1.360(11) . ? 
C6 C7 1.417(15) . ? 
C7 C8 1.319(15) . ? 
C7 F3 1.347(10) . ? 
C8 F4 1.364(13) . ? 
C8 C9 1.447(12) . ? 
C9 C10 1.378(10) . ? 
C5A C6A 1.39(3) . ? 
C5A H5A 0.9500 . ? 
C6A C17A 1.45(2) . ? 
C6A C7A 1.47(3) . ? 
C17A C18A 1.36(3) . ? 
C17A H17A 0.9500 . ? 
C18A C19A 1.43(2) . ? 
C18A H18A 0.9500 . ? 
C19A C20A 1.32(3) . ? 
C19A H19A 0.9500 . ? 
C20A C7A 1.43(2) . ? 
C20A H20A 0.9500 . ? 
C7A C8A 1.37(2) . ? 
C8A H8A 0.9500 . ? 
C10 C11 1.409(9) . ? 
C10 H10 0.9500 . ? 
C11 C12 1.400(9) . ? 
C12 C13 1.427(9) . ? 
C12 C47 1.427(8) . ? 
C13 C14 1.404(9) . ? 
C13 C26 1.445(8) . ? 
C14 C15 1.410(9) . ? 
C14 H14 0.9500 . ? 
C15 C16 1.401(12) . ? 
C15 C24 1.444(8) . ? 
C16 C17 1.393(18) . ? 
C16 H16 0.9500 . ? 
C17 C18 1.437(15) . ? 
C17 C22 1.464(18) . ? 
C18 C19 1.363(18) . ? 
C18 H18 0.9500 . ? 
C19 C20 1.425(14) . ? 
C19 H19 0.9500 . ? 
C20 C21 1.33(2) . ? 
C20 H20 0.9500 . ? 
C21 C22 1.440(15) . ? 
C21 H21 0.9500 . ? 
C22 C23 1.371(14) . ? 
C23 C24 1.395(13) . ? 
C23 H23 0.9500 . ? 
C24 C25 1.394(9) . ? 
C16B C17B 1.35(2) . ? 
C16B F1B 1.36(2) . ? 
C17B F2B 1.37(2) . ? 
C17B C22B 1.42(2) . ? 
C22B C23B 1.32(2) . ? 
C22B F3B 1.35(2) . ? 
C23B F4B 1.38(2) . ? 
C25 C26 1.397(9) . ? 
C25 H25 0.9500 . ? 
C27 C28 1.213(9) . ? 
C29 C34 1.531(9) . ? 
C29 C30 1.531(10) . ? 
C29 H29 1.0000 . ? 
C30 C31 1.533(10) . ? 
C30 H30A 0.9900 . ? 
C30 H30B 0.9900 . ? 
C31 C32 1.535(10) . ? 
C31 H31A 0.9900 . ? 
C31 H31B 0.9900 . ? 
C32 C33 1.512(11) . ? 
C32 H32A 0.9900 . ? 
C32 H32B 0.9900 . ? 
C33 C34 1.529(10) . ? 
C33 H33A 0.9900 . ? 
C33 H33B 0.9900 . ? 
C34 H34A 0.9900 . ? 
C34 H34B 0.9900 . ? 
C35 C36 1.526(9) . ? 
C35 C40 1.540(10) . ? 
C35 H35 1.0000 . ? 
C36 C37 1.524(10) . ? 
C36 H36A 0.9900 . ? 
C36 H36B 0.9900 . ? 
C37 C38 1.491(10) . ? 
C37 H37A 0.9900 . ? 
C37 H37B 0.9900 . ? 
C38 C39 1.524(10) . ? 
C38 H38A 0.9900 . ? 
C38 H38B 0.9900 . ? 
C39 C40 1.529(10) . ? 
C39 H39A 0.9900 . ? 
C39 H39B 0.9900 . ? 
C40 H40A 0.9900 . ? 
C40 H40B 0.9900 . ? 
C41 C42 1.538(9) . ? 
C41 C46 1.559(8) . ? 
C41 H41 1.0000 . ? 
C42 C43 1.531(9) . ? 
C42 H42A 0.9900 . ? 
C42 H42B 0.9900 . ? 
C43 C44 1.510(9) . ? 
C43 H43A 0.9900 . ? 
C43 H43B 0.9900 . ? 
C44 C45 1.512(9) . ? 
C44 H44A 0.9900 . ? 
C44 H44B 0.9900 . ? 
C45 C46 1.539(9) . ? 
C45 H45A 0.9900 . ? 
C45 H45B 0.9900 . ? 
C46 H46A 0.9900 . ? 
C46 H46B 0.9900 . ? 
C47 C48 1.216(9) . ? 
C48 Si2 1.843(7) . ? 
Si2 C55 1.884(7) . ? 
Si2 C49 1.893(7) . ? 
Si2 C61 1.905(6) . ? 
C49 C50 1.521(9) . ? 
C49 C54 1.535(8) . ? 
C49 H49 1.0000 . ? 
C50 C51 1.525(9) . ? 
C50 H50A 0.9900 . ? 
C50 H50B 0.9900 . ? 
C51 C52 1.523(10) . ? 
C51 H51A 0.9900 . ? 
C51 H51B 0.9900 . ? 
C52 C53 1.507(10) . ? 
C52 H52A 0.9900 . ? 
C52 H52B 0.9900 . ? 
C53 C54 1.541(8) . ? 
C53 H53A 0.9900 . ? 
C53 H53B 0.9900 . ? 
C54 H54A 0.9900 . ? 
C54 H54B 0.9900 . ? 
C55 C60 1.524(10) . ? 
C55 C56 1.555(9) . ? 
C55 H55 1.0000 . ? 
C56 C57 1.523(9) . ? 
C56 H56A 0.9900 . ? 
C56 H56B 0.9900 . ? 
C57 C58 1.516(10) . ? 
C57 H57A 0.9900 . ? 
C57 H57B 0.9900 . ? 
C58 C59 1.514(11) . ? 
C58 H58A 0.9900 . ? 
C58 H58B 0.9900 . ? 
C59 C60 1.513(10) . ? 
C59 H59A 0.9900 . ? 
C59 H59B 0.9900 . ? 
C60 H60A 0.9900 . ? 
C60 H60B 0.9900 . ? 
C56' C57' 1.52(2) . ? 
C56' H56C 0.9900 . ? 
C56' H56D 0.9900 . ? 
C57' C58' 1.51(2) . ? 
C57' H57C 0.9900 . ? 
C57' H57D 0.9900 . ? 
C58' C59' 1.52(2) . ? 
C58' H58C 0.9900 . ? 
C58' H58D 0.9900 . ? 
C59' C60' 1.50(2) . ? 
C59' H59C 0.9900 . ? 
C59' H59D 0.9900 . ? 
C60' H60C 0.9900 . ? 
C60' H60D 0.9900 . ? 
C61 C66 1.530(8) . ? 
C61 C62 1.543(9) . ? 
C61 H61 1.0000 . ? 
C62 C63 1.510(9) . ? 
C62 H62A 0.9900 . ? 
C62 H62B 0.9900 . ? 
C63 C64 1.498(10) . ? 
C63 H63A 0.9900 . ? 
C63 H63B 0.9900 . ? 
C64 C65 1.519(10) . ? 
C64 H64A 0.9900 . ? 
C64 H64B 0.9900 . ? 
C65 C66 1.524(9) . ? 
C65 H65A 0.9900 . ? 
C65 H65B 0.9900 . ? 
C66 H66A 0.9900 . ? 
C66 H66B 0.9900 . ? 
 
loop_ 
 _geom_angle_atom_site_label_1 
 _geom_angle_atom_site_label_2 
 _geom_angle_atom_site_label_3 
 _geom_angle 
 _geom_angle_site_symmetry_1 
 _geom_angle_site_symmetry_3 
 _geom_angle_publ_flag 
C28 Si1 C41 105.6(3) . . ? 
C28 Si1 C35 107.3(3) . . ? 
C41 Si1 C35 114.2(3) . . ? 
C28 Si1 C29 108.1(3) . . ? 
C41 Si1 C29 112.4(3) . . ? 
C35 Si1 C29 108.9(3) . . ? 
C2 C1 C26 121.1(5) . . ? 
C2 C1 C27 119.6(6) . . ? 
C26 C1 C27 119.2(6) . . ? 
C3 C2 C1 121.6(6) . . ? 
C3 C2 C11 119.1(6) . . ? 
C1 C2 C11 119.3(6) . . ? 
C4 C3 C2 122.3(6) . . ? 
C4 C3 H3 118.8 . . ? 
C2 C3 H3 118.8 . . ? 
C3 C4 C5 122.2(7) . . ? 
C3 C4 C9 118.4(6) . . ? 
C5 C4 C9 119.4(7) . . ? 
C6 C5 F1 117.8(9) . . ? 
C6 C5 C4 122.0(9) . . ? 
F1 C5 C4 120.2(9) . . ? 
C5 C6 F2 122.8(9) . . ? 
C5 C6 C7 120.2(9) . . ? 
F2 C6 C7 116.8(9) . . ? 
C8 C7 F3 122.2(10) . . ? 
C8 C7 C6 119.6(9) . . ? 
F3 C7 C6 118.1(9) . . ? 
C7 C8 F4 120.2(9) . . ? 
C7 C8 C9 124.3(10) . . ? 
F4 C8 C9 115.5(10) . . ? 
C10 C9 C8 125.5(8) . . ? 
C10 C9 C4 120.0(6) . . ? 
C8 C9 C4 114.5(8) . . ? 
C6A C5A H5A 119.5 . . ? 
C5A C6A C17A 120(3) . . ? 
C5A C6A C7A 120(3) . . ? 
C17A C6A C7A 115(3) . . ? 
C18A C17A C6A 118(3) . . ? 
C18A C17A H17A 120.9 . . ? 
C6A C17A H17A 120.9 . . ? 
C17A C18A C19A 125(3) . . ? 
C17A C18A H18A 117.7 . . ? 
C19A C18A H18A 117.7 . . ? 
C20A C19A C18A 117(2) . . ? 
C20A C19A H19A 121.3 . . ? 
C18A C19A H19A 121.3 . . ? 
C19A C20A C7A 122(3) . . ? 
C19A C20A H20A 118.9 . . ? 
C7A C20A H20A 118.9 . . ? 
C8A C7A C20A 123(3) . . ? 
C8A C7A C6A 118(2) . . ? 
C20A C7A C6A 119(2) . . ? 
C7A C8A H8A 119.9 . . ? 
C9 C10 C11 122.4(6) . . ? 
C9 C10 H10 118.8 . . ? 
C11 C10 H10 118.8 . . ? 
C12 C11 C10 122.7(6) . . ? 
C12 C11 C2 119.4(6) . . ? 
C10 C11 C2 117.9(6) . . ? 
C11 C12 C13 121.3(5) . . ? 
C11 C12 C47 119.2(6) . . ? 
C13 C12 C47 119.5(6) . . ? 
C14 C13 C12 121.6(6) . . ? 
C14 C13 C26 119.0(6) . . ? 
C12 C13 C26 119.3(6) . . ? 
C13 C14 C15 121.3(6) . . ? 
C13 C14 H14 119.3 . . ? 
C15 C14 H14 119.3 . . ? 
C16 C15 C14 120.6(9) . . ? 
C16 C15 C24 120.0(9) . . ? 
C14 C15 C24 119.3(6) . . ? 
C17 C16 C15 121.0(12) . . ? 
C17 C16 H16 119.5 . . ? 
C15 C16 H16 119.5 . . ? 
C16 C17 C18 122.2(14) . . ? 
C16 C17 C22 118.8(10) . . ? 
C18 C17 C22 118.9(13) . . ? 
C19 C18 C17 119.0(16) . . ? 
C19 C18 H18 120.5 . . ? 
C17 C18 H18 120.5 . . ? 
C18 C19 C20 122.2(11) . . ? 
C18 C19 H19 118.9 . . ? 
C20 C19 H19 118.9 . . ? 
C21 C20 C19 120.5(11) . . ? 
C21 C20 H20 119.8 . . ? 
C19 C20 H20 119.8 . . ? 
C20 C21 C22 121.7(17) . . ? 
C20 C21 H21 119.1 . . ? 
C22 C21 H21 119.1 . . ? 
C23 C22 C21 123.3(13) . . ? 
C23 C22 C17 119.1(10) . . ? 
C21 C22 C17 117.6(12) . . ? 
C22 C23 C24 122.8(11) . . ? 
C22 C23 H23 118.6 . . ? 
C24 C23 H23 118.6 . . ? 
C25 C24 C23 123.0(7) . . ? 
C25 C24 C15 118.9(6) . . ? 
C23 C24 C15 118.1(7) . . ? 
C17B C16B F1B 115(3) . . ? 
C16B C17B F2B 124(2) . . ? 
C16B C17B C22B 120(3) . . ? 
F2B C17B C22B 114(2) . . ? 
C23B C22B F3B 123(3) . . ? 
C23B C22B C17B 118(2) . . ? 
F3B C22B C17B 119(3) . . ? 
C22B C23B F4B 114(2) . . ? 
C24 C25 C26 122.3(6) . . ? 
C24 C25 H25 118.9 . . ? 
C26 C25 H25 118.9 . . ? 
C25 C26 C1 121.6(6) . . ? 
C25 C26 C13 119.2(6) . . ? 
C1 C26 C13 119.3(6) . . ? 
C28 C27 C1 177.9(7) . . ? 
C27 C28 Si1 176.9(6) . . ? 
C34 C29 C30 109.4(5) . . ? 
C34 C29 Si1 113.8(5) . . ? 
C30 C29 Si1 114.7(5) . . ? 
C34 C29 H29 106.1 . . ? 
C30 C29 H29 106.1 . . ? 
Si1 C29 H29 106.1 . . ? 
C29 C30 C31 112.7(6) . . ? 
C29 C30 H30A 109.0 . . ? 
C31 C30 H30A 109.0 . . ? 
C29 C30 H30B 109.0 . . ? 
C31 C30 H30B 109.0 . . ? 
H30A C30 H30B 107.8 . . ? 
C30 C31 C32 110.8(6) . . ? 
C30 C31 H31A 109.5 . . ? 
C32 C31 H31A 109.5 . . ? 
C30 C31 H31B 109.5 . . ? 
C32 C31 H31B 109.5 . . ? 
H31A C31 H31B 108.1 . . ? 
C33 C32 C31 110.3(6) . . ? 
C33 C32 H32A 109.6 . . ? 
C31 C32 H32A 109.6 . . ? 
C33 C32 H32B 109.6 . . ? 
C31 C32 H32B 109.6 . . ? 
H32A C32 H32B 108.1 . . ? 
C32 C33 C34 111.0(6) . . ? 
C32 C33 H33A 109.4 . . ? 
C34 C33 H33A 109.4 . . ? 
C32 C33 H33B 109.4 . . ? 
C34 C33 H33B 109.4 . . ? 
H33A C33 H33B 108.0 . . ? 
C33 C34 C29 111.5(6) . . ? 
C33 C34 H34A 109.3 . . ? 
C29 C34 H34A 109.3 . . ? 
C33 C34 H34B 109.3 . . ? 
C29 C34 H34B 109.3 . . ? 
H34A C34 H34B 108.0 . . ? 
C36 C35 C40 108.8(5) . . ? 
C36 C35 Si1 114.8(5) . . ? 
C40 C35 Si1 115.8(5) . . ? 
C36 C35 H35 105.5 . . ? 
C40 C35 H35 105.5 . . ? 
Si1 C35 H35 105.5 . . ? 
C37 C36 C35 112.0(6) . . ? 
C37 C36 H36A 109.2 . . ? 
C35 C36 H36A 109.2 . . ? 
C37 C36 H36B 109.2 . . ? 
C35 C36 H36B 109.2 . . ? 
H36A C36 H36B 107.9 . . ? 
C38 C37 C36 112.2(6) . . ? 
C38 C37 H37A 109.2 . . ? 
C36 C37 H37A 109.2 . . ? 
C38 C37 H37B 109.2 . . ? 
C36 C37 H37B 109.2 . . ? 
H37A C37 H37B 107.9 . . ? 
C37 C38 C39 111.6(6) . . ? 
C37 C38 H38A 109.3 . . ? 
C39 C38 H38A 109.3 . . ? 
C37 C38 H38B 109.3 . . ? 
C39 C38 H38B 109.3 . . ? 
H38A C38 H38B 108.0 . . ? 
C38 C39 C40 111.0(6) . . ? 
C38 C39 H39A 109.4 . . ? 
C40 C39 H39A 109.4 . . ? 
C38 C39 H39B 109.4 . . ? 
C40 C39 H39B 109.4 . . ? 
H39A C39 H39B 108.0 . . ? 
C39 C40 C35 112.1(6) . . ? 
C39 C40 H40A 109.2 . . ? 
C35 C40 H40A 109.2 . . ? 
C39 C40 H40B 109.2 . . ? 
C35 C40 H40B 109.2 . . ? 
H40A C40 H40B 107.9 . . ? 
C42 C41 C46 109.6(5) . . ? 
C42 C41 Si1 112.7(4) . . ? 
C46 C41 Si1 111.9(4) . . ? 
C42 C41 H41 107.5 . . ? 
C46 C41 H41 107.5 . . ? 
Si1 C41 H41 107.5 . . ? 
C43 C42 C41 112.7(5) . . ? 
C43 C42 H42A 109.0 . . ? 
C41 C42 H42A 109.0 . . ? 
C43 C42 H42B 109.0 . . ? 
C41 C42 H42B 109.0 . . ? 
H42A C42 H42B 107.8 . . ? 
C44 C43 C42 112.5(6) . . ? 
C44 C43 H43A 109.1 . . ? 
C42 C43 H43A 109.1 . . ? 
C44 C43 H43B 109.1 . . ? 
C42 C43 H43B 109.1 . . ? 
H43A C43 H43B 107.8 . . ? 
C43 C44 C45 110.6(5) . . ? 
C43 C44 H44A 109.5 . . ? 
C45 C44 H44A 109.5 . . ? 
C43 C44 H44B 109.5 . . ? 
C45 C44 H44B 109.5 . . ? 
H44A C44 H44B 108.1 . . ? 
C44 C45 C46 111.3(5) . . ? 
C44 C45 H45A 109.4 . . ? 
C46 C45 H45A 109.4 . . ? 
C44 C45 H45B 109.4 . . ? 
C46 C45 H45B 109.4 . . ? 
H45A C45 H45B 108.0 . . ? 
C45 C46 C41 112.5(5) . . ? 
C45 C46 H46A 109.1 . . ? 
C41 C46 H46A 109.1 . . ? 
C45 C46 H46B 109.1 . . ? 
C41 C46 H46B 109.1 . . ? 
H46A C46 H46B 107.8 . . ? 
C48 C47 C12 174.5(7) . . ? 
C47 C48 Si2 175.5(6) . . ? 
C48 Si2 C55 106.3(3) . . ? 
C48 Si2 C49 107.0(3) . . ? 
C55 Si2 C49 111.7(3) . . ? 
C48 Si2 C61 105.8(3) . . ? 
C55 Si2 C61 114.3(3) . . ? 
C49 Si2 C61 111.1(3) . . ? 
C50 C49 C54 109.8(5) . . ? 
C50 C49 Si2 113.1(4) . . ? 
C54 C49 Si2 112.3(4) . . ? 
C50 C49 H49 107.1 . . ? 
C54 C49 H49 107.1 . . ? 
Si2 C49 H49 107.1 . . ? 
C49 C50 C51 112.2(5) . . ? 
C49 C50 H50A 109.2 . . ? 
C51 C50 H50A 109.2 . . ? 
C49 C50 H50B 109.2 . . ? 
C51 C50 H50B 109.2 . . ? 
H50A C50 H50B 107.9 . . ? 
C52 C51 C50 111.2(6) . . ? 
C52 C51 H51A 109.4 . . ? 
C50 C51 H51A 109.4 . . ? 
C52 C51 H51B 109.4 . . ? 
C50 C51 H51B 109.4 . . ? 
H51A C51 H51B 108.0 . . ? 
C53 C52 C51 111.5(6) . . ? 
C53 C52 H52A 109.3 . . ? 
C51 C52 H52A 109.3 . . ? 
C53 C52 H52B 109.3 . . ? 
C51 C52 H52B 109.3 . . ? 
H52A C52 H52B 108.0 . . ? 
C52 C53 C54 110.7(6) . . ? 
C52 C53 H53A 109.5 . . ? 
C54 C53 H53A 109.5 . . ? 
C52 C53 H53B 109.5 . . ? 
C54 C53 H53B 109.5 . . ? 
H53A C53 H53B 108.1 . . ? 
C49 C54 C53 110.7(5) . . ? 
C49 C54 H54A 109.5 . . ? 
C53 C54 H54A 109.5 . . ? 
C49 C54 H54B 109.5 . . ? 
C53 C54 H54B 109.5 . . ? 
H54A C54 H54B 108.1 . . ? 
C60 C55 C56 110.5(7) . . ? 
C60 C55 Si2 112.9(5) . . ? 
C56 C55 Si2 115.0(5) . . ? 
C60 C55 H55 105.9 . . ? 
C56 C55 H55 105.9 . . ? 
Si2 C55 H55 105.9 . . ? 
C57 C56 C55 111.4(6) . . ? 
C57 C56 H56A 109.3 . . ? 
C55 C56 H56A 109.3 . . ? 
C57 C56 H56B 109.3 . . ? 
C55 C56 H56B 109.3 . . ? 
H56A C56 H56B 108.0 . . ? 
C58 C57 C56 112.1(7) . . ? 
C58 C57 H57A 109.2 . . ? 
C56 C57 H57A 109.2 . . ? 
C58 C57 H57B 109.2 . . ? 
C56 C57 H57B 109.2 . . ? 
H57A C57 H57B 107.9 . . ? 
C59 C58 C57 112.2(7) . . ? 
C59 C58 H58A 109.2 . . ? 
C57 C58 H58A 109.2 . . ? 
C59 C58 H58B 109.2 . . ? 
C57 C58 H58B 109.2 . . ? 
H58A C58 H58B 107.9 . . ? 
C60 C59 C58 111.9(6) . . ? 
C60 C59 H59A 109.2 . . ? 
C58 C59 H59A 109.2 . . ? 
C60 C59 H59B 109.2 . . ? 
C58 C59 H59B 109.2 . . ? 
H59A C59 H59B 107.9 . . ? 
C59 C60 C55 112.2(6) . . ? 
C59 C60 H60A 109.2 . . ? 
C55 C60 H60A 109.2 . . ? 
C59 C60 H60B 109.2 . . ? 
C55 C60 H60B 109.2 . . ? 
H60A C60 H60B 107.9 . . ? 
C57' C56' H56C 108.2 . . ? 
C57' C56' H56D 108.3 . . ? 
H56C C56' H56D 107.4 . . ? 
C58' C57' C56' 113(3) . . ? 
C58' C57' H57C 109.0 . . ? 
C56' C57' H57C 109.0 . . ? 
C58' C57' H57D 109.0 . . ? 
C56' C57' H57D 109.0 . . ? 
H57C C57' H57D 107.8 . . ? 
C57' C58' C59' 111(2) . . ? 
C57' C58' H58C 109.4 . . ? 
C59' C58' H58C 109.4 . . ? 
C57' C58' H58D 109.4 . . ? 
C59' C58' H58D 109.4 . . ? 
H58C C58' H58D 108.0 . . ? 
C60' C59' C58' 111(3) . . ? 
C60' C59' H59C 109.4 . . ? 
C58' C59' H59C 109.4 . . ? 
C60' C59' H59D 109.4 . . ? 
C58' C59' H59D 109.4 . . ? 
H59C C59' H59D 108.0 . . ? 
C59' C60' H60C 108.5 . . ? 
C59' C60' H60D 108.5 . . ? 
H60C C60' H60D 107.5 . . ? 
C66 C61 C62 109.4(5) . . ? 
C66 C61 Si2 113.3(4) . . ? 
C62 C61 Si2 111.8(4) . . ? 
C66 C61 H61 107.3 . . ? 
C62 C61 H61 107.3 . . ? 
Si2 C61 H61 107.3 . . ? 
C63 C62 C61 111.7(6) . . ? 
C63 C62 H62A 109.3 . . ? 
C61 C62 H62A 109.3 . . ? 
C63 C62 H62B 109.3 . . ? 
C61 C62 H62B 109.3 . . ? 
H62A C62 H62B 107.9 . . ? 
C64 C63 C62 113.1(6) . . ? 
C64 C63 H63A 109.0 . . ? 
C62 C63 H63A 109.0 . . ? 
C64 C63 H63B 109.0 . . ? 
C62 C63 H63B 109.0 . . ? 
H63A C63 H63B 107.8 . . ? 
C63 C64 C65 111.4(6) . . ? 
C63 C64 H64A 109.3 . . ? 
C65 C64 H64A 109.3 . . ? 
C63 C64 H64B 109.3 . . ? 
C65 C64 H64B 109.3 . . ? 
H64A C64 H64B 108.0 . . ? 
C64 C65 C66 110.2(6) . . ? 
C64 C65 H65A 109.6 . . ? 
C66 C65 H65A 109.6 . . ? 
C64 C65 H65B 109.6 . . ? 
C66 C65 H65B 109.6 . . ? 
H65A C65 H65B 108.1 . . ? 
C65 C66 C61 112.3(5) . . ? 
C65 C66 H66A 109.2 . . ? 
C61 C66 H66A 109.2 . . ? 
C65 C66 H66B 109.2 . . ? 
C61 C66 H66B 109.2 . . ? 
H66A C66 H66B 107.9 . . ? 
 
loop_ 
 _geom_torsion_atom_site_label_1 
 _geom_torsion_atom_site_label_2 
 _geom_torsion_atom_site_label_3 
 _geom_torsion_atom_site_label_4 
 _geom_torsion 
 _geom_torsion_site_symmetry_1 
 _geom_torsion_site_symmetry_2 
 _geom_torsion_site_symmetry_3 
 _geom_torsion_site_symmetry_4 
 _geom_torsion_publ_flag 
C26 C1 C2 C3 -176.4(6) . . . . ? 
C27 C1 C2 C3 0.9(9) . . . . ? 
C26 C1 C2 C11 1.4(9) . . . . ? 
C27 C1 C2 C11 178.6(6) . . . . ? 
C1 C2 C3 C4 178.4(6) . . . . ? 
C11 C2 C3 C4 0.7(9) . . . . ? 
C2 C3 C4 C5 179.1(17) . . . . ? 
C2 C3 C4 C9 -1.5(9) . . . . ? 
C3 C4 C5 C6 -179.3(18) . . . . ? 
C9 C4 C5 C6 1(3) . . . . ? 
C3 C4 C5 F1 -1(3) . . . . ? 
C9 C4 C5 F1 -179.8(17) . . . . ? 
F1 C5 C6 F2 3(3) . . . . ? 
C4 C5 C6 F2 -178(2) . . . . ? 
F1 C5 C6 C7 178(2) . . . . ? 
C4 C5 C6 C7 -3(4) . . . . ? 
C5 C6 C7 C8 3(3) . . . . ? 
F2 C6 C7 C8 178.7(17) . . . . ? 
C5 C6 C7 F3 180(2) . . . . ? 
F2 C6 C7 F3 -5(2) . . . . ? 
F3 C7 C8 F4 2(3) . . . . ? 
C6 C7 C8 F4 178.3(16) . . . . ? 
F3 C7 C8 C9 -177.9(15) . . . . ? 
C6 C7 C8 C9 -1(3) . . . . ? 
C7 C8 C9 C10 179.0(15) . . . . ? 
F4 C8 C9 C10 -0.6(19) . . . . ? 
C7 C8 C9 C4 0(2) . . . . ? 
F4 C8 C9 C4 179.9(10) . . . . ? 
C3 C4 C9 C10 1.6(9) . . . . ? 
C5 C4 C9 C10 -179.1(17) . . . . ? 
C3 C4 C9 C8 -178.8(10) . . . . ? 
C5 C4 C9 C8 0.5(19) . . . . ? 
C5A C6A C17A C18A -179(10) . . . . ? 
C7A C6A C17A C18A -22(12) . . . . ? 
C6A C17A C18A C19A 15(11) . . . . ? 
C17A C18A C19A C20A -2(9) . . . . ? 
C18A C19A C20A C7A -1(12) . . . . ? 
C19A C20A C7A C8A 179(10) . . . . ? 
C19A C20A C7A C6A -8(15) . . . . ? 
C5A C6A C7A C8A -11(16) . . . . ? 
C17A C6A C7A C8A -167(10) . . . . ? 
C5A C6A C7A C20A 176(11) . . . . ? 
C17A C6A C7A C20A 20(14) . . . . ? 
C8 C9 C10 C11 179.6(11) . . . . ? 
C4 C9 C10 C11 -0.9(10) . . . . ? 
C9 C10 C11 C12 -178.6(6) . . . . ? 
C9 C10 C11 C2 0.0(9) . . . . ? 
C3 C2 C11 C12 178.7(6) . . . . ? 
C1 C2 C11 C12 0.9(9) . . . . ? 
C3 C2 C11 C10 0.1(9) . . . . ? 
C1 C2 C11 C10 -177.7(6) . . . . ? 
C10 C11 C12 C13 174.0(6) . . . . ? 
C2 C11 C12 C13 -4.6(9) . . . . ? 
C10 C11 C12 C47 -7.6(9) . . . . ? 
C2 C11 C12 C47 173.9(6) . . . . ? 
C11 C12 C13 C14 -174.5(6) . . . . ? 
C47 C12 C13 C14 7.1(9) . . . . ? 
C11 C12 C13 C26 5.8(9) . . . . ? 
C47 C12 C13 C26 -172.6(6) . . . . ? 
C12 C13 C14 C15 -179.0(6) . . . . ? 
C26 C13 C14 C15 0.7(9) . . . . ? 
C13 C14 C15 C16 -176.9(11) . . . . ? 
C13 C14 C15 C24 1.0(9) . . . . ? 
C14 C15 C16 C17 178.3(13) . . . . ? 
C24 C15 C16 C17 0(2) . . . . ? 
C15 C16 C17 C18 179.1(15) . . . . ? 
C15 C16 C17 C22 4(3) . . . . ? 
C16 C17 C18 C19 -176.1(15) . . . . ? 
C22 C17 C18 C19 -1(2) . . . . ? 
C17 C18 C19 C20 0.6(18) . . . . ? 
C18 C19 C20 C21 -1.1(19) . . . . ? 
C19 C20 C21 C22 2(3) . . . . ? 
C20 C21 C22 C23 -180(3) . . . . ? 
C20 C21 C22 C17 -2(3) . . . . ? 
C16 C17 C22 C23 -5(3) . . . . ? 
C18 C17 C22 C23 179(3) . . . . ? 
C16 C17 C22 C21 177(2) . . . . ? 
C18 C17 C22 C21 1(3) . . . . ? 
C21 C22 C23 C24 -180(3) . . . . ? 
C17 C22 C23 C24 2(5) . . . . ? 
C22 C23 C24 C25 -178(3) . . . . ? 
C22 C23 C24 C15 2(5) . . . . ? 
C16 C15 C24 C25 176.3(11) . . . . ? 
C14 C15 C24 C25 -1.6(9) . . . . ? 
C16 C15 C24 C23 -3(3) . . . . ? 
C14 C15 C24 C23 179(2) . . . . ? 
F1B C16B C17B F2B 17(13) . . . . ? 
F1B C16B C17B C22B 179(9) . . . . ? 
C16B C17B C22B C23B 16(18) . . . . ? 
F2B C17B C22B C23B 180(14) . . . . ? 
C16B C17B C22B F3B -172(10) . . . . ? 
F2B C17B C22B F3B -8(14) . . . . ? 
F3B C22B C23B F4B 9(25) . . . . ? 
C17B C22B C23B F4B 180(13) . . . . ? 
C23 C24 C25 C26 -180(2) . . . . ? 
C15 C24 C25 C26 0.6(10) . . . . ? 
C24 C25 C26 C1 -177.5(6) . . . . ? 
C24 C25 C26 C13 1.0(10) . . . . ? 
C2 C1 C26 C25 178.4(6) . . . . ? 
C27 C1 C26 C25 1.1(9) . . . . ? 
C2 C1 C26 C13 -0.1(9) . . . . ? 
C27 C1 C26 C13 -177.4(6) . . . . ? 
C14 C13 C26 C25 -1.7(9) . . . . ? 
C12 C13 C26 C25 178.0(6) . . . . ? 
C14 C13 C26 C1 176.8(6) . . . . ? 
C12 C13 C26 C1 -3.4(9) . . . . ? 
C2 C1 C27 C28 -97(20) . . . . ? 
C26 C1 C27 C28 81(20) . . . . ? 
C1 C27 C28 Si1 26(28) . . . . ? 
C41 Si1 C28 C27 7(11) . . . . ? 
C35 Si1 C28 C27 129(11) . . . . ? 
C29 Si1 C28 C27 -114(11) . . . . ? 
C28 Si1 C29 C34 158.6(5) . . . . ? 
C41 Si1 C29 C34 42.5(6) . . . . ? 
C35 Si1 C29 C34 -85.1(5) . . . . ? 
C28 Si1 C29 C30 31.6(6) . . . . ? 
C41 Si1 C29 C30 -84.5(5) . . . . ? 
C35 Si1 C29 C30 147.9(5) . . . . ? 
C34 C29 C30 C31 54.4(8) . . . . ? 
Si1 C29 C30 C31 -176.3(5) . . . . ? 
C29 C30 C31 C32 -55.0(9) . . . . ? 
C30 C31 C32 C33 55.7(9) . . . . ? 
C31 C32 C33 C34 -57.6(8) . . . . ? 
C32 C33 C34 C29 58.5(8) . . . . ? 
C30 C29 C34 C33 -55.6(7) . . . . ? 
Si1 C29 C34 C33 174.7(4) . . . . ? 
C28 Si1 C35 C36 -171.3(5) . . . . ? 
C41 Si1 C35 C36 -54.7(6) . . . . ? 
C29 Si1 C35 C36 71.9(5) . . . . ? 
C28 Si1 C35 C40 -43.2(6) . . . . ? 
C41 Si1 C35 C40 73.5(6) . . . . ? 
C29 Si1 C35 C40 -159.9(5) . . . . ? 
C40 C35 C36 C37 55.4(7) . . . . ? 
Si1 C35 C36 C37 -173.1(5) . . . . ? 
C35 C36 C37 C38 -56.2(8) . . . . ? 
C36 C37 C38 C39 54.6(8) . . . . ? 
C37 C38 C39 C40 -54.3(9) . . . . ? 
C38 C39 C40 C35 55.6(9) . . . . ? 
C36 C35 C40 C39 -55.7(8) . . . . ? 
Si1 C35 C40 C39 173.2(5) . . . . ? 
C28 Si1 C41 C42 61.3(5) . . . . ? 
C35 Si1 C41 C42 -56.3(5) . . . . ? 
C29 Si1 C41 C42 178.9(4) . . . . ? 
C28 Si1 C41 C46 -62.7(5) . . . . ? 
C35 Si1 C41 C46 179.7(4) . . . . ? 
C29 Si1 C41 C46 54.9(5) . . . . ? 
C46 C41 C42 C43 -51.4(7) . . . . ? 
Si1 C41 C42 C43 -176.7(5) . . . . ? 
C41 C42 C43 C44 54.8(8) . . . . ? 
C42 C43 C44 C45 -56.4(8) . . . . ? 
C43 C44 C45 C46 56.7(7) . . . . ? 
C44 C45 C46 C41 -55.9(7) . . . . ? 
C42 C41 C46 C45 52.3(7) . . . . ? 
Si1 C41 C46 C45 178.0(4) . . . . ? 
C11 C12 C47 C48 -90(8) . . . . ? 
C13 C12 C47 C48 88(8) . . . . ? 
C12 C47 C48 Si2 33(15) . . . . ? 
C47 C48 Si2 C55 138(8) . . . . ? 
C47 C48 Si2 C49 -102(8) . . . . ? 
C47 C48 Si2 C61 16(8) . . . . ? 
C48 Si2 C49 C50 -37.8(5) . . . . ? 
C55 Si2 C49 C50 78.2(5) . . . . ? 
C61 Si2 C49 C50 -152.9(4) . . . . ? 
C48 Si2 C49 C54 -162.9(4) . . . . ? 
C55 Si2 C49 C54 -46.8(5) . . . . ? 
C61 Si2 C49 C54 82.1(5) . . . . ? 
C54 C49 C50 C51 -55.6(7) . . . . ? 
Si2 C49 C50 C51 178.0(5) . . . . ? 
C49 C50 C51 C52 54.8(8) . . . . ? 
C50 C51 C52 C53 -54.9(8) . . . . ? 
C51 C52 C53 C54 56.3(8) . . . . ? 
C50 C49 C54 C53 56.5(7) . . . . ? 
Si2 C49 C54 C53 -176.7(4) . . . . ? 
C52 C53 C54 C49 -57.5(7) . . . . ? 
C48 Si2 C55 C60 -29.3(6) . . . . ? 
C49 Si2 C55 C60 -145.8(5) . . . . ? 
C61 Si2 C55 C60 87.0(6) . . . . ? 
C48 Si2 C55 C56 -157.3(7) . . . . ? 
C49 Si2 C55 C56 86.2(8) . . . . ? 
C61 Si2 C55 C56 -41.0(8) . . . . ? 
C60 C55 C56 C57 53.8(12) . . . . ? 
Si2 C55 C56 C57 -177.0(7) . . . . ? 
C55 C56 C57 C58 -53.6(12) . . . . ? 
C56 C57 C58 C59 53.6(10) . . . . ? 
C57 C58 C59 C60 -53.9(10) . . . . ? 
C58 C59 C60 C55 55.0(10) . . . . ? 
C56 C55 C60 C59 -54.5(9) . . . . ? 
Si2 C55 C60 C59 175.1(5) . . . . ? 
C56' C57' C58' C59' -53(6) . . . . ? 
C57' C58' C59' C60' 59(5) . . . . ? 
C48 Si2 C61 C66 -164.2(4) . . . . ? 
C55 Si2 C61 C66 79.1(5) . . . . ? 
C49 Si2 C61 C66 -48.4(5) . . . . ? 
C48 Si2 C61 C62 -40.1(5) . . . . ? 
C55 Si2 C61 C62 -156.7(4) . . . . ? 
C49 Si2 C61 C62 75.8(5) . . . . ? 
C66 C61 C62 C63 -53.4(7) . . . . ? 
Si2 C61 C62 C63 -179.7(5) . . . . ? 
C61 C62 C63 C64 54.1(8) . . . . ? 
C62 C63 C64 C65 -54.8(8) . . . . ? 
C63 C64 C65 C66 55.2(8) . . . . ? 
C64 C65 C66 C61 -57.0(8) . . . . ? 
C62 C61 C66 C65 55.8(7) . . . . ? 
Si2 C61 C66 C65 -178.7(5) . . . . ? 
 
_diffrn_measured_fraction_theta_max    0.979 
_diffrn_reflns_theta_full              69.16 
_diffrn_measured_fraction_theta_full   0.979 
_refine_diff_density_max    0.592 
_refine_diff_density_min   -0.463 
_refine_diff_density_rms    0.147 
