data_x10018 

# start Validation Reply Form
_vrf_PLAT220_x10018
;
PROBLEM: Large Non-Solvent    C     Ueq(max)/Ueq(min) ...       5.26 Ratio
RESPONSE: The side chains are extensively disordered, and it is very likely 
that the model as refined here is merely an approximation.  Nevertheless, 
there is no chance of constructing a better disorder model given the data
at hand.
;
_vrf_PLAT222_x10018
;
PROBLEM: Large Non-Solvent    H     Ueq(max)/Ueq(min) ...       6.21 Ratio
RESPONSE: See above - it's the same reason.
;
# end Validation Reply Form

 
_audit_creation_method            SHELXL-97 
_chemical_name_systematic 
; 
 ? 
; 
_chemical_name_common             ? 
_chemical_melting_point           ? 
_chemical_formula_moiety 
 'C54 H64 F2 S2 Si2' 
_chemical_formula_sum 
 'C54 H64 F2 S2 Si2' 
_chemical_formula_weight          871.35 
 
loop_ 
 _atom_type_symbol 
 _atom_type_description 
 _atom_type_scat_dispersion_real 
 _atom_type_scat_dispersion_imag 
 _atom_type_scat_source 
 'C'  'C'   0.0181   0.0091 
 'International Tables Vol C Tables 4.2.6.8 and 6.1.1.4' 
 'H'  'H'   0.0000   0.0000 
 'International Tables Vol C Tables 4.2.6.8 and 6.1.1.4' 
 'F'  'F'   0.0727   0.0534 
 'International Tables Vol C Tables 4.2.6.8 and 6.1.1.4' 
 'Si'  'Si'   0.2541   0.3302 
 'International Tables Vol C Tables 4.2.6.8 and 6.1.1.4' 
 'S'  'S'   0.3331   0.5567 
 'International Tables Vol C Tables 4.2.6.8 and 6.1.1.4' 
 
_symmetry_cell_setting            triclinic
_symmetry_space_group_name_H-M    'P -1'
_symmetry_space_group_name_Hall   '-P 1'
 
loop_ 
 _symmetry_equiv_pos_as_xyz 
 'x, y, z' 
 '-x, -y, -z' 
 
_cell_length_a                    7.9248(2) 
_cell_length_b                    8.8481(2) 
_cell_length_c                    17.7695(4) 
_cell_angle_alpha                 101.225(1) 
_cell_angle_beta                  99.042(2) 
_cell_angle_gamma                 97.371(1) 
_cell_volume                      1190.62(5) 
_cell_formula_units_Z             1 
_cell_measurement_temperature     90.0(2) 
_cell_measurement_reflns_used     6298
_cell_measurement_theta_min       2.58
_cell_measurement_theta_max       68.00
 
_exptl_crystal_description        lath
_exptl_crystal_colour             green
_exptl_crystal_size_max           0.40 
_exptl_crystal_size_mid           0.12 
_exptl_crystal_size_min           0.01 
_exptl_crystal_density_meas       ? 
_exptl_crystal_density_diffrn     1.215 
_exptl_crystal_density_method     'not measured' 
_exptl_crystal_F_000              466 
_exptl_absorpt_coefficient_mu     1.829 
_exptl_absorpt_correction_type    multi-scan 
_exptl_absorpt_correction_T_min   0.599 
_exptl_absorpt_correction_T_max   0.982
_exptl_absorpt_process_details    'Sadabs in APEX2 (BrukerAXS, 2006)' 
 
_exptl_special_details 
; 
 ? 
; 
 
_diffrn_ambient_temperature       90.0(2) 
_diffrn_radiation_wavelength      1.54178 
_diffrn_radiation_type            CuK\a 
_diffrn_radiation_source          'fine-focus rotating anode' 
_diffrn_radiation_monochromator   'graded multilayer optics' 
_diffrn_measurement_device_type   'Bruker X8 Proteum diffractometer'
_diffrn_measurement_method        '\f and \w scans'            
_diffrn_detector_area_resol_mean  5.6
_diffrn_standards_number          0 
_diffrn_standards_interval_count  . 
_diffrn_standards_interval_time   . 
_diffrn_standards_decay_%         ? 
_diffrn_reflns_number             16949 
_diffrn_reflns_av_R_equivalents   0.0434 
_diffrn_reflns_av_sigmaI/netI     0.0369 
_diffrn_reflns_limit_h_min        -9 
_diffrn_reflns_limit_h_max        9 
_diffrn_reflns_limit_k_min        -10 
_diffrn_reflns_limit_k_max        8 
_diffrn_reflns_limit_l_min        -21 
_diffrn_reflns_limit_l_max        21 
_diffrn_reflns_theta_min          2.58 
_diffrn_reflns_theta_max          68.46 
_reflns_number_total              4307 
_reflns_number_gt                 3497 
_reflns_threshold_expression      >2\s(I)    
 
_computing_data_collection        'APEX2 (Bruker-AXS, 2006)'            
_computing_cell_refinement        'APEX2'
_computing_data_reduction         'APEX2'
_computing_structure_solution     'SHELXS-97 (Sheldrick, 2008)' 
_computing_structure_refinement   'SHELXL-97 (Sheldrick, 2008)' 
_computing_molecular_graphics     'XP in SHELXTL (Sheldrick, 2008)'
_computing_publication_material
; 
SHELX-97 (Sheldrick, 2008) and local procedures 
; 
 
_publ_section_exptl_refinement
;
H atoms were found in difference Fourier maps and subsequently placed in
idealized positions with constrained distances of 
0.98 \%A (RCH~3~),
0.99 \%A (R~2~CH~2~),
1.00 \%A (R~3~CH),
0.95 \%A (C~Ar~H),
and with U~iso~(H) values set to either 1.2U~eq~ or 1.5U~eq~ (RCH~3~) 
of the attached atom. 

Restraints were applied to geometry (SAME in SHELXL97) and displacement
parameters (DELU in SHELX97) to ensure stable refinement of the disordered
parts of the model.

;

_refine_special_details 
; 
 Refinement of F^2^ against ALL reflections.  The weighted R-factor wR and 
 goodness of fit S are based on F^2^, conventional R-factors R are based 
 on F, with F set to zero for negative F^2^. The threshold expression of 
 F^2^ > 2\s(F^2^) is used only for calculating R-factors(gt) etc. and is 
 not relevant to the choice of reflections for refinement.  R-factors based 
 on F^2^ are statistically about twice as large as those based on F, and R- 
 factors based on ALL data will be even larger. 
; 
 
_refine_ls_structure_factor_coef  Fsqd  
_refine_ls_matrix_type            full 
_refine_ls_weighting_scheme       calc  
_refine_ls_weighting_details 
 'calc w=1/[\s^2^(Fo^2^)+(0.1227P)^2^+1.0082P] where P=(Fo^2^+2Fc^2^)/3' 
_atom_sites_solution_primary      direct 
_atom_sites_solution_secondary    difmap 
_atom_sites_solution_hydrogens    geom 
_refine_ls_hydrogen_treatment     constr 
_refine_ls_extinction_method      none 
_refine_ls_extinction_coef        ? 
_refine_ls_number_reflns          4307 
_refine_ls_number_parameters      324 
_refine_ls_number_restraints      177 
_refine_ls_R_factor_all           0.0784 
_refine_ls_R_factor_gt            0.0655 
_refine_ls_wR_factor_ref          0.2056 
_refine_ls_wR_factor_gt           0.1906 
_refine_ls_goodness_of_fit_ref    1.023 
_refine_ls_restrained_S_all       1.030 
_refine_ls_shift/su_max           0.001 
_refine_ls_shift/su_mean          0.000 
 
loop_ 
 _atom_site_label 
 _atom_site_type_symbol 
 _atom_site_fract_x 
 _atom_site_fract_y 
 _atom_site_fract_z 
 _atom_site_U_iso_or_equiv 
 _atom_site_adp_type 
 _atom_site_occupancy 
 _atom_site_symmetry_multiplicity 
 _atom_site_calc_flag 
 _atom_site_refinement_flags 
 _atom_site_disorder_assembly 
 _atom_site_disorder_group 
Si1 Si 0.49314(12) 0.26408(10) 0.16665(5) 0.0488(3) Uani 1 1 d . . . 
C1 C 0.4827(3) 0.4462(3) 0.41806(14) 0.0279(5) Uani 1 1 d . . . 
C2 C 0.4265(3) 0.5879(3) 0.44724(14) 0.0271(5) Uani 1 1 d . . . 
C3 C 0.3520(3) 0.6770(3) 0.39773(15) 0.0298(5) Uani 1 1 d . . . 
H3 H 0.3387 0.6408 0.3428 0.036 Uiso 1 1 calc R . . 
C4 C 0.2969(3) 0.8165(3) 0.42615(16) 0.0298(5) Uani 1 1 d . B . 
C5 C 0.2185(3) 0.9047(3) 0.37543(17) 0.0334(6) Uani 1 1 d . . . 
H5 H 0.2012 0.8682 0.3204 0.040 Uiso 1 1 calc R A 1 
C6 C 0.1687(3) 1.0417(3) 0.40611(17) 0.0338(6) Uani 0.540(4) 1 d PDU B 1 
S7 S 0.0687(4) 1.1608(3) 0.34990(13) 0.0428(6) Uani 0.540(4) 1 d PDU B 1 
C8 C 0.075(4) 1.2932(18) 0.4372(10) 0.036(2) Uani 0.540(4) 1 d PDU B 1 
F1' F -0.0015(17) 1.4181(13) 0.4307(5) 0.050(2) Uani 0.540(4) 1 d PU B 1 
C9 C 0.1323(15) 1.2486(11) 0.5038(7) 0.0339(6) Uani 0.540(4) 1 d PDU B 1 
H9 H 0.1322 1.3079 0.5545 0.041 Uiso 0.540(4) 1 calc PR B 1 
C10 C 0.1943(3) 1.1001(3) 0.48939(17) 0.0326(6) Uani 0.540(4) 1 d PDU B 1 
C6' C 0.1687(3) 1.0417(3) 0.40611(17) 0.0338(6) Uani 0.460(4) 1 d PDU B 2 
C7' C 0.089(2) 1.1514(17) 0.3683(8) 0.0428(6) Uani 0.460(4) 1 d PDU B 2 
H7' H 0.0653 1.1418 0.3134 0.051 Uiso 0.460(4) 1 calc PR B 2 
F1 F -0.012(2) 1.3948(15) 0.4027(6) 0.046(2) Uani 0.460(4) 1 d PU B 2 
C8' C 0.051(4) 1.270(2) 0.4205(12) 0.036(2) Uani 0.460(4) 1 d PDU B 2 
S9' S 0.1227(4) 1.2779(3) 0.51957(15) 0.0339(6) Uani 0.460(4) 1 d PDU B 2 
C10' C 0.1943(3) 1.1001(3) 0.48939(17) 0.0326(6) Uani 0.460(4) 1 d PDU B 2 
C11 C 0.2670(3) 1.0181(3) 0.53965(16) 0.0314(6) Uani 1 1 d . . . 
H11 H 0.2830 1.0571 0.5944 0.038 Uiso 1 1 calc R B 1 
C12 C 0.3192(3) 0.8732(3) 0.50958(15) 0.0284(5) Uani 1 1 d . B . 
C13 C 0.3915(3) 0.7851(3) 0.55903(14) 0.0281(5) Uani 1 1 d . . . 
H13 H 0.4053 0.8224 0.6139 0.034 Uiso 1 1 calc R B . 
C14 C 0.4449(3) 0.6428(3) 0.53076(14) 0.0268(5) Uani 1 1 d . . . 
C15 C 0.4715(3) 0.3929(3) 0.33586(16) 0.0329(6) Uani 1 1 d . . . 
C16 C 0.4689(4) 0.3458(3) 0.26715(17) 0.0424(7) Uani 1 1 d . C . 
C17 C 0.4975(10) 0.0530(10) 0.1591(5) 0.0631(17) Uani 0.628(4) 1 d PDU C 1 
H17 H 0.5038 0.0051 0.1040 0.076 Uiso 0.628(4) 1 calc PR C 1 
C18 C 0.6573(11) 0.0246(8) 0.2132(4) 0.0813(17) Uani 0.628(4) 1 d PDU C 1 
H18A H 0.7613 0.0651 0.1942 0.098 Uiso 0.628(4) 1 calc PR C 1 
H18B H 0.6623 0.0896 0.2658 0.098 Uiso 0.628(4) 1 calc PR C 1 
C19 C 0.6726(18) -0.1379(12) 0.2225(7) 0.128(4) Uani 0.628(4) 1 d PDU C 1 
H19A H 0.7805 -0.1362 0.2584 0.192 Uiso 0.628(4) 1 calc PR C 1 
H19B H 0.6735 -0.2043 0.1715 0.192 Uiso 0.628(4) 1 calc PR C 1 
H19C H 0.5739 -0.1796 0.2436 0.192 Uiso 0.628(4) 1 calc PR C 1 
C20 C 0.3254(12) -0.0230(10) 0.1773(6) 0.094(2) Uani 0.628(4) 1 d PDU C 1 
H20A H 0.2276 -0.0036 0.1414 0.141 Uiso 0.628(4) 1 calc PR C 1 
H20B H 0.3168 0.0223 0.2312 0.141 Uiso 0.628(4) 1 calc PR C 1 
H20C H 0.3232 -0.1359 0.1708 0.141 Uiso 0.628(4) 1 calc PR C 1 
C17' C 0.4184(17) 0.0350(18) 0.1542(9) 0.0631(17) Uani 0.372(4) 1 d PDU C 2 
H17' H 0.4443 -0.0186 0.1034 0.076 Uiso 0.372(4) 1 calc PR C 2 
C18' C 0.5274(19) -0.0231(14) 0.2200(7) 0.0813(17) Uani 0.372(4) 1 d PDU C 2 
H18C H 0.6496 0.0252 0.2251 0.098 Uiso 0.372(4) 1 calc PR C 2 
H18D H 0.4902 0.0189 0.2695 0.098 Uiso 0.372(4) 1 calc PR C 2 
C19' C 0.524(3) -0.1929(17) 0.2138(12) 0.128(4) Uani 0.372(4) 1 d PDU C 2 
H19D H 0.6005 -0.2101 0.2591 0.192 Uiso 0.372(4) 1 calc PR C 2 
H19E H 0.5628 -0.2377 0.1659 0.192 Uiso 0.372(4) 1 calc PR C 2 
H19F H 0.4052 -0.2433 0.2121 0.192 Uiso 0.372(4) 1 calc PR C 2 
C20' C 0.2187(18) -0.0071(18) 0.1507(11) 0.094(2) Uani 0.372(4) 1 d PDU C 2 
H20D H 0.1557 0.0306 0.1079 0.141 Uiso 0.372(4) 1 calc PR C 2 
H20E H 0.1894 0.0424 0.2002 0.141 Uiso 0.372(4) 1 calc PR C 2 
H20F H 0.1860 -0.1207 0.1417 0.141 Uiso 0.372(4) 1 calc PR C 2 
C21 C 0.7003(11) 0.3725(12) 0.1464(5) 0.075(2) Uani 0.628(4) 1 d PDU C 1 
H21 H 0.6754 0.4757 0.1366 0.090 Uiso 0.628(4) 1 calc PR C 1 
C22 C 0.8509(12) 0.4055(13) 0.2193(5) 0.110(3) Uani 0.628(4) 1 d PDU C 1 
H22A H 0.8221 0.3400 0.2562 0.132 Uiso 0.628(4) 1 calc PR C 1 
H22B H 0.9597 0.3810 0.2028 0.132 Uiso 0.628(4) 1 calc PR C 1 
C23 C 0.8713(15) 0.5708(14) 0.2565(7) 0.141(4) Uani 0.628(4) 1 d PDU C 1 
H23A H 0.9638 0.5952 0.3028 0.211 Uiso 0.628(4) 1 calc PR C 1 
H23B H 0.7625 0.5938 0.2722 0.211 Uiso 0.628(4) 1 calc PR C 1 
H23C H 0.9012 0.6344 0.2197 0.211 Uiso 0.628(4) 1 calc PR C 1 
C24 C 0.7608(14) 0.2878(14) 0.0749(5) 0.099(3) Uani 0.628(4) 1 d PDU C 1 
H24A H 0.6676 0.2687 0.0291 0.148 Uiso 0.628(4) 1 calc PR C 1 
H24B H 0.7912 0.1879 0.0837 0.148 Uiso 0.628(4) 1 calc PR C 1 
H24C H 0.8626 0.3522 0.0658 0.148 Uiso 0.628(4) 1 calc PR C 1 
C21' C 0.727(2) 0.3161(16) 0.1618(9) 0.075(2) Uani 0.372(4) 1 d PDU C 2 
H21' H 0.7844 0.2787 0.2074 0.090 Uiso 0.372(4) 1 calc PR C 2 
C22' C 0.7915(18) 0.4923(18) 0.1878(9) 0.110(3) Uani 0.372(4) 1 d PDU C 2 
H22C H 0.7592 0.5417 0.1434 0.132 Uiso 0.372(4) 1 calc PR C 2 
H22D H 0.7320 0.5359 0.2301 0.132 Uiso 0.372(4) 1 calc PR C 2 
C23' C 0.983(2) 0.534(3) 0.2164(12) 0.141(4) Uani 0.372(4) 1 d PDU C 2 
H23D H 1.0154 0.6480 0.2310 0.211 Uiso 0.372(4) 1 calc PR C 2 
H23E H 1.0429 0.4918 0.1749 0.211 Uiso 0.372(4) 1 calc PR C 2 
H23F H 1.0153 0.4899 0.2620 0.211 Uiso 0.372(4) 1 calc PR C 2 
C24' C 0.776(3) 0.209(2) 0.0954(9) 0.099(3) Uani 0.372(4) 1 d PDU C 2 
H24D H 0.7196 0.1015 0.0918 0.148 Uiso 0.372(4) 1 calc PR C 2 
H24E H 0.9018 0.2134 0.1044 0.148 Uiso 0.372(4) 1 calc PR C 2 
H24F H 0.7378 0.2407 0.0465 0.148 Uiso 0.372(4) 1 calc PR C 2 
C25 C 0.3128(6) 0.3124(6) 0.0972(2) 0.0800(11) Uani 0.628(4) 1 d PDU C 1 
H25 H 0.2000 0.2669 0.1087 0.096 Uiso 0.628(4) 1 calc PR C 1 
C26 C 0.3136(15) 0.2503(12) 0.0096(4) 0.091(2) Uani 0.628(4) 1 d PDU C 1 
H26A H 0.4142 0.3083 -0.0051 0.109 Uiso 0.628(4) 1 calc PR C 1 
H26B H 0.3260 0.1386 0.0006 0.109 Uiso 0.628(4) 1 calc PR C 1 
C27 C 0.1463(17) 0.2685(17) -0.0422(6) 0.129(3) Uani 0.628(4) 1 d PDU C 1 
H27A H 0.1484 0.2239 -0.0969 0.194 Uiso 0.628(4) 1 calc PR C 1 
H27B H 0.1375 0.3795 -0.0358 0.194 Uiso 0.628(4) 1 calc PR C 1 
H27C H 0.0463 0.2136 -0.0267 0.194 Uiso 0.628(4) 1 calc PR C 1 
C28 C 0.3257(19) 0.4894(11) 0.1141(6) 0.109(2) Uani 0.628(4) 1 d PDU C 1 
H28A H 0.3228 0.5284 0.1694 0.164 Uiso 0.628(4) 1 calc PR C 1 
H28B H 0.2280 0.5176 0.0816 0.164 Uiso 0.628(4) 1 calc PR C 1 
H28C H 0.4347 0.5362 0.1023 0.164 Uiso 0.628(4) 1 calc PR C 1 
C25' C 0.3128(6) 0.3124(6) 0.0972(2) 0.0800(11) Uani 0.372(4) 1 d PDU C 2 
H25' H 0.2088 0.2710 0.1170 0.096 Uiso 0.372(4) 1 calc PR C 2 
C26' C 0.291(3) 0.196(2) 0.0167(8) 0.091(2) Uani 0.372(4) 1 d PDU C 2 
H26C H 0.3832 0.2325 -0.0103 0.109 Uiso 0.372(4) 1 calc PR C 2 
H26D H 0.3107 0.0931 0.0268 0.109 Uiso 0.372(4) 1 calc PR C 2 
C27' C 0.118(3) 0.172(3) -0.0394(11) 0.129(3) Uani 0.372(4) 1 d PDU C 2 
H27D H 0.1227 0.1014 -0.0885 0.194 Uiso 0.372(4) 1 calc PR C 2 
H27E H 0.0942 0.2730 -0.0498 0.194 Uiso 0.372(4) 1 calc PR C 2 
H27F H 0.0251 0.1269 -0.0159 0.194 Uiso 0.372(4) 1 calc PR C 2 
C28' C 0.278(3) 0.4685(18) 0.0911(12) 0.109(2) Uani 0.372(4) 1 d PDU C 2 
H28D H 0.2876 0.5331 0.1436 0.164 Uiso 0.372(4) 1 calc PR C 2 
H28E H 0.1612 0.4605 0.0613 0.164 Uiso 0.372(4) 1 calc PR C 2 
H28F H 0.3629 0.5164 0.0644 0.164 Uiso 0.372(4) 1 calc PR C 2 
 
loop_ 
 _atom_site_aniso_label 
 _atom_site_aniso_U_11 
 _atom_site_aniso_U_22 
 _atom_site_aniso_U_33 
 _atom_site_aniso_U_23 
 _atom_site_aniso_U_13 
 _atom_site_aniso_U_12 
Si1 0.0577(6) 0.0501(5) 0.0356(5) -0.0046(3) 0.0149(4) 0.0116(4) 
C1 0.0249(12) 0.0223(12) 0.0349(13) -0.0004(9) 0.0093(10) 0.0035(9) 
C2 0.0241(11) 0.0205(11) 0.0345(13) -0.0004(9) 0.0082(10) 0.0019(9) 
C3 0.0291(12) 0.0249(12) 0.0334(13) 0.0004(10) 0.0072(10) 0.0046(10) 
C4 0.0228(11) 0.0225(12) 0.0423(14) 0.0028(10) 0.0073(10) 0.0020(9) 
C5 0.0305(13) 0.0261(13) 0.0434(15) 0.0063(10) 0.0073(11) 0.0051(10) 
C6 0.0243(12) 0.0254(13) 0.0523(16) 0.0093(11) 0.0086(11) 0.0036(9) 
S7 0.0376(10) 0.0292(7) 0.0644(15) 0.0120(8) 0.0099(9) 0.0124(5) 
C8 0.020(7) 0.016(4) 0.067(6) 0.003(4) 0.003(5) 0.000(6) 
F1' 0.044(3) 0.026(3) 0.085(6) 0.012(4) 0.015(5) 0.019(2) 
C9 0.0261(7) 0.0187(11) 0.0580(14) 0.0044(8) 0.0127(7) 0.0079(7) 
C10 0.0214(11) 0.0214(12) 0.0535(15) 0.0017(10) 0.0114(11) 0.0024(9) 
C6' 0.0243(12) 0.0254(13) 0.0523(16) 0.0093(11) 0.0086(11) 0.0036(9) 
C7' 0.0376(10) 0.0292(7) 0.0644(15) 0.0120(8) 0.0099(9) 0.0124(5) 
F1 0.047(3) 0.027(4) 0.069(5) 0.015(4) 0.010(5) 0.017(3) 
C8' 0.020(7) 0.016(4) 0.067(6) 0.003(4) 0.003(5) 0.000(6) 
S9' 0.0261(7) 0.0187(11) 0.0580(14) 0.0044(8) 0.0127(7) 0.0079(7) 
C10' 0.0214(11) 0.0214(12) 0.0535(15) 0.0017(10) 0.0114(11) 0.0024(9) 
C11 0.0244(12) 0.0221(12) 0.0462(15) -0.0003(10) 0.0115(11) 0.0044(9) 
C12 0.0220(11) 0.0196(11) 0.0422(14) 0.0006(10) 0.0103(10) 0.0022(9) 
C13 0.0265(12) 0.0217(12) 0.0340(13) -0.0018(9) 0.0095(10) 0.0031(9) 
C14 0.0228(11) 0.0202(11) 0.0351(13) -0.0007(9) 0.0087(10) 0.0015(9) 
C15 0.0360(13) 0.0247(12) 0.0376(14) 0.0006(10) 0.0096(11) 0.0101(10) 
C16 0.0534(17) 0.0347(14) 0.0387(16) 0.0012(11) 0.0101(13) 0.0150(12) 
C17 0.074(5) 0.053(3) 0.053(2) -0.015(2) 0.023(4) 0.004(4) 
C18 0.105(5) 0.068(4) 0.078(4) 0.005(3) 0.033(4) 0.038(4) 
C19 0.181(11) 0.089(6) 0.116(6) 0.007(5) 0.032(9) 0.045(7) 
C20 0.090(5) 0.066(4) 0.122(7) 0.002(4) 0.041(5) -0.003(5) 
C17' 0.074(5) 0.053(3) 0.053(2) -0.015(2) 0.023(4) 0.004(4) 
C18' 0.105(5) 0.068(4) 0.078(4) 0.005(3) 0.033(4) 0.038(4) 
C19' 0.181(11) 0.089(6) 0.116(6) 0.007(5) 0.032(9) 0.045(7) 
C20' 0.090(5) 0.066(4) 0.122(7) 0.002(4) 0.041(5) -0.003(5) 
C21 0.055(4) 0.100(6) 0.065(4) 0.007(4) 0.012(3) 0.016(4) 
C22 0.081(5) 0.150(7) 0.072(5) 0.001(4) -0.002(4) -0.023(5) 
C23 0.107(6) 0.170(8) 0.105(7) -0.014(6) 0.003(5) -0.039(6) 
C24 0.078(4) 0.151(9) 0.072(5) 0.019(4) 0.039(4) 0.018(6) 
C21' 0.055(4) 0.100(6) 0.065(4) 0.007(4) 0.012(3) 0.016(4) 
C22' 0.081(5) 0.150(7) 0.072(5) 0.001(4) -0.002(4) -0.023(5) 
C23' 0.107(6) 0.170(8) 0.105(7) -0.014(6) 0.003(5) -0.039(6) 
C24' 0.078(4) 0.151(9) 0.072(5) 0.019(4) 0.039(4) 0.018(6) 
C25 0.083(3) 0.116(3) 0.0435(18) 0.0176(19) 0.0128(17) 0.024(2) 
C26 0.098(3) 0.135(4) 0.041(2) 0.020(3) 0.015(2) 0.019(4) 
C27 0.128(6) 0.184(8) 0.064(3) 0.012(6) 0.003(3) 0.025(7) 
C28 0.130(7) 0.130(4) 0.073(6) 0.042(4) -0.018(5) 0.055(4) 
C25' 0.083(3) 0.116(3) 0.0435(18) 0.0176(19) 0.0128(17) 0.024(2) 
C26' 0.098(3) 0.135(4) 0.041(2) 0.020(3) 0.015(2) 0.019(4) 
C27' 0.128(6) 0.184(8) 0.064(3) 0.012(6) 0.003(3) 0.025(7) 
C28' 0.130(7) 0.130(4) 0.073(6) 0.042(4) -0.018(5) 0.055(4) 
 
_geom_special_details 
; 
 All esds (except the esd in the dihedral angle between two l.s. planes) 
 are estimated using the full covariance matrix.  The cell esds are taken 
 into account individually in the estimation of esds in distances, angles 
 and torsion angles; correlations between esds in cell parameters are only 
 used when they are defined by crystal symmetry.  An approximate (isotropic) 
 treatment of cell esds is used for estimating esds involving l.s. planes. 
; 
 
loop_ 
 _geom_bond_atom_site_label_1 
 _geom_bond_atom_site_label_2 
 _geom_bond_distance 
 _geom_bond_site_symmetry_2 
 _geom_bond_publ_flag 
Si1 C16 1.841(3) . ? 
Si1 C17 1.852(8) . ? 
Si1 C21' 1.874(17) . ? 
Si1 C25 1.885(5) . ? 
Si1 C21 1.913(10) . ? 
Si1 C17' 1.997(15) . ? 
C1 C2 1.415(3) . ? 
C1 C14 1.417(4) 2_666 ? 
C1 C15 1.430(4) . ? 
C2 C3 1.404(4) . ? 
C2 C14 1.447(3) . ? 
C3 C4 1.390(3) . ? 
C3 H3 0.9500 . ? 
C4 C5 1.425(4) . ? 
C4 C12 1.444(4) . ? 
C5 C6 1.362(4) . ? 
C5 H5 0.9500 . ? 
C6 C10 1.442(4) . ? 
C6 S7 1.764(3) . ? 
S7 C8 1.742(15) . ? 
C8 F1' 1.340(15) . ? 
C8 C9 1.35(2) . ? 
C9 C10 1.453(9) . ? 
C9 H9 0.9500 . ? 
C10 C11 1.361(4) . ? 
C7' C8' 1.36(2) . ? 
C7' H7' 0.9500 . ? 
F1 C8' 1.338(18) . ? 
C8' S9' 1.748(19) . ? 
C11 C12 1.427(3) . ? 
C11 H11 0.9500 . ? 
C12 C13 1.390(4) . ? 
C13 C14 1.405(3) . ? 
C13 H13 0.9500 . ? 
C14 C1 1.417(4) 2_666 ? 
C15 C16 1.207(4) . ? 
C17 C18 1.544(10) . ? 
C17 C20 1.550(10) . ? 
C17 H17 1.0000 . ? 
C18 C19 1.497(11) . ? 
C18 H18A 0.9900 . ? 
C18 H18B 0.9900 . ? 
C19 H19A 0.9800 . ? 
C19 H19B 0.9800 . ? 
C19 H19C 0.9800 . ? 
C20 H20A 0.9800 . ? 
C20 H20B 0.9800 . ? 
C20 H20C 0.9800 . ? 
C17' C18' 1.552(14) . ? 
C17' C20' 1.568(15) . ? 
C17' H17' 1.0000 . ? 
C18' C19' 1.481(15) . ? 
C18' H18C 0.9900 . ? 
C18' H18D 0.9900 . ? 
C19' H19D 0.9800 . ? 
C19' H19E 0.9800 . ? 
C19' H19F 0.9800 . ? 
C20' H20D 0.9800 . ? 
C20' H20E 0.9800 . ? 
C20' H20F 0.9800 . ? 
C21 C24 1.523(10) . ? 
C21 C22 1.570(10) . ? 
C21 H21 1.0000 . ? 
C22 C23 1.461(13) . ? 
C22 H22A 0.9900 . ? 
C22 H22B 0.9900 . ? 
C23 H23A 0.9800 . ? 
C23 H23B 0.9800 . ? 
C23 H23C 0.9800 . ? 
C24 H24A 0.9800 . ? 
C24 H24B 0.9800 . ? 
C24 H24C 0.9800 . ? 
C21' C24' 1.498(14) . ? 
C21' C22' 1.531(15) . ? 
C21' H21' 1.0000 . ? 
C22' C23' 1.494(16) . ? 
C22' H22C 0.9900 . ? 
C22' H22D 0.9900 . ? 
C23' H23D 0.9800 . ? 
C23' H23E 0.9800 . ? 
C23' H23F 0.9800 . ? 
C24' H24D 0.9800 . ? 
C24' H24E 0.9800 . ? 
C24' H24F 0.9800 . ? 
C25 C28 1.524(10) . ? 
C25 C26 1.549(8) . ? 
C25 H25 1.0000 . ? 
C26 C27 1.535(11) . ? 
C26 H26A 0.9900 . ? 
C26 H26B 0.9900 . ? 
C27 H27A 0.9800 . ? 
C27 H27B 0.9800 . ? 
C27 H27C 0.9800 . ? 
C28 H28A 0.9800 . ? 
C28 H28B 0.9800 . ? 
C28 H28C 0.9800 . ? 
C26' C27' 1.527(15) . ? 
C26' H26C 0.9900 . ? 
C26' H26D 0.9900 . ? 
C27' H27D 0.9800 . ? 
C27' H27E 0.9800 . ? 
C27' H27F 0.9800 . ? 
C28' H28D 0.9800 . ? 
C28' H28E 0.9800 . ? 
C28' H28F 0.9800 . ? 
 
loop_ 
 _geom_angle_atom_site_label_1 
 _geom_angle_atom_site_label_2 
 _geom_angle_atom_site_label_3 
 _geom_angle 
 _geom_angle_site_symmetry_1 
 _geom_angle_site_symmetry_3 
 _geom_angle_publ_flag 
C16 Si1 C17 106.9(3) . . ? 
C16 Si1 C21' 107.0(5) . . ? 
C17 Si1 C21' 95.3(5) . . ? 
C16 Si1 C25 108.24(17) . . ? 
C17 Si1 C25 115.2(3) . . ? 
C21' Si1 C25 122.7(5) . . ? 
C16 Si1 C21 109.0(3) . . ? 
C17 Si1 C21 112.7(3) . . ? 
C21' Si1 C21 19.9(5) . . ? 
C25 Si1 C21 104.6(3) . . ? 
C16 Si1 C17' 103.3(5) . . ? 
C17 Si1 C17' 17.9(4) . . ? 
C21' Si1 C17' 112.9(6) . . ? 
C25 Si1 C17' 101.0(4) . . ? 
C21 Si1 C17' 129.2(5) . . ? 
C2 C1 C14 121.1(2) . 2_666 ? 
C2 C1 C15 120.0(2) . . ? 
C14 C1 C15 118.9(2) 2_666 . ? 
C3 C2 C1 122.1(2) . . ? 
C3 C2 C14 118.6(2) . . ? 
C1 C2 C14 119.2(2) . . ? 
C4 C3 C2 122.3(2) . . ? 
C4 C3 H3 118.8 . . ? 
C2 C3 H3 118.8 . . ? 
C3 C4 C5 122.0(2) . . ? 
C3 C4 C12 119.0(2) . . ? 
C5 C4 C12 119.0(2) . . ? 
C6 C5 C4 119.8(3) . . ? 
C6 C5 H5 120.1 . . ? 
C4 C5 H5 120.1 . . ? 
C5 C6 C10 121.2(2) . . ? 
C5 C6 S7 124.2(2) . . ? 
C10 C6 S7 114.6(2) . . ? 
C8 S7 C6 87.6(4) . . ? 
F1' C8 C9 126.9(15) . . ? 
F1' C8 S7 115.7(10) . . ? 
C9 C8 S7 116.7(7) . . ? 
C8 C9 C10 112.5(9) . . ? 
C8 C9 H9 123.7 . . ? 
C10 C9 H9 123.7 . . ? 
C11 C10 C6 120.7(2) . . ? 
C11 C10 C9 131.0(5) . . ? 
C6 C10 C9 108.3(5) . . ? 
C8' C7' H7' 124.0 . . ? 
F1 C8' C7' 125.2(18) . . ? 
F1 C8' S9' 116.6(11) . . ? 
C7' C8' S9' 117.2(9) . . ? 
C10 C11 C12 119.6(2) . . ? 
C10 C11 H11 120.2 . . ? 
C12 C11 H11 120.2 . . ? 
C13 C12 C11 121.3(2) . . ? 
C13 C12 C4 119.0(2) . . ? 
C11 C12 C4 119.6(2) . . ? 
C12 C13 C14 122.3(2) . . ? 
C12 C13 H13 118.8 . . ? 
C14 C13 H13 118.8 . . ? 
C13 C14 C1 121.6(2) . 2_666 ? 
C13 C14 C2 118.6(2) . . ? 
C1 C14 C2 119.7(2) 2_666 . ? 
C16 C15 C1 177.2(3) . . ? 
C15 C16 Si1 172.0(3) . . ? 
C18 C17 C20 112.1(7) . . ? 
C18 C17 Si1 111.6(5) . . ? 
C20 C17 Si1 108.5(6) . . ? 
C18 C17 H17 108.2 . . ? 
C20 C17 H17 108.2 . . ? 
Si1 C17 H17 108.2 . . ? 
C19 C18 C17 119.5(8) . . ? 
C19 C18 H18A 107.5 . . ? 
C17 C18 H18A 107.5 . . ? 
C19 C18 H18B 107.5 . . ? 
C17 C18 H18B 107.5 . . ? 
H18A C18 H18B 107.0 . . ? 
C18 C19 H19A 109.5 . . ? 
C18 C19 H19B 109.5 . . ? 
H19A C19 H19B 109.5 . . ? 
C18 C19 H19C 109.5 . . ? 
H19A C19 H19C 109.5 . . ? 
H19B C19 H19C 109.5 . . ? 
C17 C20 H20A 109.5 . . ? 
C17 C20 H20B 109.5 . . ? 
H20A C20 H20B 109.5 . . ? 
C17 C20 H20C 109.5 . . ? 
H20A C20 H20C 109.5 . . ? 
H20B C20 H20C 109.5 . . ? 
C18' C17' C20' 112.6(12) . . ? 
C18' C17' Si1 109.5(9) . . ? 
C20' C17' Si1 111.8(10) . . ? 
C18' C17' H17' 107.5 . . ? 
C20' C17' H17' 107.5 . . ? 
Si1 C17' H17' 107.5 . . ? 
C19' C18' C17' 119.5(13) . . ? 
C19' C18' H18C 107.4 . . ? 
C17' C18' H18C 107.4 . . ? 
C19' C18' H18D 107.4 . . ? 
C17' C18' H18D 107.4 . . ? 
H18C C18' H18D 107.0 . . ? 
C18' C19' H19D 109.5 . . ? 
C18' C19' H19E 109.5 . . ? 
H19D C19' H19E 109.5 . . ? 
C18' C19' H19F 109.5 . . ? 
H19D C19' H19F 109.5 . . ? 
H19E C19' H19F 109.5 . . ? 
C17' C20' H20D 109.5 . . ? 
C17' C20' H20E 109.5 . . ? 
H20D C20' H20E 109.5 . . ? 
C17' C20' H20F 109.5 . . ? 
H20D C20' H20F 109.5 . . ? 
H20E C20' H20F 109.5 . . ? 
C24 C21 C22 109.4(7) . . ? 
C24 C21 Si1 113.6(7) . . ? 
C22 C21 Si1 111.0(6) . . ? 
C24 C21 H21 107.6 . . ? 
C22 C21 H21 107.6 . . ? 
Si1 C21 H21 107.6 . . ? 
C23 C22 C21 107.4(9) . . ? 
C23 C22 H22A 110.2 . . ? 
C21 C22 H22A 110.2 . . ? 
C23 C22 H22B 110.2 . . ? 
C21 C22 H22B 110.2 . . ? 
H22A C22 H22B 108.5 . . ? 
C22 C23 H23A 109.5 . . ? 
C22 C23 H23B 109.5 . . ? 
H23A C23 H23B 109.5 . . ? 
C22 C23 H23C 109.5 . . ? 
H23A C23 H23C 109.5 . . ? 
H23B C23 H23C 109.5 . . ? 
C21 C24 H24A 109.5 . . ? 
C21 C24 H24B 109.5 . . ? 
H24A C24 H24B 109.5 . . ? 
C21 C24 H24C 109.5 . . ? 
H24A C24 H24C 109.5 . . ? 
H24B C24 H24C 109.5 . . ? 
C24' C21' C22' 125.7(15) . . ? 
C24' C21' Si1 111.3(11) . . ? 
C22' C21' Si1 112.1(10) . . ? 
C24' C21' H21' 101.1 . . ? 
C22' C21' H21' 101.1 . . ? 
Si1 C21' H21' 101.1 . . ? 
C23' C22' C21' 113.6(15) . . ? 
C23' C22' H22C 108.8 . . ? 
C21' C22' H22C 108.8 . . ? 
C23' C22' H22D 108.8 . . ? 
C21' C22' H22D 108.8 . . ? 
H22C C22' H22D 107.7 . . ? 
C22' C23' H23D 109.5 . . ? 
C22' C23' H23E 109.5 . . ? 
H23D C23' H23E 109.5 . . ? 
C22' C23' H23F 109.5 . . ? 
H23D C23' H23F 109.5 . . ? 
H23E C23' H23F 109.5 . . ? 
C21' C24' H24D 109.5 . . ? 
C21' C24' H24E 109.5 . . ? 
H24D C24' H24E 109.5 . . ? 
C21' C24' H24F 109.5 . . ? 
H24D C24' H24F 109.5 . . ? 
H24E C24' H24F 109.5 . . ? 
C28 C25 C26 109.5(6) . . ? 
C28 C25 Si1 107.7(4) . . ? 
C26 C25 Si1 114.8(5) . . ? 
C28 C25 H25 108.2 . . ? 
C26 C25 H25 108.2 . . ? 
Si1 C25 H25 108.2 . . ? 
C27 C26 C25 111.4(8) . . ? 
C27 C26 H26A 109.3 . . ? 
C25 C26 H26A 109.3 . . ? 
C27 C26 H26B 109.3 . . ? 
C25 C26 H26B 109.3 . . ? 
H26A C26 H26B 108.0 . . ? 
C26 C27 H27A 109.5 . . ? 
C26 C27 H27B 109.5 . . ? 
H27A C27 H27B 109.5 . . ? 
C26 C27 H27C 109.5 . . ? 
H27A C27 H27C 109.5 . . ? 
H27B C27 H27C 109.5 . . ? 
C25 C28 H28A 109.5 . . ? 
C25 C28 H28B 109.5 . . ? 
H28A C28 H28B 109.5 . . ? 
C25 C28 H28C 109.5 . . ? 
H28A C28 H28C 109.5 . . ? 
H28B C28 H28C 109.5 . . ? 
C27' C26' H26C 107.9 . . ? 
C27' C26' H26D 107.9 . . ? 
H26C C26' H26D 107.2 . . ? 
C26' C27' H27D 109.5 . . ? 
C26' C27' H27E 109.5 . . ? 
H27D C27' H27E 109.5 . . ? 
C26' C27' H27F 109.5 . . ? 
H27D C27' H27F 109.5 . . ? 
H27E C27' H27F 109.5 . . ? 
H28D C28' H28E 109.5 . . ? 
H28D C28' H28F 109.5 . . ? 
H28E C28' H28F 109.5 . . ? 
 
loop_ 
 _geom_torsion_atom_site_label_1 
 _geom_torsion_atom_site_label_2 
 _geom_torsion_atom_site_label_3 
 _geom_torsion_atom_site_label_4 
 _geom_torsion 
 _geom_torsion_site_symmetry_1 
 _geom_torsion_site_symmetry_2 
 _geom_torsion_site_symmetry_3 
 _geom_torsion_site_symmetry_4 
 _geom_torsion_publ_flag 
C14 C1 C2 C3 -179.0(2) 2_666 . . . ? 
C15 C1 C2 C3 2.8(4) . . . . ? 
C14 C1 C2 C14 0.5(4) 2_666 . . . ? 
C15 C1 C2 C14 -177.7(2) . . . . ? 
C1 C2 C3 C4 -179.9(2) . . . . ? 
C14 C2 C3 C4 0.6(4) . . . . ? 
C2 C3 C4 C5 -178.8(2) . . . . ? 
C2 C3 C4 C12 0.9(4) . . . . ? 
C3 C4 C5 C6 -179.2(2) . . . . ? 
C12 C4 C5 C6 1.0(4) . . . . ? 
C4 C5 C6 C10 0.3(4) . . . . ? 
C4 C5 C6 S7 -179.4(2) . . . . ? 
C5 C6 S7 C8 -176.7(11) . . . . ? 
C10 C6 S7 C8 3.6(11) . . . . ? 
C6 S7 C8 F1' -176(2) . . . . ? 
C6 S7 C8 C9 -5(2) . . . . ? 
F1' C8 C9 C10 175(2) . . . . ? 
S7 C8 C9 C10 5(3) . . . . ? 
C5 C6 C10 C11 -1.0(4) . . . . ? 
S7 C6 C10 C11 178.7(2) . . . . ? 
C5 C6 C10 C9 178.7(5) . . . . ? 
S7 C6 C10 C9 -1.6(6) . . . . ? 
C8 C9 C10 C11 177.5(15) . . . . ? 
C8 C9 C10 C6 -2.1(17) . . . . ? 
C6 C10 C11 C12 0.3(4) . . . . ? 
C9 C10 C11 C12 -179.3(6) . . . . ? 
C10 C11 C12 C13 -179.0(2) . . . . ? 
C10 C11 C12 C4 1.0(3) . . . . ? 
C3 C4 C12 C13 -1.4(3) . . . . ? 
C5 C4 C12 C13 178.4(2) . . . . ? 
C3 C4 C12 C11 178.5(2) . . . . ? 
C5 C4 C12 C11 -1.7(3) . . . . ? 
C11 C12 C13 C14 -179.5(2) . . . . ? 
C4 C12 C13 C14 0.4(4) . . . . ? 
C12 C13 C14 C1 -179.6(2) . . . 2_666 ? 
C12 C13 C14 C2 1.1(4) . . . . ? 
C3 C2 C14 C13 -1.6(3) . . . . ? 
C1 C2 C14 C13 178.8(2) . . . . ? 
C3 C2 C14 C1 179.1(2) . . . 2_666 ? 
C1 C2 C14 C1 -0.5(4) . . . 2_666 ? 
C2 C1 C15 C16 141(6) . . . . ? 
C14 C1 C15 C16 -37(6) 2_666 . . . ? 
C1 C15 C16 Si1 3(8) . . . . ? 
C17 Si1 C16 C15 59(2) . . . . ? 
C21' Si1 C16 C15 -42(2) . . . . ? 
C25 Si1 C16 C15 -176.3(19) . . . . ? 
C21 Si1 C16 C15 -63(2) . . . . ? 
C17' Si1 C16 C15 77(2) . . . . ? 
C16 Si1 C17 C18 -64.3(6) . . . . ? 
C21' Si1 C17 C18 45.3(7) . . . . ? 
C25 Si1 C17 C18 175.4(5) . . . . ? 
C21 Si1 C17 C18 55.5(6) . . . . ? 
C17' Si1 C17 C18 -145(2) . . . . ? 
C16 Si1 C17 C20 59.7(6) . . . . ? 
C21' Si1 C17 C20 169.3(8) . . . . ? 
C25 Si1 C17 C20 -60.7(6) . . . . ? 
C21 Si1 C17 C20 179.4(6) . . . . ? 
C17' Si1 C17 C20 -21.2(18) . . . . ? 
C20 C17 C18 C19 50.8(10) . . . . ? 
Si1 C17 C18 C19 172.7(7) . . . . ? 
C16 Si1 C17' C18' -55.5(9) . . . . ? 
C17 Si1 C17' C18' 48.5(17) . . . . ? 
C21' Si1 C17' C18' 59.8(11) . . . . ? 
C25 Si1 C17' C18' -167.4(8) . . . . ? 
C21 Si1 C17' C18' 73.2(11) . . . . ? 
C16 Si1 C17' C20' 70.1(11) . . . . ? 
C17 Si1 C17' C20' 174(3) . . . . ? 
C21' Si1 C17' C20' -174.7(11) . . . . ? 
C25 Si1 C17' C20' -41.9(11) . . . . ? 
C21 Si1 C17' C20' -161.2(9) . . . . ? 
C20' C17' C18' C19' 68.2(19) . . . . ? 
Si1 C17' C18' C19' -166.6(13) . . . . ? 
C16 Si1 C21 C24 163.9(6) . . . . ? 
C17 Si1 C21 C24 45.4(7) . . . . ? 
C21' Si1 C21 C24 76.3(18) . . . . ? 
C25 Si1 C21 C24 -80.5(7) . . . . ? 
C17' Si1 C21 C24 37.3(9) . . . . ? 
C16 Si1 C21 C22 40.2(7) . . . . ? 
C17 Si1 C21 C22 -78.4(7) . . . . ? 
C21' Si1 C21 C22 -47.4(16) . . . . ? 
C25 Si1 C21 C22 155.8(6) . . . . ? 
C17' Si1 C21 C22 -86.4(9) . . . . ? 
C24 C21 C22 C23 129.5(9) . . . . ? 
Si1 C21 C22 C23 -104.4(9) . . . . ? 
C16 Si1 C21' C24' 158.2(10) . . . . ? 
C17 Si1 C21' C24' 48.7(12) . . . . ? 
C25 Si1 C21' C24' -75.9(12) . . . . ? 
C21 Si1 C21' C24' -103(2) . . . . ? 
C17' Si1 C21' C24' 45.2(13) . . . . ? 
C16 Si1 C21' C22' -55.3(12) . . . . ? 
C17 Si1 C21' C22' -164.8(11) . . . . ? 
C25 Si1 C21' C22' 70.5(13) . . . . ? 
C21 Si1 C21' C22' 43.6(13) . . . . ? 
C17' Si1 C21' C22' -168.3(11) . . . . ? 
C24' C21' C22' C23' -63(2) . . . . ? 
Si1 C21' C22' C23' 156.1(13) . . . . ? 
C16 Si1 C25 C28 58.2(7) . . . . ? 
C17 Si1 C25 C28 177.8(7) . . . . ? 
C21' Si1 C25 C28 -67.1(9) . . . . ? 
C21 Si1 C25 C28 -58.0(8) . . . . ? 
C17' Si1 C25 C28 166.3(8) . . . . ? 
C16 Si1 C25 C26 -179.5(5) . . . . ? 
C17 Si1 C25 C26 -59.9(6) . . . . ? 
C21' Si1 C25 C26 55.2(8) . . . . ? 
C21 Si1 C25 C26 64.4(6) . . . . ? 
C17' Si1 C25 C26 -71.4(7) . . . . ? 
C28 C25 C26 C27 -68.9(10) . . . . ? 
Si1 C25 C26 C27 169.8(7) . . . . ? 
 
_diffrn_measured_fraction_theta_max    0.982 
_diffrn_reflns_theta_full              68.46 
_diffrn_measured_fraction_theta_full   0.982 
_refine_diff_density_max    0.626 
_refine_diff_density_min   -0.506 
_refine_diff_density_rms    0.068 
