data_x13034 

# start Validation Reply Form

_vrf_REFLT03_I
;
PROBLEM: Reflection count < 85% complete (theta max?)
RESPONSE: 
All crystals were twinned by a 2-fold rotation about the reciprocal 
space axis b*.  The twinning was such that separation of reflection 
components was difficult, and clearly the integration software had 
some trouble, and many reflections were rejected during integration. 
This led to less than optimal completeness.  Several different 
schemes were tried to improve the retention of usable reflections, 
but those that did retain more unique data were clearly less good 
than the integration used here.  In spite of the low completeness, 
the structure is clearly correct and unambiguous.  
;
_vrf_PLAT029_I
;
PROBLEM: _diffrn_measured_fraction_theta_full Low .......      0.793      
RESPONSE: 
All crystals were twinned by a 2-fold rotation about the reciprocal 
space axis b*.  The twinning was such that separation of reflection 
components was difficult, and clearly the integration software had 
some trouble, and many reflections were rejected during integration. 
This led to less than optimal completeness.  Several different 
schemes were tried to improve the retention of usable reflections, 
but those that did retain more unique data were clearly less good 
than the integration used here.  The upper resolution limit was 
lowered accordingly.  In spite of the less than optimal resolution,  
the structure is clearly correct and unambiguous.  
;
# end Validation Reply Form


 
_audit_creation_method            SHELXL-97 
_chemical_name_systematic 
; 
 ? 
; 
_chemical_name_common             ? 
_chemical_melting_point           ? 
_chemical_formula_moiety 
 'C54 H64 F2 S2 Si2' 
_chemical_formula_sum 
 'C54 H64 F2 S2 Si2' 
_chemical_formula_weight          871.35 
 
loop_ 
 _atom_type_symbol 
 _atom_type_description 
 _atom_type_scat_dispersion_real 
 _atom_type_scat_dispersion_imag 
 _atom_type_scat_source 
 'C'  'C'   0.0181   0.0091 
 'International Tables Vol C Tables 4.2.6.8 and 6.1.1.4' 
 'H'  'H'   0.0000   0.0000 
 'International Tables Vol C Tables 4.2.6.8 and 6.1.1.4' 
 'F'  'F'   0.0727   0.0534 
 'International Tables Vol C Tables 4.2.6.8 and 6.1.1.4' 
 'Si'  'Si'   0.2541   0.3302 
 'International Tables Vol C Tables 4.2.6.8 and 6.1.1.4' 
 'S'  'S'   0.3331   0.5567 
 'International Tables Vol C Tables 4.2.6.8 and 6.1.1.4' 
 
_symmetry_cell_setting            triclinic 
_symmetry_space_group_name_H-M    'P -1' 
_symmetry_space_group_name_Hall   '-P 1'
 
loop_ 
 _symmetry_equiv_pos_as_xyz 
 'x, y, z' 
 '-x, -y, -z' 
 
_cell_length_a                    8.9483(4) 
_cell_length_b                    16.2714(8) 
_cell_length_c                    17.4406(9) 
_cell_angle_alpha                 102.541(4) 
_cell_angle_beta                  92.710(4) 
_cell_angle_gamma                 100.739(3) 
_cell_volume                      2425.2(2) 
_cell_formula_units_Z             2 
_cell_measurement_temperature     90.0(2) 
_cell_measurement_reflns_used     1838 
_cell_measurement_theta_min       2.84 
_cell_measurement_theta_max       67.77 
 
_exptl_crystal_description        lath 
_exptl_crystal_colour             green 
_exptl_crystal_size_max           0.11 
_exptl_crystal_size_mid           0.02 
_exptl_crystal_size_min           0.01 
_exptl_crystal_density_meas       ? 
_exptl_crystal_density_diffrn     1.193 
_exptl_crystal_density_method     'not measured' 
_exptl_crystal_F_000              932 
_exptl_absorpt_coefficient_mu     1.796 
_exptl_absorpt_correction_type    multi-scan 
_exptl_absorpt_correction_T_min   0.701 
_exptl_absorpt_correction_T_max   0.991 
_exptl_absorpt_process_details    'Twinabs (Sheldrick, 2007)' 
 
_exptl_special_details 
; 
All crystals were twinned by a 2-fold rotation about the reciprocal 
space axis b*.  The twinning was such that separation of reflection 
components was difficult, and clearly the integration software had 
some trouble, and many reflections were rejected during integration. 
This led to less than optimal completeness.  Several different 
schemes were tried to improve the retention of usable reflections, 
but those that did retain more unique data were clearly less good 
than the integration used here.  In spite of the low completeness, 
the structure is clearly correct and unambiguous.  
; 
 
_diffrn_ambient_temperature       90.0(2) 
_diffrn_radiation_wavelength      1.54178 
_diffrn_radiation_type            CuK\a 
_diffrn_radiation_source          'fine-focus rotating anode' 
_diffrn_radiation_monochromator   'graded multilayer optics' 
_diffrn_measurement_device_type   'Bruker X8 Proteum diffractometer'
_diffrn_measurement_method        '\f and \w scans'            
_diffrn_detector_area_resol_mean  5.6
_diffrn_standards_number          0 
_diffrn_standards_interval_count  . 
_diffrn_standards_interval_time   . 
_diffrn_standards_decay_%         ? 
_diffrn_reflns_number             5748 
_diffrn_reflns_av_R_equivalents   0.0787 
_diffrn_reflns_av_sigmaI/netI     0.0742 
_diffrn_reflns_limit_h_min        -9 
_diffrn_reflns_limit_h_max        9 
_diffrn_reflns_limit_k_min        -18 
_diffrn_reflns_limit_k_max        17 
_diffrn_reflns_limit_l_min        0 
_diffrn_reflns_limit_l_max        19 
_diffrn_reflns_theta_min          2.61 
_diffrn_reflns_theta_max          59.98 
_reflns_number_total              5748 
_reflns_number_gt                 4627 
_reflns_threshold_expression      >2\s(I)    
 
_computing_data_collection        'APEX2 (Bruker-AXS, 2006)'            
_computing_cell_refinement        'APEX2'
_computing_data_reduction         'APEX2'
_computing_structure_solution     'SHELXS-97 (Sheldrick, 2008)' 
_computing_structure_refinement   'SHELXL-97 (Sheldrick, 2008)' 
_computing_molecular_graphics     'XP in SHELXTL (Sheldrick, 2008)'
_computing_publication_material
; 
SHELX-97 (Sheldrick, 2008) and local procedures 
; 
 
_publ_section_exptl_refinement
;
H atoms were found in difference Fourier maps and subsequently placed 
in idealized positions with constrained distances of 0.98 \%A (RCH~3~), 
0.99 \%A (R~2~CH~2~), 1.00 \%A (R~3~CH), 0.95 \%A (C~sp2~H), and with 
U~iso~(H) values set to either 1.2U~eq~ or 1.5U~eq~ (RCH~3~) of the 
attached atom. 

To ensure satisfactory refinement of the disordered parts of the structure, 
a combination of constraints and restraints were needed.  The constraints 
(SHELXL97 commands EXYZ and EADP) were used to make the coordinates and/or 
displacement parameters of overlapping atoms equal.  The restraints 
(SHELXL97 commands SAME, DELU) were used to ensure similar geometries and 
displacement parameters of nearby, chemically similar groups. 
;

_refine_special_details 
; 
Refinement of F^2^ against all reflections.  The weighted R-value wR and 
goodness of fit S are based on F^2^. Conventional R-values R are based 
on F, with F set to zero for negative F^2^.  The threshold expression of 
F^2^ > 2\s(F^2^) is used only for calculating R-factors(gt) etc. and is 
not relevant to the choice of reflections for refinement.  R-values based 
on F^2^ are statistically about twice as large as those based on F, and  
R-values based on ALL data will be even larger. 
; 
 
_refine_ls_structure_factor_coef  Fsqd  
_refine_ls_matrix_type            full 
_refine_ls_weighting_scheme       calc  
_refine_ls_weighting_details 
 'calc w=1/[\s^2^(Fo^2^)+(0.1717P)^2^+4.7733P] where P=(Fo^2^+2Fc^2^)/3' 
_atom_sites_solution_primary      direct 
_atom_sites_solution_secondary    difmap 
_atom_sites_solution_hydrogens    geom 
_refine_ls_hydrogen_treatment     constr 
_refine_ls_extinction_method      none 
_refine_ls_extinction_coef        ? 
_refine_ls_number_reflns          5748 
_refine_ls_number_parameters      580 
_refine_ls_number_restraints      80 
_refine_ls_R_factor_all           0.1021 
_refine_ls_R_factor_gt            0.0829 
_refine_ls_wR_factor_ref          0.2700 
_refine_ls_wR_factor_gt           0.2512 
_refine_ls_goodness_of_fit_ref    1.056 
_refine_ls_restrained_S_all       1.050 
_refine_ls_shift/su_max           0.000 
_refine_ls_shift/su_mean          0.000 
 
loop_ 
 _atom_site_label 
 _atom_site_type_symbol 
 _atom_site_fract_x 
 _atom_site_fract_y 
 _atom_site_fract_z 
 _atom_site_U_iso_or_equiv 
 _atom_site_adp_type 
 _atom_site_occupancy 
 _atom_site_symmetry_multiplicity 
 _atom_site_calc_flag 
 _atom_site_refinement_flags 
 _atom_site_disorder_assembly 
 _atom_site_disorder_group 
Si1 Si 0.5986(2) 0.81319(13) 0.49873(13) 0.0288(5) Uani 1 1 d . . . 
Si2 Si 0.4540(2) 0.17719(13) 0.00685(13) 0.0269(5) Uani 1 1 d . B . 
C1 C 0.5453(9) 0.5673(5) 0.3161(5) 0.0278(18) Uani 1 1 d . . . 
C2 C 0.6582(8) 0.5168(5) 0.3057(4) 0.0239(17) Uani 1 1 d . . . 
C3 C 0.7885(9) 0.5352(5) 0.3575(5) 0.0281(18) Uani 1 1 d . . . 
H3 H 0.8019 0.5829 0.4014 0.034 Uiso 1 1 calc R . . 
C4 C 0.9016(9) 0.4850(5) 0.3470(5) 0.0265(17) Uani 1 1 d . B . 
C5 C 1.0364(9) 0.5040(5) 0.4009(5) 0.0290(18) Uani 1 1 d . . . 
H5 H 1.0501 0.5503 0.4460 0.035 Uiso 1 1 calc R A 1 
C6 C 1.1450(8) 0.4547(5) 0.3867(5) 0.0284(16) Uani 0.527(8) 1 d PDU B 1 
S7 S 1.3158(6) 0.4712(4) 0.4484(4) 0.0335(14) Uani 0.527(8) 1 d PDU B 1 
C8 C 1.3623(16) 0.3836(12) 0.3798(11) 0.033(3) Uani 0.527(8) 1 d PDU B 1 
F1 F 1.5021(18) 0.3683(15) 0.3954(10) 0.038(3) Uani 0.527(8) 1 d PDU B 1 
C9 C 1.261(3) 0.3493(15) 0.3204(17) 0.0338(15) Uani 0.527(8) 1 d PDU B 1 
H9 H 1.2740 0.3022 0.2800 0.041 Uiso 0.527(8) 1 calc PR B 1 
C10 C 1.1300(9) 0.3863(5) 0.3192(5) 0.0320(17) Uani 0.527(8) 1 d PDU B 1 
C6' C 1.1450(8) 0.4547(5) 0.3867(5) 0.0284(16) Uani 0.473(8) 1 d PDU B 2 
C7' C 1.282(3) 0.457(2) 0.4308(18) 0.0335(14) Uani 0.473(8) 1 d PDU B 2 
H7' H 1.3104 0.4941 0.4816 0.040 Uiso 0.473(8) 1 calc PR B 2 
F1' F 1.499(2) 0.3894(17) 0.4248(11) 0.038(3) Uani 0.473(8) 1 d PDU B 2 
C8' C 1.369(2) 0.4061(15) 0.3982(14) 0.033(3) Uani 0.473(8) 1 d PDU B 2 
S9' S 1.2797(8) 0.3313(4) 0.3107(4) 0.0338(15) Uani 0.473(8) 1 d PDU B 2 
C10' C 1.1300(9) 0.3863(5) 0.3192(5) 0.0320(17) Uani 0.473(8) 1 d PDU B 2 
C11 C 1.0034(9) 0.3673(5) 0.2672(5) 0.0296(19) Uani 1 1 d . . . 
H11 H 0.9946 0.3221 0.2214 0.036 Uiso 1 1 calc R B 1 
C12 C 0.8836(9) 0.4143(5) 0.2803(5) 0.0294(19) Uani 1 1 d . B . 
C13 C 0.7533(9) 0.3959(5) 0.2273(5) 0.0266(18) Uani 1 1 d . . . 
H13 H 0.7421 0.3493 0.1824 0.032 Uiso 1 1 calc R B . 
C14 C 0.6392(9) 0.4442(5) 0.2385(5) 0.0252(17) Uani 1 1 d . B . 
C15 C 0.5062(9) 0.4244(5) 0.1858(5) 0.0283(19) Uani 1 1 d . . . 
C16 C 0.3924(9) 0.4751(5) 0.1954(5) 0.0274(18) Uani 1 1 d . B . 
C17 C 0.2602(9) 0.4565(5) 0.1437(5) 0.0262(18) Uani 1 1 d . . . 
H17 H 0.2480 0.4092 0.0994 0.031 Uiso 1 1 calc R B . 
C18 C 0.1456(9) 0.5040(5) 0.1539(5) 0.0273(18) Uani 1 1 d . B . 
C19 C 0.0144(9) 0.4849(5) 0.0992(5) 0.0304(19) Uani 1 1 d . . . 
H19 H 0.0037 0.4393 0.0536 0.037 Uiso 1 1 calc R B 1 
C20 C -0.0962(8) 0.5324(5) 0.1126(5) 0.0290(17) Uani 0.355(8) 1 d PDU B 1 
S21 S -0.2662(17) 0.5168(12) 0.0556(11) 0.0335(19) Uani 0.355(8) 1 d PDU B 1 
C22 C -0.311(4) 0.605(3) 0.122(2) 0.032(3) Uani 0.355(8) 1 d PDU B 1 
F2 F -0.4512(17) 0.6186(11) 0.1075(11) 0.038(2) Uani 0.355(8) 1 d PDU B 1 
C23 C -0.219(5) 0.638(3) 0.188(3) 0.0333(12) Uani 0.355(8) 1 d PDU B 1 
H23 H -0.2392 0.6791 0.2319 0.040 Uiso 0.355(8) 1 calc PR B 1 
C24 C -0.0809(9) 0.6021(5) 0.1804(5) 0.0287(17) Uani 0.355(8) 1 d PDU B 1 
C20' C -0.0962(8) 0.5324(5) 0.1126(5) 0.0290(17) Uani 0.645(8) 1 d PDU B 2 
C21' C -0.239(4) 0.523(3) 0.063(3) 0.0335(19) Uani 0.645(8) 1 d PDU B 2 
H21' H -0.2714 0.4813 0.0155 0.040 Uiso 0.645(8) 1 calc PR B 2 
F2' F -0.4522(9) 0.5933(6) 0.0665(6) 0.038(2) Uani 0.645(8) 1 d PDU B 2 
C22' C -0.3171(19) 0.5816(13) 0.0953(12) 0.032(3) Uani 0.645(8) 1 d PDU B 2 
S23' S -0.2325(6) 0.6567(3) 0.1823(3) 0.0333(12) Uani 0.645(8) 1 d PDU B 2 
C24' C -0.0809(9) 0.6021(5) 0.1804(5) 0.0287(17) Uani 0.645(8) 1 d PDU B 2 
C25 C 0.0461(9) 0.6225(5) 0.2322(5) 0.0289(18) Uani 1 1 d . . . 
H25 H 0.0561 0.6701 0.2761 0.035 Uiso 1 1 calc R B 1 
C26 C 0.1636(9) 0.5749(5) 0.2224(5) 0.0308(19) Uani 1 1 d . B . 
C27 C 0.2950(9) 0.5946(5) 0.2728(5) 0.0251(17) Uani 1 1 d . . . 
H27 H 0.3075 0.6429 0.3162 0.030 Uiso 1 1 calc R B . 
C28 C 0.4107(9) 0.5473(5) 0.2636(5) 0.0269(18) Uani 1 1 d . B . 
C29 C 0.5667(9) 0.6424(5) 0.3783(5) 0.0257(17) Uani 1 1 d . . . 
C30 C 0.5835(9) 0.7079(6) 0.4274(5) 0.0292(19) Uani 1 1 d . . . 
C31 C 0.6082(10) 0.8974(5) 0.4380(6) 0.037(2) Uani 1 1 d . . . 
H31A H 0.5027 0.9044 0.4261 0.045 Uiso 1 1 calc R . . 
H31B H 0.6646 0.9528 0.4713 0.045 Uiso 1 1 calc R . . 
C32 C 0.6808(11) 0.8814(6) 0.3618(6) 0.042(2) Uani 1 1 d . . . 
H32 H 0.6172 0.8278 0.3274 0.051 Uiso 1 1 calc R . . 
C33 C 0.8397(11) 0.8662(6) 0.3690(6) 0.050(2) Uani 1 1 d . . . 
H33A H 0.9047 0.9156 0.4056 0.075 Uiso 1 1 calc R . . 
H33B H 0.8797 0.8587 0.3171 0.075 Uiso 1 1 calc R . . 
H33C H 0.8392 0.8143 0.3889 0.075 Uiso 1 1 calc R . . 
C34 C 0.6750(12) 0.9547(6) 0.3182(6) 0.050(2) Uani 1 1 d . . . 
H34A H 0.7359 1.0087 0.3501 0.074 Uiso 1 1 calc R . . 
H34B H 0.5689 0.9608 0.3100 0.074 Uiso 1 1 calc R . . 
H34C H 0.7165 0.9407 0.2671 0.074 Uiso 1 1 calc R . . 
C35 C 0.4246(9) 0.8040(5) 0.5551(5) 0.0332(19) Uani 1 1 d . . . 
H35A H 0.4489 0.7814 0.6016 0.040 Uiso 1 1 calc R . . 
H35B H 0.4067 0.8628 0.5753 0.040 Uiso 1 1 calc R . . 
C36 C 0.2745(9) 0.7482(5) 0.5121(5) 0.0333(19) Uani 1 1 d . . . 
H36 H 0.2946 0.6909 0.4854 0.040 Uiso 1 1 calc R . . 
C37 C 0.2093(12) 0.7877(7) 0.4501(7) 0.055(3) Uani 1 1 d . . . 
H37A H 0.1130 0.7504 0.4246 0.082 Uiso 1 1 calc R . . 
H37B H 0.2822 0.7937 0.4105 0.082 Uiso 1 1 calc R . . 
H37C H 0.1906 0.8444 0.4752 0.082 Uiso 1 1 calc R . . 
C38 C 0.1569(10) 0.7346(6) 0.5722(6) 0.043(2) Uani 1 1 d . . . 
H38A H 0.1327 0.7899 0.5973 0.064 Uiso 1 1 calc R . . 
H38B H 0.1996 0.7096 0.6125 0.064 Uiso 1 1 calc R . . 
H38C H 0.0636 0.6955 0.5450 0.064 Uiso 1 1 calc R . . 
C39 C 0.7767(9) 0.8317(5) 0.5679(5) 0.035(2) Uani 1 1 d . . . 
H39A H 0.7955 0.7751 0.5730 0.042 Uiso 1 1 calc R . . 
H39B H 0.8640 0.8591 0.5431 0.042 Uiso 1 1 calc R . . 
C40 C 0.7751(9) 0.8866(5) 0.6500(5) 0.039(2) Uani 1 1 d . . . 
H40 H 0.6858 0.8592 0.6744 0.047 Uiso 1 1 calc R . . 
C41 C 0.7569(11) 0.9777(6) 0.6493(6) 0.052(3) Uani 1 1 d . . . 
H41A H 0.7559 1.0103 0.7035 0.079 Uiso 1 1 calc R . . 
H41B H 0.6608 0.9756 0.6189 0.079 Uiso 1 1 calc R . . 
H41C H 0.8425 1.0059 0.6249 0.079 Uiso 1 1 calc R . . 
C42 C 0.9194(11) 0.8909(7) 0.7023(6) 0.057(3) Uani 1 1 d . . . 
H42A H 1.0069 0.9253 0.6843 0.086 Uiso 1 1 calc R . . 
H42B H 0.9371 0.8327 0.6991 0.086 Uiso 1 1 calc R . . 
H42C H 0.9068 0.9176 0.7570 0.086 Uiso 1 1 calc R . . 
C43 C 0.4839(8) 0.3501(5) 0.1220(5) 0.0252(17) Uani 1 1 d . B . 
C44 C 0.4671(9) 0.2861(5) 0.0725(5) 0.0308(19) Uani 1 1 d . . . 
C45 C 0.2528(9) 0.1142(5) -0.0043(5) 0.0327(19) Uani 1 1 d . . . 
H45A H 0.2556 0.0523 -0.0207 0.039 Uiso 1 1 calc R B . 
H45B H 0.2125 0.1237 0.0481 0.039 Uiso 1 1 calc R . . 
C46 C 0.1398(10) 0.1347(6) -0.0631(6) 0.042(2) Uani 1 1 d . B . 
H46 H 0.1884 0.1329 -0.1137 0.050 Uiso 1 1 calc R . . 
C47 C 0.1078(11) 0.2225(6) -0.0361(7) 0.050(3) Uani 1 1 d . . . 
H47A H 0.0640 0.2272 0.0148 0.075 Uiso 1 1 calc R B . 
H47B H 0.0352 0.2328 -0.0751 0.075 Uiso 1 1 calc R . . 
H47C H 0.2030 0.2652 -0.0302 0.075 Uiso 1 1 calc R . . 
C48 C -0.0095(10) 0.0670(6) -0.0805(6) 0.049(2) Uani 1 1 d . . . 
H48A H -0.0679 0.0733 -0.0342 0.073 Uiso 1 1 calc R B . 
H48B H 0.0141 0.0094 -0.0930 0.073 Uiso 1 1 calc R . . 
H48C H -0.0700 0.0752 -0.1256 0.073 Uiso 1 1 calc R . . 
C49 C 0.5083(9) 0.1836(5) -0.0958(5) 0.0315(18) Uani 1 1 d . . . 
H49A H 0.4679 0.1267 -0.1316 0.038 Uiso 1 1 calc R B . 
H49B H 0.4550 0.2252 -0.1135 0.038 Uiso 1 1 calc R . . 
C50 C 0.6773(10) 0.2090(5) -0.1069(5) 0.0336(19) Uani 1 1 d . B . 
H50 H 0.7331 0.1713 -0.0833 0.040 Uiso 1 1 calc R . . 
C51 C 0.7440(9) 0.3031(5) -0.0639(6) 0.036(2) Uani 1 1 d . . . 
H51A H 0.8515 0.3180 -0.0737 0.055 Uiso 1 1 calc R B . 
H51B H 0.7360 0.3099 -0.0072 0.055 Uiso 1 1 calc R . . 
H51C H 0.6867 0.3412 -0.0837 0.055 Uiso 1 1 calc R . . 
C52 C 0.7021(11) 0.1944(5) -0.1927(5) 0.044(2) Uani 1 1 d . . . 
H52A H 0.6614 0.1340 -0.2186 0.065 Uiso 1 1 calc R B . 
H52B H 0.8118 0.2083 -0.1985 0.065 Uiso 1 1 calc R . . 
H52C H 0.6496 0.2313 -0.2171 0.065 Uiso 1 1 calc R . . 
C53 C 0.5972(10) 0.1305(5) 0.0572(5) 0.036(2) Uani 1 1 d . . . 
H53A H 0.5874 0.0698 0.0288 0.043 Uiso 1 1 calc R B . 
H53B H 0.7004 0.1612 0.0505 0.043 Uiso 1 1 calc R . . 
C54 C 0.5887(11) 0.1326(6) 0.1449(5) 0.042(2) Uani 1 1 d . B . 
H54 H 0.5815 0.1923 0.1722 0.050 Uiso 1 1 calc R . . 
C55 C 0.4502(12) 0.0725(7) 0.1613(6) 0.052(3) Uani 1 1 d . . . 
H55A H 0.4432 0.0151 0.1273 0.078 Uiso 1 1 calc R B . 
H55B H 0.3581 0.0941 0.1504 0.078 Uiso 1 1 calc R . . 
H55C H 0.4594 0.0692 0.2167 0.078 Uiso 1 1 calc R . . 
C56 C 0.7348(12) 0.1137(7) 0.1800(6) 0.055(3) Uani 1 1 d . . . 
H56A H 0.7282 0.1163 0.2363 0.083 Uiso 1 1 calc R B . 
H56B H 0.8227 0.1564 0.1729 0.083 Uiso 1 1 calc R . . 
H56C H 0.7471 0.0561 0.1531 0.083 Uiso 1 1 calc R . . 
 
loop_ 
 _atom_site_aniso_label 
 _atom_site_aniso_U_11 
 _atom_site_aniso_U_22 
 _atom_site_aniso_U_33 
 _atom_site_aniso_U_23 
 _atom_site_aniso_U_13 
 _atom_site_aniso_U_12 
Si1 0.0257(12) 0.0275(11) 0.0310(13) 0.0029(9) 0.0014(9) 0.0051(9) 
Si2 0.0225(11) 0.0247(12) 0.0314(13) 0.0034(9) -0.0009(9) 0.0038(8) 
C1 0.025(5) 0.034(5) 0.024(5) 0.007(3) 0.008(3) 0.005(3) 
C2 0.024(4) 0.029(4) 0.016(4) 0.002(3) 0.003(3) -0.001(3) 
C3 0.021(4) 0.029(4) 0.033(5) 0.007(3) 0.000(3) 0.002(3) 
C4 0.026(4) 0.030(4) 0.022(4) 0.007(3) 0.006(3) 0.000(3) 
C5 0.025(4) 0.042(5) 0.023(5) 0.010(3) 0.002(3) 0.011(4) 
C6 0.025(4) 0.032(4) 0.032(5) 0.019(3) 0.004(3) 0.001(3) 
S7 0.023(3) 0.039(3) 0.037(3) 0.010(2) -0.0012(18) 0.002(2) 
C8 0.025(4) 0.017(9) 0.059(8) 0.018(5) 0.002(4) 0.001(4) 
F1 0.022(3) 0.050(11) 0.045(11) 0.013(8) 0.000(6) 0.009(4) 
C9 0.025(3) 0.042(3) 0.039(3) 0.014(2) 0.0065(17) 0.0100(19) 
C10 0.028(4) 0.038(4) 0.033(4) 0.016(3) 0.002(3) 0.005(3) 
C6' 0.025(4) 0.032(4) 0.032(5) 0.019(3) 0.004(3) 0.001(3) 
C7' 0.023(3) 0.039(3) 0.037(3) 0.010(2) -0.0012(18) 0.002(2) 
F1' 0.022(3) 0.050(11) 0.045(11) 0.013(8) 0.000(6) 0.009(4) 
C8' 0.025(4) 0.017(9) 0.059(8) 0.018(5) 0.002(4) 0.001(4) 
S9' 0.025(3) 0.042(3) 0.039(3) 0.014(2) 0.0065(17) 0.0100(19) 
C10' 0.028(4) 0.038(4) 0.033(4) 0.016(3) 0.002(3) 0.005(3) 
C11 0.035(5) 0.030(4) 0.026(5) 0.010(3) 0.012(4) 0.007(4) 
C12 0.029(5) 0.033(4) 0.029(5) 0.018(4) 0.006(4) -0.001(3) 
C13 0.024(4) 0.025(4) 0.028(5) 0.001(3) 0.004(3) 0.005(3) 
C14 0.026(4) 0.028(4) 0.027(4) 0.015(3) 0.006(3) 0.006(3) 
C15 0.023(4) 0.026(4) 0.033(5) 0.006(3) 0.005(4) -0.002(3) 
C16 0.026(4) 0.035(5) 0.021(4) 0.008(3) 0.009(3) 0.004(3) 
C17 0.020(4) 0.027(4) 0.028(5) 0.001(3) 0.005(3) 0.003(3) 
C18 0.024(4) 0.037(5) 0.022(4) 0.012(3) 0.002(3) 0.003(3) 
C19 0.023(4) 0.032(5) 0.033(5) 0.007(3) 0.000(3) 0.000(3) 
C20 0.024(4) 0.032(4) 0.029(5) 0.009(3) 0.007(3) -0.004(3) 
S21 0.023(6) 0.041(4) 0.037(4) 0.011(2) -0.001(3) 0.006(4) 
C22 0.028(4) 0.018(12) 0.051(13) 0.015(5) -0.003(6) 0.002(6) 
F2 0.030(3) 0.038(5) 0.048(7) 0.010(4) -0.004(4) 0.012(3) 
C23 0.0276(19) 0.040(3) 0.037(2) 0.0145(18) 0.0038(13) 0.0116(15) 
C24 0.028(4) 0.031(4) 0.029(4) 0.011(3) 0.006(3) 0.006(3) 
C20' 0.024(4) 0.032(4) 0.029(5) 0.009(3) 0.007(3) -0.004(3) 
C21' 0.023(6) 0.041(4) 0.037(4) 0.011(2) -0.001(3) 0.006(4) 
F2' 0.030(3) 0.038(5) 0.048(7) 0.010(4) -0.004(4) 0.012(3) 
C22' 0.028(4) 0.018(12) 0.051(13) 0.015(5) -0.003(6) 0.002(6) 
S23' 0.0276(19) 0.040(3) 0.037(2) 0.0145(18) 0.0038(13) 0.0116(15) 
C24' 0.028(4) 0.031(4) 0.029(4) 0.011(3) 0.006(3) 0.006(3) 
C25 0.029(5) 0.031(5) 0.025(5) 0.002(3) 0.003(3) 0.009(3) 
C26 0.028(5) 0.032(5) 0.037(5) 0.014(4) 0.010(4) 0.009(3) 
C27 0.024(4) 0.027(4) 0.024(4) 0.002(3) 0.007(3) 0.007(3) 
C28 0.023(4) 0.030(4) 0.025(5) 0.002(3) 0.004(3) 0.003(3) 
C29 0.023(4) 0.029(4) 0.022(5) 0.001(4) 0.002(3) 0.002(3) 
C30 0.018(4) 0.045(5) 0.027(5) 0.015(4) 0.006(3) 0.005(3) 
C31 0.028(5) 0.033(5) 0.052(6) 0.008(4) 0.006(4) 0.012(4) 
C32 0.040(5) 0.045(5) 0.043(6) 0.020(4) 0.004(4) 0.000(4) 
C33 0.037(5) 0.060(6) 0.056(7) 0.016(5) 0.022(5) 0.009(5) 
C34 0.054(6) 0.044(6) 0.049(6) 0.017(4) 0.002(5) 0.001(4) 
C35 0.034(5) 0.028(4) 0.034(5) 0.001(3) -0.005(3) 0.005(3) 
C36 0.031(5) 0.023(4) 0.040(5) -0.002(3) 0.002(4) 0.002(3) 
C37 0.038(6) 0.061(7) 0.061(7) 0.008(5) 0.001(5) 0.010(5) 
C38 0.028(5) 0.047(5) 0.050(6) 0.004(4) 0.005(4) 0.008(4) 
C39 0.027(5) 0.040(5) 0.037(5) 0.009(4) 0.010(4) 0.005(4) 
C40 0.024(4) 0.045(5) 0.037(5) -0.010(4) -0.005(4) 0.004(4) 
C41 0.041(6) 0.048(6) 0.056(7) -0.014(5) 0.005(5) 0.009(4) 
C42 0.043(6) 0.073(7) 0.039(6) -0.014(5) -0.005(5) 0.001(5) 
C43 0.023(4) 0.030(5) 0.021(4) 0.002(4) 0.002(3) 0.004(3) 
C44 0.019(4) 0.038(5) 0.037(5) 0.009(4) 0.006(3) 0.008(3) 
C45 0.022(4) 0.030(5) 0.043(5) 0.003(4) -0.001(3) 0.003(3) 
C46 0.027(5) 0.045(5) 0.051(6) 0.012(4) 0.003(4) 0.003(4) 
C47 0.031(5) 0.047(6) 0.064(7) 0.009(5) -0.019(5) 0.002(4) 
C48 0.028(5) 0.050(6) 0.059(7) -0.002(5) -0.011(4) 0.007(4) 
C49 0.039(5) 0.026(4) 0.033(5) 0.008(3) 0.003(4) 0.013(4) 
C50 0.034(5) 0.028(5) 0.039(5) 0.003(3) 0.002(4) 0.012(3) 
C51 0.019(4) 0.041(5) 0.054(6) 0.019(4) 0.007(4) 0.008(3) 
C52 0.050(6) 0.028(5) 0.048(6) -0.001(4) 0.010(4) 0.007(4) 
C53 0.031(5) 0.025(4) 0.048(6) 0.008(4) -0.008(4) 0.001(3) 
C54 0.058(6) 0.035(5) 0.032(5) 0.005(4) -0.003(4) 0.016(4) 
C55 0.052(6) 0.075(7) 0.038(6) 0.019(5) 0.010(5) 0.025(5) 
C56 0.059(7) 0.053(6) 0.051(7) 0.016(5) -0.021(5) 0.006(5) 
 
_geom_special_details 
; 
 All esds (except the esd in the dihedral angle between two l.s. planes) 
 are estimated using the full covariance matrix.  The cell esds are taken 
 into account individually in the estimation of esds in distances, angles 
 and torsion angles; correlations between esds in cell parameters are only 
 used when they are defined by crystal symmetry.  An approximate (isotropic) 
 treatment of cell esds is used for estimating esds involving l.s. planes. 
; 
 
loop_ 
 _geom_bond_atom_site_label_1 
 _geom_bond_atom_site_label_2 
 _geom_bond_distance 
 _geom_bond_site_symmetry_2 
 _geom_bond_publ_flag 
Si1 C30 1.863(9) . ? 
Si1 C35 1.881(9) . ? 
Si1 C39 1.888(9) . ? 
Si1 C31 1.898(9) . ? 
Si2 C44 1.869(9) . ? 
Si2 C45 1.877(8) . ? 
Si2 C53 1.880(8) . ? 
Si2 C49 1.897(8) . ? 
C1 C2 1.411(11) . ? 
C1 C28 1.419(12) . ? 
C1 C29 1.423(11) . ? 
C2 C3 1.385(11) . ? 
C2 C14 1.450(11) . ? 
C3 C4 1.409(11) . ? 
C3 H3 0.9500 . ? 
C4 C12 1.427(12) . ? 
C4 C5 1.436(11) . ? 
C5 C6 1.370(11) . ? 
C5 H5 0.9500 . ? 
C6 C10 1.415(12) . ? 
C6 S7 1.769(8) . ? 
S7 C8 1.779(19) . ? 
C8 C9 1.30(4) . ? 
C8 F1 1.347(14) . ? 
C9 C10 1.42(3) . ? 
C9 H9 0.9500 . ? 
C10 C11 1.362(12) . ? 
C7' C8' 1.30(4) . ? 
C7' H7' 0.9500 . ? 
F1' C8' 1.332(15) . ? 
C8' S9' 1.78(2) . ? 
C11 C12 1.427(12) . ? 
C11 H11 0.9500 . ? 
C12 C13 1.397(12) . ? 
C13 C14 1.397(11) . ? 
C13 H13 0.9500 . ? 
C14 C15 1.411(12) . ? 
C15 C16 1.419(11) . ? 
C15 C43 1.431(11) . ? 
C16 C17 1.397(12) . ? 
C16 C28 1.458(11) . ? 
C17 C18 1.390(11) . ? 
C17 H17 0.9500 . ? 
C18 C19 1.419(12) . ? 
C18 C26 1.448(12) . ? 
C19 C20 1.364(11) . ? 
C19 H19 0.9500 . ? 
C20 C24 1.432(12) . ? 
C20 S21 1.723(12) . ? 
S21 C22 1.758(19) . ? 
C22 C23 1.32(4) . ? 
C22 F2 1.341(17) . ? 
C23 C24 1.47(3) . ? 
C23 H23 0.9500 . ? 
C24 C25 1.359(11) . ? 
C21' C22' 1.32(4) . ? 
C21' H21' 0.9500 . ? 
F2' C22' 1.349(12) . ? 
C22' S23' 1.763(14) . ? 
C25 C26 1.414(11) . ? 
C25 H25 0.9500 . ? 
C26 C27 1.378(12) . ? 
C27 C28 1.396(11) . ? 
C27 H27 0.9500 . ? 
C29 C30 1.194(11) . ? 
C31 C32 1.500(13) . ? 
C31 H31A 0.9900 . ? 
C31 H31B 0.9900 . ? 
C32 C33 1.493(14) . ? 
C32 C34 1.553(13) . ? 
C32 H32 1.0000 . ? 
C33 H33A 0.9800 . ? 
C33 H33B 0.9800 . ? 
C33 H33C 0.9800 . ? 
C34 H34A 0.9800 . ? 
C34 H34B 0.9800 . ? 
C34 H34C 0.9800 . ? 
C35 C36 1.532(11) . ? 
C35 H35A 0.9900 . ? 
C35 H35B 0.9900 . ? 
C36 C37 1.517(14) . ? 
C36 C38 1.541(12) . ? 
C36 H36 1.0000 . ? 
C37 H37A 0.9800 . ? 
C37 H37B 0.9800 . ? 
C37 H37C 0.9800 . ? 
C38 H38A 0.9800 . ? 
C38 H38B 0.9800 . ? 
C38 H38C 0.9800 . ? 
C39 C40 1.517(12) . ? 
C39 H39A 0.9900 . ? 
C39 H39B 0.9900 . ? 
C40 C41 1.524(13) . ? 
C40 C42 1.526(13) . ? 
C40 H40 1.0000 . ? 
C41 H41A 0.9800 . ? 
C41 H41B 0.9800 . ? 
C41 H41C 0.9800 . ? 
C42 H42A 0.9800 . ? 
C42 H42B 0.9800 . ? 
C42 H42C 0.9800 . ? 
C43 C44 1.179(11) . ? 
C45 C46 1.537(12) . ? 
C45 H45A 0.9900 . ? 
C45 H45B 0.9900 . ? 
C46 C47 1.488(13) . ? 
C46 C48 1.536(12) . ? 
C46 H46 1.0000 . ? 
C47 H47A 0.9800 . ? 
C47 H47B 0.9800 . ? 
C47 H47C 0.9800 . ? 
C48 H48A 0.9800 . ? 
C48 H48B 0.9800 . ? 
C48 H48C 0.9800 . ? 
C49 C50 1.524(12) . ? 
C49 H49A 0.9900 . ? 
C49 H49B 0.9900 . ? 
C50 C52 1.497(13) . ? 
C50 C51 1.544(12) . ? 
C50 H50 1.0000 . ? 
C51 H51A 0.9800 . ? 
C51 H51B 0.9800 . ? 
C51 H51C 0.9800 . ? 
C52 H52A 0.9800 . ? 
C52 H52B 0.9800 . ? 
C52 H52C 0.9800 . ? 
C53 C54 1.530(13) . ? 
C53 H53A 0.9900 . ? 
C53 H53B 0.9900 . ? 
C54 C55 1.509(14) . ? 
C54 C56 1.527(13) . ? 
C54 H54 1.0000 . ? 
C55 H55A 0.9800 . ? 
C55 H55B 0.9800 . ? 
C55 H55C 0.9800 . ? 
C56 H56A 0.9800 . ? 
C56 H56B 0.9800 . ? 
C56 H56C 0.9800 . ? 
 
loop_ 
 _geom_angle_atom_site_label_1 
 _geom_angle_atom_site_label_2 
 _geom_angle_atom_site_label_3 
 _geom_angle 
 _geom_angle_site_symmetry_1 
 _geom_angle_site_symmetry_3 
 _geom_angle_publ_flag 
C30 Si1 C35 106.9(4) . . ? 
C30 Si1 C39 108.0(4) . . ? 
C35 Si1 C39 110.1(4) . . ? 
C30 Si1 C31 106.5(4) . . ? 
C35 Si1 C31 112.9(4) . . ? 
C39 Si1 C31 112.2(4) . . ? 
C44 Si2 C45 110.1(4) . . ? 
C44 Si2 C53 103.5(4) . . ? 
C45 Si2 C53 114.4(4) . . ? 
C44 Si2 C49 112.0(4) . . ? 
C45 Si2 C49 107.1(4) . . ? 
C53 Si2 C49 109.8(4) . . ? 
C2 C1 C28 121.6(7) . . ? 
C2 C1 C29 120.4(7) . . ? 
C28 C1 C29 118.0(7) . . ? 
C3 C2 C1 121.8(7) . . ? 
C3 C2 C14 118.7(7) . . ? 
C1 C2 C14 119.5(7) . . ? 
C2 C3 C4 121.9(7) . . ? 
C2 C3 H3 119.1 . . ? 
C4 C3 H3 119.1 . . ? 
C3 C4 C12 119.3(7) . . ? 
C3 C4 C5 121.8(7) . . ? 
C12 C4 C5 118.8(7) . . ? 
C6 C5 C4 119.5(7) . . ? 
C6 C5 H5 120.2 . . ? 
C4 C5 H5 120.2 . . ? 
C5 C6 C10 121.8(7) . . ? 
C5 C6 S7 124.0(7) . . ? 
C10 C6 S7 114.2(5) . . ? 
C6 S7 C8 86.7(6) . . ? 
C9 C8 F1 130.7(18) . . ? 
C9 C8 S7 114.7(13) . . ? 
F1 C8 S7 114.3(12) . . ? 
C8 C9 C10 116(2) . . ? 
C8 C9 H9 122.0 . . ? 
C10 C9 H9 122.0 . . ? 
C11 C10 C6 119.7(7) . . ? 
C11 C10 C9 131.9(14) . . ? 
C6 C10 C9 108.4(14) . . ? 
C8' C7' H7' 121.8 . . ? 
C7' C8' F1' 131.6(19) . . ? 
C7' C8' S9' 113.7(14) . . ? 
F1' C8' S9' 113.5(13) . . ? 
C10 C11 C12 121.1(8) . . ? 
C10 C11 H11 119.5 . . ? 
C12 C11 H11 119.5 . . ? 
C13 C12 C4 119.2(7) . . ? 
C13 C12 C11 121.8(7) . . ? 
C4 C12 C11 119.0(7) . . ? 
C14 C13 C12 121.6(7) . . ? 
C14 C13 H13 119.2 . . ? 
C12 C13 H13 119.2 . . ? 
C13 C14 C15 121.6(7) . . ? 
C13 C14 C2 119.3(7) . . ? 
C15 C14 C2 119.1(7) . . ? 
C14 C15 C16 121.8(7) . . ? 
C14 C15 C43 119.0(7) . . ? 
C16 C15 C43 119.1(7) . . ? 
C17 C16 C15 122.6(7) . . ? 
C17 C16 C28 118.5(7) . . ? 
C15 C16 C28 118.9(7) . . ? 
C18 C17 C16 123.1(7) . . ? 
C18 C17 H17 118.4 . . ? 
C16 C17 H17 118.4 . . ? 
C17 C18 C19 121.8(7) . . ? 
C17 C18 C26 118.1(7) . . ? 
C19 C18 C26 120.1(7) . . ? 
C20 C19 C18 119.6(7) . . ? 
C20 C19 H19 120.2 . . ? 
C18 C19 H19 120.2 . . ? 
C19 C20 C24 121.0(7) . . ? 
C19 C20 S21 126.6(8) . . ? 
C24 C20 S21 112.5(7) . . ? 
C20 S21 C22 88.3(8) . . ? 
C23 C22 F2 127(2) . . ? 
C23 C22 S21 118.0(16) . . ? 
F2 C22 S21 114.2(14) . . ? 
C22 C23 C24 108(3) . . ? 
C22 C23 H23 125.8 . . ? 
C24 C23 H23 125.8 . . ? 
C25 C24 C20 120.1(6) . . ? 
C25 C24 C23 127.8(18) . . ? 
C20 C24 C23 111.9(17) . . ? 
C22' C21' H21' 124.8 . . ? 
C21' C22' F2' 127.1(16) . . ? 
C21' C22' S23' 117.3(14) . . ? 
F2' C22' S23' 115.5(8) . . ? 
C24 C25 C26 121.7(7) . . ? 
C24 C25 H25 119.2 . . ? 
C26 C25 H25 119.2 . . ? 
C27 C26 C25 123.3(8) . . ? 
C27 C26 C18 119.1(7) . . ? 
C25 C26 C18 117.6(8) . . ? 
C26 C27 C28 123.4(7) . . ? 
C26 C27 H27 118.3 . . ? 
C28 C27 H27 118.3 . . ? 
C27 C28 C1 123.3(7) . . ? 
C27 C28 C16 117.7(7) . . ? 
C1 C28 C16 119.0(7) . . ? 
C30 C29 C1 176.3(9) . . ? 
C29 C30 Si1 175.3(8) . . ? 
C32 C31 Si1 117.6(6) . . ? 
C32 C31 H31A 107.9 . . ? 
Si1 C31 H31A 107.9 . . ? 
C32 C31 H31B 107.9 . . ? 
Si1 C31 H31B 107.9 . . ? 
H31A C31 H31B 107.2 . . ? 
C33 C32 C31 114.9(8) . . ? 
C33 C32 C34 110.3(8) . . ? 
C31 C32 C34 111.2(8) . . ? 
C33 C32 H32 106.7 . . ? 
C31 C32 H32 106.7 . . ? 
C34 C32 H32 106.7 . . ? 
C32 C33 H33A 109.5 . . ? 
C32 C33 H33B 109.5 . . ? 
H33A C33 H33B 109.5 . . ? 
C32 C33 H33C 109.5 . . ? 
H33A C33 H33C 109.5 . . ? 
H33B C33 H33C 109.5 . . ? 
C32 C34 H34A 109.5 . . ? 
C32 C34 H34B 109.5 . . ? 
H34A C34 H34B 109.5 . . ? 
C32 C34 H34C 109.5 . . ? 
H34A C34 H34C 109.5 . . ? 
H34B C34 H34C 109.5 . . ? 
C36 C35 Si1 118.3(6) . . ? 
C36 C35 H35A 107.7 . . ? 
Si1 C35 H35A 107.7 . . ? 
C36 C35 H35B 107.7 . . ? 
Si1 C35 H35B 107.7 . . ? 
H35A C35 H35B 107.1 . . ? 
C37 C36 C35 112.2(7) . . ? 
C37 C36 C38 109.6(7) . . ? 
C35 C36 C38 109.6(7) . . ? 
C37 C36 H36 108.4 . . ? 
C35 C36 H36 108.4 . . ? 
C38 C36 H36 108.4 . . ? 
C36 C37 H37A 109.5 . . ? 
C36 C37 H37B 109.5 . . ? 
H37A C37 H37B 109.5 . . ? 
C36 C37 H37C 109.5 . . ? 
H37A C37 H37C 109.5 . . ? 
H37B C37 H37C 109.5 . . ? 
C36 C38 H38A 109.5 . . ? 
C36 C38 H38B 109.5 . . ? 
H38A C38 H38B 109.5 . . ? 
C36 C38 H38C 109.5 . . ? 
H38A C38 H38C 109.5 . . ? 
H38B C38 H38C 109.5 . . ? 
C40 C39 Si1 116.4(6) . . ? 
C40 C39 H39A 108.2 . . ? 
Si1 C39 H39A 108.2 . . ? 
C40 C39 H39B 108.2 . . ? 
Si1 C39 H39B 108.2 . . ? 
H39A C39 H39B 107.3 . . ? 
C39 C40 C41 112.7(8) . . ? 
C39 C40 C42 111.5(7) . . ? 
C41 C40 C42 109.0(8) . . ? 
C39 C40 H40 107.8 . . ? 
C41 C40 H40 107.8 . . ? 
C42 C40 H40 107.8 . . ? 
C40 C41 H41A 109.5 . . ? 
C40 C41 H41B 109.5 . . ? 
H41A C41 H41B 109.5 . . ? 
C40 C41 H41C 109.5 . . ? 
H41A C41 H41C 109.5 . . ? 
H41B C41 H41C 109.5 . . ? 
C40 C42 H42A 109.5 . . ? 
C40 C42 H42B 109.5 . . ? 
H42A C42 H42B 109.5 . . ? 
C40 C42 H42C 109.5 . . ? 
H42A C42 H42C 109.5 . . ? 
H42B C42 H42C 109.5 . . ? 
C44 C43 C15 176.1(9) . . ? 
C43 C44 Si2 170.6(8) . . ? 
C46 C45 Si2 116.4(6) . . ? 
C46 C45 H45A 108.2 . . ? 
Si2 C45 H45A 108.2 . . ? 
C46 C45 H45B 108.2 . . ? 
Si2 C45 H45B 108.2 . . ? 
H45A C45 H45B 107.3 . . ? 
C47 C46 C45 112.2(8) . . ? 
C47 C46 C48 110.6(8) . . ? 
C45 C46 C48 111.6(8) . . ? 
C47 C46 H46 107.4 . . ? 
C45 C46 H46 107.4 . . ? 
C48 C46 H46 107.4 . . ? 
C46 C47 H47A 109.5 . . ? 
C46 C47 H47B 109.5 . . ? 
H47A C47 H47B 109.5 . . ? 
C46 C47 H47C 109.5 . . ? 
H47A C47 H47C 109.5 . . ? 
H47B C47 H47C 109.5 . . ? 
C46 C48 H48A 109.5 . . ? 
C46 C48 H48B 109.5 . . ? 
H48A C48 H48B 109.5 . . ? 
C46 C48 H48C 109.5 . . ? 
H48A C48 H48C 109.5 . . ? 
H48B C48 H48C 109.5 . . ? 
C50 C49 Si2 118.0(6) . . ? 
C50 C49 H49A 107.8 . . ? 
Si2 C49 H49A 107.8 . . ? 
C50 C49 H49B 107.8 . . ? 
Si2 C49 H49B 107.8 . . ? 
H49A C49 H49B 107.2 . . ? 
C52 C50 C49 110.8(7) . . ? 
C52 C50 C51 110.7(7) . . ? 
C49 C50 C51 111.5(6) . . ? 
C52 C50 H50 107.9 . . ? 
C49 C50 H50 107.9 . . ? 
C51 C50 H50 107.9 . . ? 
C50 C51 H51A 109.5 . . ? 
C50 C51 H51B 109.5 . . ? 
H51A C51 H51B 109.5 . . ? 
C50 C51 H51C 109.5 . . ? 
H51A C51 H51C 109.5 . . ? 
H51B C51 H51C 109.5 . . ? 
C50 C52 H52A 109.5 . . ? 
C50 C52 H52B 109.5 . . ? 
H52A C52 H52B 109.5 . . ? 
C50 C52 H52C 109.5 . . ? 
H52A C52 H52C 109.5 . . ? 
H52B C52 H52C 109.5 . . ? 
C54 C53 Si2 118.2(6) . . ? 
C54 C53 H53A 107.8 . . ? 
Si2 C53 H53A 107.8 . . ? 
C54 C53 H53B 107.8 . . ? 
Si2 C53 H53B 107.8 . . ? 
H53A C53 H53B 107.1 . . ? 
C55 C54 C56 110.6(8) . . ? 
C55 C54 C53 113.1(8) . . ? 
C56 C54 C53 110.5(8) . . ? 
C55 C54 H54 107.5 . . ? 
C56 C54 H54 107.5 . . ? 
C53 C54 H54 107.5 . . ? 
C54 C55 H55A 109.5 . . ? 
C54 C55 H55B 109.5 . . ? 
H55A C55 H55B 109.5 . . ? 
C54 C55 H55C 109.5 . . ? 
H55A C55 H55C 109.5 . . ? 
H55B C55 H55C 109.5 . . ? 
C54 C56 H56A 109.5 . . ? 
C54 C56 H56B 109.5 . . ? 
H56A C56 H56B 109.5 . . ? 
C54 C56 H56C 109.5 . . ? 
H56A C56 H56C 109.5 . . ? 
H56B C56 H56C 109.5 . . ? 
 
loop_ 
 _geom_torsion_atom_site_label_1 
 _geom_torsion_atom_site_label_2 
 _geom_torsion_atom_site_label_3 
 _geom_torsion_atom_site_label_4 
 _geom_torsion 
 _geom_torsion_site_symmetry_1 
 _geom_torsion_site_symmetry_2 
 _geom_torsion_site_symmetry_3 
 _geom_torsion_site_symmetry_4 
 _geom_torsion_publ_flag 
C28 C1 C2 C3 -178.9(8) . . . . ? 
C29 C1 C2 C3 3.8(12) . . . . ? 
C28 C1 C2 C14 1.8(11) . . . . ? 
C29 C1 C2 C14 -175.5(7) . . . . ? 
C1 C2 C3 C4 -179.7(7) . . . . ? 
C14 C2 C3 C4 -0.4(11) . . . . ? 
C2 C3 C4 C12 1.2(12) . . . . ? 
C2 C3 C4 C5 -179.8(8) . . . . ? 
C3 C4 C5 C6 -178.1(7) . . . . ? 
C12 C4 C5 C6 0.8(11) . . . . ? 
C4 C5 C6 C10 1.3(11) . . . . ? 
C4 C5 C6 S7 -180.0(6) . . . . ? 
C5 C6 S7 C8 -178.7(11) . . . . ? 
C10 C6 S7 C8 0.06(15) . . . . ? 
C6 S7 C8 C9 0.03(16) . . . . ? 
C6 S7 C8 F1 175.4(19) . . . . ? 
F1 C8 C9 C10 -174(2) . . . . ? 
S7 C8 C9 C10 -0.1(3) . . . . ? 
C5 C6 C10 C11 -1.1(11) . . . . ? 
S7 C6 C10 C11 -179.9(7) . . . . ? 
C5 C6 C10 C9 178.7(11) . . . . ? 
S7 C6 C10 C9 -0.1(3) . . . . ? 
C8 C9 C10 C11 179.9(8) . . . . ? 
C8 C9 C10 C6 0.1(4) . . . . ? 
C6 C10 C11 C12 -1.3(11) . . . . ? 
C9 C10 C11 C12 178.9(9) . . . . ? 
C3 C4 C12 C13 -0.5(11) . . . . ? 
C5 C4 C12 C13 -179.5(7) . . . . ? 
C3 C4 C12 C11 175.9(7) . . . . ? 
C5 C4 C12 C11 -3.1(11) . . . . ? 
C10 C11 C12 C13 179.7(7) . . . . ? 
C10 C11 C12 C4 3.4(11) . . . . ? 
C4 C12 C13 C14 -1.0(11) . . . . ? 
C11 C12 C13 C14 -177.3(7) . . . . ? 
C12 C13 C14 C15 -178.6(7) . . . . ? 
C12 C13 C14 C2 1.8(11) . . . . ? 
C3 C2 C14 C13 -1.1(11) . . . . ? 
C1 C2 C14 C13 178.2(7) . . . . ? 
C3 C2 C14 C15 179.3(7) . . . . ? 
C1 C2 C14 C15 -1.4(11) . . . . ? 
C13 C14 C15 C16 -177.7(7) . . . . ? 
C2 C14 C15 C16 1.9(11) . . . . ? 
C13 C14 C15 C43 3.6(11) . . . . ? 
C2 C14 C15 C43 -176.8(7) . . . . ? 
C14 C15 C16 C17 179.8(8) . . . . ? 
C43 C15 C16 C17 -1.5(11) . . . . ? 
C14 C15 C16 C28 -2.8(11) . . . . ? 
C43 C15 C16 C28 175.9(7) . . . . ? 
C15 C16 C17 C18 177.8(7) . . . . ? 
C28 C16 C17 C18 0.4(12) . . . . ? 
C16 C17 C18 C19 178.4(8) . . . . ? 
C16 C17 C18 C26 -1.3(12) . . . . ? 
C17 C18 C19 C20 178.8(7) . . . . ? 
C26 C18 C19 C20 -1.6(12) . . . . ? 
C18 C19 C20 C24 0.9(12) . . . . ? 
C18 C19 C20 S21 -177.4(13) . . . . ? 
C19 C20 S21 C22 179(2) . . . . ? 
C24 C20 S21 C22 1(2) . . . . ? 
C20 S21 C22 C23 -7(5) . . . . ? 
C20 S21 C22 F2 -175(4) . . . . ? 
F2 C22 C23 C24 177(5) . . . . ? 
S21 C22 C23 C24 11(6) . . . . ? 
C19 C20 C24 C25 0.8(12) . . . . ? 
S21 C20 C24 C25 179.3(12) . . . . ? 
C19 C20 C24 C23 -174(2) . . . . ? 
S21 C20 C24 C23 5(3) . . . . ? 
C22 C23 C24 C25 176(3) . . . . ? 
C22 C23 C24 C20 -10(5) . . . . ? 
C20 C24 C25 C26 -1.9(12) . . . . ? 
C23 C24 C25 C26 172(3) . . . . ? 
C24 C25 C26 C27 178.8(8) . . . . ? 
C24 C25 C26 C18 1.2(12) . . . . ? 
C17 C18 C26 C27 2.4(11) . . . . ? 
C19 C18 C26 C27 -177.2(8) . . . . ? 
C17 C18 C26 C25 -179.9(7) . . . . ? 
C19 C18 C26 C25 0.5(11) . . . . ? 
C25 C26 C27 C28 179.6(8) . . . . ? 
C18 C26 C27 C28 -2.9(12) . . . . ? 
C26 C27 C28 C1 -179.4(8) . . . . ? 
C26 C27 C28 C16 2.0(12) . . . . ? 
C2 C1 C28 C27 178.6(7) . . . . ? 
C29 C1 C28 C27 -4.0(12) . . . . ? 
C2 C1 C28 C16 -2.7(12) . . . . ? 
C29 C1 C28 C16 174.7(7) . . . . ? 
C17 C16 C28 C27 -0.7(11) . . . . ? 
C15 C16 C28 C27 -178.1(7) . . . . ? 
C17 C16 C28 C1 -179.4(7) . . . . ? 
C15 C16 C28 C1 3.1(11) . . . . ? 
C2 C1 C29 C30 124(13) . . . . ? 
C28 C1 C29 C30 -53(13) . . . . ? 
C1 C29 C30 Si1 31(19) . . . . ? 
C35 Si1 C30 C29 80(9) . . . . ? 
C39 Si1 C30 C29 -162(9) . . . . ? 
C31 Si1 C30 C29 -41(9) . . . . ? 
C30 Si1 C31 C32 -30.6(8) . . . . ? 
C35 Si1 C31 C32 -147.6(7) . . . . ? 
C39 Si1 C31 C32 87.4(8) . . . . ? 
Si1 C31 C32 C33 -55.7(10) . . . . ? 
Si1 C31 C32 C34 178.2(6) . . . . ? 
C30 Si1 C35 C36 -33.6(7) . . . . ? 
C39 Si1 C35 C36 -150.6(6) . . . . ? 
C31 Si1 C35 C36 83.2(7) . . . . ? 
Si1 C35 C36 C37 -69.5(8) . . . . ? 
Si1 C35 C36 C38 168.5(6) . . . . ? 
C30 Si1 C39 C40 -151.8(7) . . . . ? 
C35 Si1 C39 C40 -35.4(8) . . . . ? 
C31 Si1 C39 C40 91.2(7) . . . . ? 
Si1 C39 C40 C41 -61.7(9) . . . . ? 
Si1 C39 C40 C42 175.4(7) . . . . ? 
C14 C15 C43 C44 52(12) . . . . ? 
C16 C15 C43 C44 -127(12) . . . . ? 
C15 C43 C44 Si2 -12(16) . . . . ? 
C45 Si2 C44 C43 101(4) . . . . ? 
C53 Si2 C44 C43 -21(4) . . . . ? 
C49 Si2 C44 C43 -140(4) . . . . ? 
C44 Si2 C45 C46 79.5(7) . . . . ? 
C53 Si2 C45 C46 -164.4(6) . . . . ? 
C49 Si2 C45 C46 -42.4(7) . . . . ? 
Si2 C45 C46 C47 -67.6(9) . . . . ? 
Si2 C45 C46 C48 167.7(6) . . . . ? 
C44 Si2 C49 C50 75.8(6) . . . . ? 
C45 Si2 C49 C50 -163.4(6) . . . . ? 
C53 Si2 C49 C50 -38.6(7) . . . . ? 
Si2 C49 C50 C52 169.0(6) . . . . ? 
Si2 C49 C50 C51 -67.2(8) . . . . ? 
C44 Si2 C53 C54 51.0(7) . . . . ? 
C45 Si2 C53 C54 -68.8(7) . . . . ? 
C49 Si2 C53 C54 170.7(6) . . . . ? 
Si2 C53 C54 C55 69.8(9) . . . . ? 
Si2 C53 C54 C56 -165.6(6) . . . . ? 
 
_diffrn_measured_fraction_theta_max    0.793 
_diffrn_reflns_theta_full              59.98 
_diffrn_measured_fraction_theta_full   0.793 
_refine_diff_density_max    0.454 
_refine_diff_density_min   -0.480 
_refine_diff_density_rms    0.101 
