 
data_shelxl 
 
_audit_creation_method            SHELXL-97 
_chemical_name_systematic 
; 
 ? 
; 
_chemical_name_common             ? 
_chemical_melting_point           ? 
_chemical_formula_moiety          ? 
_chemical_formula_sum 
 'C46 H54 O4 Si2' 
_chemical_formula_weight          727.07 
 
loop_ 
 _atom_type_symbol 
 _atom_type_description 
 _atom_type_scat_dispersion_real 
 _atom_type_scat_dispersion_imag 
 _atom_type_scat_source 
 'C'  'C'   0.0033   0.0016 
 'International Tables Vol C Tables 4.2.6.8 and 6.1.1.4' 
 'H'  'H'   0.0000   0.0000 
 'International Tables Vol C Tables 4.2.6.8 and 6.1.1.4' 
 'O'  'O'   0.0106   0.0060 
 'International Tables Vol C Tables 4.2.6.8 and 6.1.1.4' 
 'Si'  'Si'   0.0817   0.0704 
 'International Tables Vol C Tables 4.2.6.8 and 6.1.1.4' 
 
_symmetry_cell_setting            ? 
_symmetry_space_group_name_H-M    ? 
 
loop_ 
 _symmetry_equiv_pos_as_xyz 
 'x, y, z' 
 '-x+1/2, y+1/2, -z+1/2' 
 '-x, -y, -z' 
 'x-1/2, -y-1/2, z-1/2' 
 
_cell_length_a                    17.9980(7) 
_cell_length_b                    17.7810(8) 
_cell_length_c                    25.7650(14) 
_cell_angle_alpha                 90.00 
_cell_angle_beta                  99.7060(19) 
_cell_angle_gamma                 90.00 
_cell_volume                      8127.4(7) 
_cell_formula_units_Z             8 
_cell_measurement_temperature     293(2) 
_cell_measurement_reflns_used     ? 
_cell_measurement_theta_min       ? 
_cell_measurement_theta_max       ? 
 
_exptl_crystal_description        ? 
_exptl_crystal_colour             ? 
_exptl_crystal_size_max           ? 
_exptl_crystal_size_mid           ? 
_exptl_crystal_size_min           ? 
_exptl_crystal_density_meas       ? 
_exptl_crystal_density_diffrn     1.188 
_exptl_crystal_density_method     'not measured' 
_exptl_crystal_F_000              3120 
_exptl_absorpt_coefficient_mu     0.129 
_exptl_absorpt_correction_type    ? 
_exptl_absorpt_correction_T_min   ? 
_exptl_absorpt_correction_T_max   ? 
_exptl_absorpt_process_details    ? 
 
_exptl_special_details 
; 
 ? 
; 
 
_diffrn_ambient_temperature       293(2) 
_diffrn_radiation_wavelength      0.71073 
_diffrn_radiation_type            MoK\a 
_diffrn_radiation_source          'fine-focus sealed tube' 
_diffrn_radiation_monochromator   graphite 
_diffrn_measurement_device_type   ? 
_diffrn_measurement_method        ? 
_diffrn_detector_area_resol_mean  ? 
_diffrn_standards_number          ? 
_diffrn_standards_interval_count  ? 
_diffrn_standards_interval_time   ? 
_diffrn_standards_decay_%         ? 
_diffrn_reflns_number             19642 
_diffrn_reflns_av_R_equivalents   0.2542 
_diffrn_reflns_av_sigmaI/netI     0.2565 
_diffrn_reflns_limit_h_min        -19 
_diffrn_reflns_limit_h_max        19 
_diffrn_reflns_limit_k_min        -18 
_diffrn_reflns_limit_k_max        18 
_diffrn_reflns_limit_l_min        -27 
_diffrn_reflns_limit_l_max        27 
_diffrn_reflns_theta_min          1.28 
_diffrn_reflns_theta_max          22.38 
_reflns_number_total              10397 
_reflns_number_gt                 3683 
_reflns_threshold_expression      >2sigma(I) 
 
_computing_data_collection        ? 
_computing_cell_refinement        ? 
_computing_data_reduction         ? 
_computing_structure_solution     'SHELXS-97 (Sheldrick, 1990)' 
_computing_structure_refinement   'SHELXL-97 (Sheldrick, 1997)' 
_computing_molecular_graphics     ? 
_computing_publication_material   ? 
 
_refine_special_details 
; 
 Refinement of F^2^ against ALL reflections.  The weighted R-factor wR and 
 goodness of fit S are based on F^2^, conventional R-factors R are based 
 on F, with F set to zero for negative F^2^. The threshold expression of 
 F^2^ > 2sigma(F^2^) is used only for calculating R-factors(gt) etc. and is 
 not relevant to the choice of reflections for refinement.  R-factors based 
 on F^2^ are statistically about twice as large as those based on F, and R- 
 factors based on ALL data will be even larger. 
; 
 
_refine_ls_structure_factor_coef  Fsqd  
_refine_ls_matrix_type            full 
_refine_ls_weighting_scheme       calc  
_refine_ls_weighting_details 
 'calc w=1/[\s^2^(Fo^2^)+(0.1000P)^2^+0.0000P] where P=(Fo^2^+2Fc^2^)/3' 
_atom_sites_solution_primary      direct 
_atom_sites_solution_secondary    difmap 
_atom_sites_solution_hydrogens    geom 
_refine_ls_hydrogen_treatment     mixed 
_refine_ls_extinction_method      none 
_refine_ls_extinction_coef        ? 
_refine_ls_number_reflns          10397 
_refine_ls_number_parameters      437 
_refine_ls_number_restraints      0 
_refine_ls_R_factor_all           0.3782 
_refine_ls_R_factor_gt            0.1857 
_refine_ls_wR_factor_ref          0.4139 
_refine_ls_wR_factor_gt           0.3597 
_refine_ls_goodness_of_fit_ref    1.607 
_refine_ls_restrained_S_all       1.607 
_refine_ls_shift/su_max           1.104 
_refine_ls_shift/su_mean          0.092 
 
loop_ 
 _atom_site_label 
 _atom_site_type_symbol 
 _atom_site_fract_x 
 _atom_site_fract_y 
 _atom_site_fract_z 
 _atom_site_U_iso_or_equiv 
 _atom_site_adp_type 
 _atom_site_occupancy 
 _atom_site_symmetry_multiplicity 
 _atom_site_calc_flag 
 _atom_site_refinement_flags 
 _atom_site_disorder_assembly 
 _atom_site_disorder_group 
Si1 Si 0.9803(2) 0.2101(2) 0.14344(16) 0.0486(13) Uani 1 1 d . . . 
Si2 Si 0.6257(2) 0.2965(2) 0.48396(17) 0.0488(14) Uani 1 1 d . . . 
Si3 Si 1.1002(3) 0.8151(2) 0.27688(18) 0.0624(16) Uani 1 1 d . . . 
Si4 Si 0.7860(3) 0.7562(2) 0.63479(17) 0.0542(14) Uani 1 1 d . . . 
O7 O 0.8852(5) 0.6422(5) 0.2445(3) 0.048(3) Uiso 1 1 d . . . 
O11 O 1.0011(5) 0.3815(5) 0.3747(3) 0.051(3) Uiso 1 1 d . . . 
C78 C 0.7768(6) 0.1877(7) 0.3433(5) 0.030(4) Uiso 1 1 d . . . 
O5 O 0.8002(5) -0.1700(5) 0.3267(3) 0.051(3) Uiso 1 1 d . . . 
C20 C 0.9804(6) 0.6539(8) 0.3938(5) 0.037(4) Uiso 1 1 d . . . 
O6 O 0.7277(5) -0.1456(5) 0.3894(3) 0.053(3) Uiso 1 1 d . . . 
C73 C 0.8660(6) 0.3710(7) 0.2638(5) 0.033(4) Uiso 1 1 d . . . 
O10 O 0.8401(5) 1.1686(5) 0.5205(3) 0.054(3) Uiso 1 1 d . . . 
O12 O 0.9316(4) 0.3559(5) 0.4401(3) 0.048(3) Uiso 1 1 d . . . 
C36 C 0.8857(7) 0.7583(7) 0.4898(5) 0.036(4) Uiso 1 1 d . . . 
O8 O 0.8156(5) 0.6671(5) 0.3097(3) 0.050(3) Uiso 1 1 d . . . 
C23 C 0.9549(6) 0.7150(7) 0.4208(5) 0.034(4) Uiso 1 1 d . . . 
C75 C 0.7769(7) 0.3998(8) 0.3422(5) 0.042(4) Uiso 1 1 d . . . 
C77 C 0.7610(6) 0.2634(7) 0.3540(5) 0.032(4) Uiso 1 1 d . . . 
C76 C 0.7913(7) 0.3245(7) 0.3290(5) 0.039(4) Uiso 1 1 d . . . 
C74 C 0.8379(7) 0.3076(7) 0.2893(5) 0.036(4) Uiso 1 1 d . . . 
C88 C 0.8523(6) 0.2327(7) 0.2763(5) 0.029(4) Uiso 1 1 d . . . 
C85 C 0.8058(6) 0.0379(7) 0.3173(5) 0.028(4) Uiso 1 1 d . . . 
C18 C 0.9678(7) 0.5791(8) 0.4086(5) 0.037(4) Uiso 1 1 d . . . 
C79 C 0.7475(7) 0.1272(8) 0.3691(5) 0.040(4) Uiso 1 1 d . . . 
O9 O 0.9184(5) 1.1957(5) 0.4596(3) 0.052(3) Uiso 1 1 d . . . 
C72 C 0.8825(7) 0.5052(7) 0.2493(5) 0.038(4) Uiso 1 1 d . . . 
C22 C 0.9112(7) 0.6998(7) 0.4625(5) 0.035(4) Uiso 1 1 d . . . 
C19 C 0.9970(7) 0.5198(7) 0.3803(5) 0.034(4) Uiso 1 1 d . . . 
C67 C 0.8636(7) 0.5753(8) 0.2644(5) 0.037(4) Uiso 1 1 d . . . 
C86 C 0.8365(7) 0.0956(7) 0.2907(5) 0.035(4) Uiso 1 1 d . . . 
C84 C 0.8243(7) -0.0364(8) 0.3045(5) 0.044(4) Uiso 1 1 d . . . 
C87 C 0.8238(6) 0.1742(7) 0.3033(4) 0.026(4) Uiso 1 1 d . . . 
C45 C 0.8987(6) 0.8363(7) 0.4768(5) 0.027(4) Uiso 1 1 d . . . 
C81 C 0.7332(7) -0.0074(8) 0.3852(5) 0.042(4) Uiso 1 1 d . . . 
C21 C 0.8994(7) 0.6217(8) 0.4772(5) 0.042(4) Uiso 1 1 d . . . 
C83 C 0.7954(7) -0.0920(8) 0.3310(5) 0.044(4) Uiso 1 1 d . . . 
C46 C 0.9428(7) 0.8517(7) 0.4365(5) 0.033(4) Uiso 1 1 d . . . 
C80 C 0.7601(7) 0.0521(7) 0.3562(5) 0.034(4) Uiso 1 1 d . . . 
C52 C 0.9451(7) 1.0637(8) 0.4362(5) 0.052(4) Uiso 1 1 d . . . 
C89 C 0.8963(7) 0.2175(7) 0.2361(5) 0.046(4) Uiso 1 1 d . . . 
C17 C 0.9255(7) 0.5647(7) 0.4485(5) 0.036(4) Uiso 1 1 d . . . 
C70 C 0.8060(7) 0.4598(7) 0.3159(5) 0.035(4) Uiso 1 1 d . . . 
C71 C 0.8511(6) 0.4450(7) 0.2771(5) 0.030(4) Uiso 1 1 d . . . 
C25 C 1.0125(6) 0.8048(7) 0.3666(5) 0.029(4) Uiso 1 1 d . . . 
C15 C 0.9383(7) 0.4344(8) 0.4347(5) 0.048(4) Uiso 1 1 d . . . 
C48 C 0.8685(7) 0.8952(8) 0.5027(5) 0.040(4) Uiso 1 1 d . . . 
C54 C 0.8656(7) 1.1017(7) 0.5008(5) 0.036(4) Uiso 1 1 d . . . 
C69 C 0.7911(7) 0.5357(7) 0.3315(5) 0.038(4) Uiso 1 1 d . . . 
C51 C 0.9277(6) 0.9852(7) 0.4503(5) 0.031(4) Uiso 1 1 d . . . 
C68 C 0.8209(7) 0.5902(7) 0.3041(5) 0.034(4) Uiso 1 1 d . . . 
C82 C 0.7490(7) -0.0767(8) 0.3716(5) 0.045(4) Uiso 1 1 d . . . 
C58 C 0.7012(7) 0.3078(7) 0.5434(5) 0.046(4) Uiso 1 1 d . . . 
C16 C 0.9095(6) 0.4871(7) 0.4646(5) 0.033(4) Uiso 1 1 d . . . 
C24 C 0.9695(7) 0.7905(8) 0.4071(5) 0.036(4) Uiso 1 1 d . . . 
C50 C 0.8809(7) 0.9702(7) 0.4894(5) 0.035(4) Uiso 1 1 d . . . 
C49 C 0.8486(6) 1.0306(7) 0.5157(5) 0.031(4) Uiso 1 1 d . . . 
C14 C 0.9797(7) 0.4487(8) 0.3943(5) 0.036(4) Uiso 1 1 d . . . 
C90 C 0.9307(6) 0.2102(7) 0.1997(5) 0.035(4) Uiso 1 1 d . . . 
C59 C 0.5629(7) 0.3816(7) 0.4754(5) 0.040(4) Uiso 1 1 d . . . 
C47 C 0.9546(7) 0.9265(8) 0.4220(5) 0.044(4) Uiso 1 1 d . . . 
C26 C 1.0475(7) 0.8118(7) 0.3332(5) 0.035(4) Uiso 1 1 d . . . 
C95 C 0.9603(8) 0.3671(8) 0.1252(5) 0.063(5) Uiso 1 1 d . . . 
C37 C 0.8467(7) 0.7469(7) 0.5327(5) 0.037(4) Uiso 1 1 d . . . 
C91 C 1.1240(8) 0.1478(8) 0.1891(5) 0.055(5) Uiso 1 1 d . . . 
C93 C 1.0512(7) 0.1316(7) 0.1504(5) 0.047(4) Uiso 1 1 d . . . 
C62 C 0.5702(7) 0.2067(8) 0.4866(5) 0.052(4) Uiso 1 1 d . . . 
C96 C 0.9087(7) 0.1940(8) 0.0853(5) 0.047(4) Uiso 1 1 d . . . 
C39 C 0.8255(8) 0.6829(8) 0.6841(5) 0.061(5) Uiso 1 1 d . . . 
C53 C 0.9120(7) 1.1175(8) 0.4628(5) 0.045(4) Uiso 1 1 d . . . 
C94 C 1.0291(8) 0.3054(8) 0.1435(5) 0.059(5) Uiso 1 1 d . . . 
C65 C 0.6759(7) 0.2877(8) 0.4261(5) 0.042(4) Uiso 1 1 d . . . 
C92 C 1.1809(8) 0.0775(8) 0.1969(6) 0.064(5) Uiso 1 1 d . . . 
C66 C 0.7134(7) 0.2785(7) 0.3924(5) 0.037(4) Uiso 1 1 d . . . 
C60 C 0.4880(8) 0.3670(8) 0.4368(6) 0.060(5) Uiso 1 1 d . . . 
C35 C 0.8577(7) 0.7064(7) 0.2736(5) 0.041(4) Uiso 1 1 d . . . 
C97 C 0.8711(8) 0.1150(8) 0.0850(6) 0.062(5) Uiso 1 1 d . . . 
C55 C 0.8730(7) 1.2315(7) 0.4929(5) 0.036(4) Uiso 1 1 d . . . 
C38 C 0.8165(6) 0.7403(7) 0.5707(5) 0.034(4) Uiso 1 1 d . . . 
C61 C 0.4357(7) 0.4387(8) 0.4283(5) 0.055(4) Uiso 1 1 d . . . 
C13 C 0.9737(7) 0.3176(7) 0.4027(5) 0.037(4) Uiso 1 1 d . . . 
C43 C 0.8275(7) 0.8504(8) 0.6577(5) 0.052(4) Uiso 1 1 d . . . 
C63 C 0.6268(9) 0.1385(9) 0.4962(6) 0.081(6) Uiso 1 1 d . . . 
C57 C 0.7496(8) 0.3796(8) 0.5407(6) 0.065(5) Uiso 1 1 d . . . 
C32 C 0.9746(13) 0.8970(13) 0.2202(9) 0.146(9) Uiso 1 1 d . . . 
C42 C 0.6808(8) 0.7537(8) 0.6254(6) 0.064(5) Uiso 1 1 d . . . 
C98 C 0.8029(9) 0.1023(9) 0.0390(6) 0.078(5) Uiso 1 1 d . . . 
C56 C 0.8184(9) 0.3787(9) 0.5895(6) 0.080(5) Uiso 1 1 d . . . 
C34 C 0.9269(9) 0.9488(10) 0.1824(6) 0.088(6) Uiso 1 1 d . . . 
C44 C 0.6372(8) 0.8271(9) 0.6030(6) 0.073(5) Uiso 1 1 d . . . 
C64 C 0.5770(8) 0.0609(9) 0.4936(6) 0.075(5) Uiso 1 1 d . . . 
C41 C 0.9167(8) 0.8492(8) 0.6623(5) 0.056(5) Uiso 1 1 d . . . 
C30 C 1.2219(14) 0.8954(14) 0.3443(10) 0.165(10) Uiso 1 1 d . . . 
C31 C 1.0466(14) 0.8718(13) 0.2253(9) 0.158(9) Uiso 1 1 d . . . 
C40 C 0.7852(12) 0.5972(13) 0.6611(9) 0.141(9) Uiso 1 1 d . . . 
C33 C 1.1905(12) 0.8661(13) 0.3002(9) 0.147(9) Uiso 1 1 d . . . 
C99 C 0.7585(7) -0.2086(7) 0.3633(5) 0.041(4) Uiso 1 1 d . . . 
C100 C 0.832(3) 0.574(3) 0.694(2) 0.52(4) Uiso 1 1 d . . . 
C101 C 0.9991(8) 0.4494(8) 0.1354(6) 0.064(5) Uiso 1 1 d . . . 
C102 C 0.9463(7) 0.9310(8) 0.6818(5) 0.057(5) Uiso 1 1 d . . . 
C103 C 0.6453(8) 0.8388(9) 0.5441(6) 0.081(6) Uiso 1 1 d . . . 
C104 C 1.2938(9) 0.9397(9) 0.3603(6) 0.085(6) Uiso 1 1 d . . . 
C107 C 1.0934(15) 0.5914(17) 0.2501(10) 0.218(12) Uiso 1 1 d . . . 
C105 C 1.1301(12) 0.7087(12) 0.2705(8) 0.138(8) Uiso 1 1 d . . . 
C106 C 1.0612(16) 0.6905(18) 0.2337(11) 0.225(13) Uiso 1 1 d . . . 
 
loop_ 
 _atom_site_aniso_label 
 _atom_site_aniso_U_11 
 _atom_site_aniso_U_22 
 _atom_site_aniso_U_33 
 _atom_site_aniso_U_23 
 _atom_site_aniso_U_13 
 _atom_site_aniso_U_12 
Si1 0.068(3) 0.029(3) 0.053(3) 0.000(2) 0.023(3) -0.002(3) 
Si2 0.058(3) 0.033(3) 0.061(3) -0.005(2) 0.025(3) 0.000(2) 
Si3 0.096(4) 0.026(3) 0.074(4) 0.012(3) 0.040(3) 0.008(3) 
Si4 0.076(3) 0.035(3) 0.055(3) -0.002(3) 0.020(3) -0.003(3) 
 
_geom_special_details 
; 
 All esds (except the esd in the dihedral angle between two l.s. planes) 
 are estimated using the full covariance matrix.  The cell esds are taken 
 into account individually in the estimation of esds in distances, angles 
 and torsion angles; correlations between esds in cell parameters are only 
 used when they are defined by crystal symmetry.  An approximate (isotropic) 
 treatment of cell esds is used for estimating esds involving l.s. planes. 
; 
 
loop_ 
 _geom_bond_atom_site_label_1 
 _geom_bond_atom_site_label_2 
 _geom_bond_distance 
 _geom_bond_site_symmetry_2 
 _geom_bond_publ_flag 
Si1 C90 1.827(13) . ? 
Si1 C96 1.827(13) . ? 
Si1 C93 1.880(13) . ? 
Si1 C94 1.908(14) . ? 
Si2 C58 1.879(14) . ? 
Si2 C65 1.876(13) . ? 
Si2 C62 1.890(14) . ? 
Si2 C59 1.880(13) . ? 
Si3 C31 1.81(2) . ? 
Si3 C26 1.864(13) . ? 
Si3 C33 1.87(2) . ? 
Si3 C105 1.98(2) . ? 
Si4 C38 1.848(13) . ? 
Si4 C42 1.868(14) . ? 
Si4 C39 1.874(15) . ? 
Si4 C43 1.887(14) . ? 
O7 C67 1.376(13) . ? 
O7 C35 1.494(13) . ? 
O11 C14 1.379(13) . ? 
O11 C13 1.476(13) . ? 
C78 C79 1.414(15) . ? 
C78 C77 1.412(15) . ? 
C78 C87 1.459(14) . ? 
O5 C83 1.396(14) . ? 
O5 C99 1.470(13) . ? 
C20 C18 1.412(16) . ? 
C20 C23 1.409(15) . ? 
O6 C82 1.387(14) . ? 
O6 C99 1.462(13) . ? 
C73 C71 1.397(15) . ? 
C73 C74 1.440(15) . ? 
O10 C54 1.399(13) . ? 
O10 C55 1.499(13) . ? 
O12 C15 1.409(14) . ? 
O12 C13 1.486(13) . ? 
C36 C22 1.377(15) . ? 
C36 C37 1.422(15) . ? 
C36 C45 1.454(15) . ? 
O8 C68 1.379(13) . ? 
O8 C35 1.471(13) . ? 
C23 C24 1.424(16) . ? 
C23 C22 1.458(15) . ? 
C75 C70 1.411(15) . ? 
C75 C76 1.416(16) . ? 
C77 C76 1.418(15) . ? 
C77 C66 1.440(15) . ? 
C76 C74 1.459(15) . ? 
C74 C88 1.408(15) . ? 
C88 C87 1.397(14) . ? 
C88 C89 1.430(15) . ? 
C85 C86 1.400(14) . ? 
C85 C84 1.414(15) . ? 
C85 C80 1.421(15) . ? 
C18 C17 1.403(15) . ? 
C18 C19 1.430(15) . ? 
C79 C80 1.404(15) . ? 
O9 C53 1.399(14) . ? 
O9 C55 1.429(13) . ? 
C72 C67 1.366(16) . ? 
C72 C71 1.455(15) . ? 
C22 C21 1.465(16) . ? 
C19 C14 1.365(15) . ? 
C67 C68 1.403(15) . ? 
C86 C87 1.460(15) . ? 
C84 C83 1.353(16) . ? 
C45 C48 1.399(15) . ? 
C45 C46 1.436(14) . ? 
C81 C82 1.324(16) . ? 
C81 C80 1.426(15) . ? 
C21 C17 1.381(15) . ? 
C83 C82 1.469(16) . ? 
C46 C47 1.407(16) . ? 
C46 C24 1.452(15) . ? 
C52 C53 1.371(16) . ? 
C52 C51 1.488(16) . ? 
C89 C90 1.214(14) . ? 
C17 C16 1.483(16) . ? 
C70 C71 1.415(15) . ? 
C70 C69 1.445(15) . ? 
C25 C26 1.156(13) . ? 
C25 C24 1.423(14) . ? 
C15 C16 1.368(15) . ? 
C15 C14 1.401(15) . ? 
C48 C50 1.404(15) . ? 
C54 C49 1.370(15) . ? 
C54 C53 1.419(15) . ? 
C69 C68 1.363(15) . ? 
C51 C47 1.405(15) . ? 
C51 C50 1.443(14) . ? 
C58 C57 1.554(17) . ? 
C50 C49 1.444(15) . ? 
C59 C60 1.556(17) . ? 
C95 C101 1.625(18) . ? 
C95 C94 1.662(18) . ? 
C37 C38 1.201(14) . ? 
C91 C93 1.534(16) . ? 
C91 C92 1.605(17) . ? 
C62 C63 1.577(18) . ? 
C96 C97 1.558(17) . ? 
C39 C40 1.75(2) . ? 
C65 C66 1.197(14) . ? 
C60 C61 1.578(17) . ? 
C97 C98 1.573(19) . ? 
C43 C41 1.590(16) . ? 
C63 C64 1.640(19) . ? 
C57 C56 1.609(18) . ? 
C32 C31 1.36(3) . ? 
C32 C34 1.50(2) . ? 
C42 C44 1.581(18) . ? 
C44 C103 1.563(19) . ? 
C41 C102 1.600(17) . ? 
C30 C33 1.29(3) . ? 
C30 C104 1.51(3) . ? 
C40 C100 1.16(6) . ? 
C107 C106 1.88(3) . ? 
C105 C106 1.46(3) . ? 
 
loop_ 
 _geom_angle_atom_site_label_1 
 _geom_angle_atom_site_label_2 
 _geom_angle_atom_site_label_3 
 _geom_angle 
 _geom_angle_site_symmetry_1 
 _geom_angle_site_symmetry_3 
 _geom_angle_publ_flag 
C90 Si1 C96 106.2(6) . . ? 
C90 Si1 C93 109.9(6) . . ? 
C96 Si1 C93 109.6(6) . . ? 
C90 Si1 C94 106.6(6) . . ? 
C96 Si1 C94 113.7(6) . . ? 
C93 Si1 C94 110.7(6) . . ? 
C58 Si2 C65 106.1(6) . . ? 
C58 Si2 C62 112.0(6) . . ? 
C65 Si2 C62 106.7(6) . . ? 
C58 Si2 C59 110.3(6) . . ? 
C65 Si2 C59 109.6(6) . . ? 
C62 Si2 C59 111.9(6) . . ? 
C31 Si3 C26 108.1(9) . . ? 
C31 Si3 C33 107.1(10) . . ? 
C26 Si3 C33 107.1(8) . . ? 
C31 Si3 C105 126.1(10) . . ? 
C26 Si3 C105 102.4(7) . . ? 
C33 Si3 C105 104.9(9) . . ? 
C38 Si4 C42 109.2(6) . . ? 
C38 Si4 C39 111.3(6) . . ? 
C42 Si4 C39 109.4(6) . . ? 
C38 Si4 C43 104.7(6) . . ? 
C42 Si4 C43 113.6(6) . . ? 
C39 Si4 C43 108.7(6) . . ? 
C67 O7 C35 109.6(9) . . ? 
C14 O11 C13 110.5(9) . . ? 
C79 C78 C77 122.0(11) . . ? 
C79 C78 C87 121.0(11) . . ? 
C77 C78 C87 117.1(12) . . ? 
C83 O5 C99 111.6(10) . . ? 
C18 C20 C23 120.8(12) . . ? 
C82 O6 C99 112.1(10) . . ? 
C71 C73 C74 121.9(11) . . ? 
C54 O10 C55 106.4(9) . . ? 
C15 O12 C13 109.3(10) . . ? 
C22 C36 C37 122.8(12) . . ? 
C22 C36 C45 121.5(12) . . ? 
C37 C36 C45 115.7(12) . . ? 
C68 O8 C35 110.6(10) . . ? 
C20 C23 C24 121.0(12) . . ? 
C20 C23 C22 118.8(12) . . ? 
C24 C23 C22 120.1(12) . . ? 
C70 C75 C76 120.1(12) . . ? 
C76 C77 C78 122.5(12) . . ? 
C76 C77 C66 119.1(12) . . ? 
C78 C77 C66 118.4(12) . . ? 
C77 C76 C75 121.1(12) . . ? 
C77 C76 C74 118.0(12) . . ? 
C75 C76 C74 120.9(12) . . ? 
C88 C74 C73 122.5(12) . . ? 
C88 C74 C76 120.9(12) . . ? 
C73 C74 C76 116.5(12) . . ? 
C87 C88 C74 119.2(12) . . ? 
C87 C88 C89 120.9(12) . . ? 
C74 C88 C89 119.9(12) . . ? 
C86 C85 C84 116.3(12) . . ? 
C86 C85 C80 122.6(12) . . ? 
C84 C85 C80 121.1(12) . . ? 
C17 C18 C20 120.1(13) . . ? 
C17 C18 C19 122.0(13) . . ? 
C20 C18 C19 117.9(12) . . ? 
C78 C79 C80 121.6(12) . . ? 
C53 O9 C55 110.2(10) . . ? 
C67 C72 C71 113.3(11) . . ? 
C36 C22 C23 120.2(12) . . ? 
C36 C22 C21 120.6(12) . . ? 
C23 C22 C21 119.0(12) . . ? 
C14 C19 C18 115.3(12) . . ? 
C72 C67 O7 125.7(12) . . ? 
C72 C67 C68 124.9(13) . . ? 
O7 C67 C68 109.4(12) . . ? 
C85 C86 C87 120.2(11) . . ? 
C83 C84 C85 116.0(12) . . ? 
C88 C87 C86 121.2(11) . . ? 
C88 C87 C78 122.3(12) . . ? 
C86 C87 C78 116.4(11) . . ? 
C48 C45 C46 120.5(12) . . ? 
C48 C45 C36 121.0(12) . . ? 
C46 C45 C36 118.5(11) . . ? 
C82 C81 C80 116.3(13) . . ? 
C17 C21 C22 118.7(12) . . ? 
C84 C83 O5 130.7(13) . . ? 
C84 C83 C82 122.4(13) . . ? 
O5 C83 C82 106.9(12) . . ? 
C47 C46 C45 119.9(12) . . ? 
C47 C46 C24 119.4(12) . . ? 
C45 C46 C24 120.4(12) . . ? 
C79 C80 C85 118.1(12) . . ? 
C79 C80 C81 119.9(12) . . ? 
C85 C80 C81 121.7(12) . . ? 
C53 C52 C51 114.0(13) . . ? 
C90 C89 C88 174.2(15) . . ? 
C21 C17 C18 122.2(13) . . ? 
C21 C17 C16 115.7(12) . . ? 
C18 C17 C16 122.0(12) . . ? 
C71 C70 C75 120.2(12) . . ? 
C71 C70 C69 121.7(12) . . ? 
C75 C70 C69 118.1(12) . . ? 
C73 C71 C70 120.4(12) . . ? 
C73 C71 C72 117.7(11) . . ? 
C70 C71 C72 121.9(12) . . ? 
C26 C25 C24 175.9(15) . . ? 
C16 C15 C14 126.3(14) . . ? 
C16 C15 O12 125.2(13) . . ? 
C14 C15 O12 108.5(12) . . ? 
C45 C48 C50 120.3(12) . . ? 
C49 C54 O10 125.5(12) . . ? 
C49 C54 C53 124.1(13) . . ? 
O10 C54 C53 110.4(12) . . ? 
C68 C69 C70 114.3(12) . . ? 
C47 C51 C50 121.1(12) . . ? 
C47 C51 C52 117.8(12) . . ? 
C50 C51 C52 121.0(12) . . ? 
C69 C68 O8 127.6(12) . . ? 
C69 C68 C67 123.8(13) . . ? 
O8 C68 C67 108.6(12) . . ? 
C81 C82 O6 130.6(13) . . ? 
C81 C82 C83 122.3(14) . . ? 
O6 C82 C83 107.1(12) . . ? 
C57 C58 Si2 112.6(10) . . ? 
C15 C16 C17 111.8(12) . . ? 
C23 C24 C25 119.7(12) . . ? 
C23 C24 C46 119.0(12) . . ? 
C25 C24 C46 121.2(12) . . ? 
C48 C50 C51 118.8(12) . . ? 
C48 C50 C49 120.0(12) . . ? 
C51 C50 C49 121.2(12) . . ? 
C54 C49 C50 115.4(11) . . ? 
C19 C14 O11 128.0(12) . . ? 
C19 C14 C15 122.6(13) . . ? 
O11 C14 C15 109.4(12) . . ? 
C89 C90 Si1 173.7(13) . . ? 
C60 C59 Si2 112.3(9) . . ? 
C51 C47 C46 119.0(12) . . ? 
C25 C26 Si3 174.9(12) . . ? 
C101 C95 C94 105.7(11) . . ? 
C38 C37 C36 176.1(14) . . ? 
C93 C91 C92 113.1(11) . . ? 
C91 C93 Si1 114.5(10) . . ? 
C63 C62 Si2 108.9(9) . . ? 
C97 C96 Si1 113.0(10) . . ? 
C40 C39 Si4 106.8(11) . . ? 
C52 C53 O9 128.2(13) . . ? 
C52 C53 C54 124.2(14) . . ? 
O9 C53 C54 107.5(12) . . ? 
C95 C94 Si1 105.3(9) . . ? 
C66 C65 Si2 173.6(12) . . ? 
C65 C66 C77 176.1(15) . . ? 
C59 C60 C61 112.7(12) . . ? 
O8 C35 O7 101.7(9) . . ? 
C96 C97 C98 114.6(12) . . ? 
O9 C55 O10 105.3(9) . . ? 
C37 C38 Si4 162.9(12) . . ? 
O11 C13 O12 102.3(9) . . ? 
C41 C43 Si4 110.7(9) . . ? 
C62 C63 C64 107.9(12) . . ? 
C58 C57 C56 108.6(12) . . ? 
C31 C32 C34 134(2) . . ? 
C44 C42 Si4 117.2(10) . . ? 
C103 C44 C42 110.0(12) . . ? 
C43 C41 C102 106.9(11) . . ? 
C33 C30 C104 133(2) . . ? 
C32 C31 Si3 130(2) . . ? 
C100 C40 C39 82(3) . . ? 
C30 C33 Si3 135(2) . . ? 
O6 C99 O5 102.3(10) . . ? 
C106 C105 Si3 93.0(18) . . ? 
C105 C106 C107 82.4(19) . . ? 
 
_diffrn_measured_fraction_theta_max    0.994 
_diffrn_reflns_theta_full              22.38 
_diffrn_measured_fraction_theta_full   0.994 
_refine_diff_density_max    1.615 
_refine_diff_density_min   -0.441 
_refine_diff_density_rms    0.132 
