 
data_k07075 
 
_audit_creation_method            SHELXL-97 
_chemical_name_systematic 
; 
 ? 
; 
_chemical_name_common             ? 
_chemical_melting_point           ? 
_chemical_formula_moiety          
 'C44 H50 Si2' 
_chemical_formula_sum 
 'C44 H50 Si2' 
_chemical_formula_weight          635.02 
 
loop_ 
 _atom_type_symbol 
 _atom_type_description 
 _atom_type_scat_dispersion_real 
 _atom_type_scat_dispersion_imag 
 _atom_type_scat_source 
 'C'  'C'    .0033    .0016 
 'International Tables Vol C Tables 4.2.6.8 and 6.1.1.4' 
 'H'  'H'    .0000    .0000 
 'International Tables Vol C Tables 4.2.6.8 and 6.1.1.4' 
 'Si'  'Si'    .0817    .0704 
 'International Tables Vol C Tables 4.2.6.8 and 6.1.1.4' 
 
_symmetry_cell_setting            triclinic
_symmetry_space_group_name_H-M    'P -1'
_symmetry_space_group_name_Hall   '-P 1'
 
loop_ 
 _symmetry_equiv_pos_as_xyz 
 'x, y, z' 
 '-x, -y, -z' 
 
_cell_length_a                    7.1877(3) 
_cell_length_b                    7.8704(4) 
_cell_length_c                    16.4794(8) 
_cell_angle_alpha                 91.9236(18) 
_cell_angle_beta                  102.737(2) 
_cell_angle_gamma                 90.9632(18) 
_cell_volume                      908.51(7) 
_cell_formula_units_Z             1 
_cell_measurement_temperature     90.0(2) 
_cell_measurement_reflns_used     3285
_cell_measurement_theta_min       1.00
_cell_measurement_theta_max       25.35
 
_exptl_crystal_description        lath
_exptl_crystal_colour             blue
_exptl_crystal_size_max           0.60 
_exptl_crystal_size_mid           0.18 
_exptl_crystal_size_min           0.01 
_exptl_crystal_density_meas       ? 
_exptl_crystal_density_diffrn     1.161 
_exptl_crystal_density_method     'not measured' 
_exptl_crystal_F_000              342 
_exptl_absorpt_coefficient_mu     0.127 
_exptl_absorpt_correction_type    multi-scan
_exptl_absorpt_correction_T_min   0.9275 
_exptl_absorpt_correction_T_max   0.9987 
_exptl_absorpt_process_details    'Scalepack (Otwinowski & Minor, 1997)'
 
_exptl_special_details 
; 
 ? 
; 
 
_diffrn_ambient_temperature       90.0(2) 
_diffrn_radiation_wavelength      0.71073 
_diffrn_radiation_type            MoK\a 
_diffrn_radiation_source          'fine-focus sealed tube' 
_diffrn_radiation_monochromator   graphite 
_diffrn_measurement_device_type   'Nonius KappaCCD diffractometer'
_diffrn_measurement_method        '\w scans at fixed \c = 55\%'
_diffrn_detector_area_resol_mean  18
_diffrn_standards_number          ? 
_diffrn_standards_interval_count  ? 
_diffrn_standards_interval_time   ? 
_diffrn_standards_decay_%         ? 
_diffrn_reflns_number             6527 
_diffrn_reflns_av_R_equivalents   0.0708 
_diffrn_reflns_av_sigmaI/netI     0.0985 
_diffrn_reflns_limit_h_min        -8 
_diffrn_reflns_limit_h_max        8 
_diffrn_reflns_limit_k_min        -9 
_diffrn_reflns_limit_k_max        9 
_diffrn_reflns_limit_l_min        -19 
_diffrn_reflns_limit_l_max        19 
_diffrn_reflns_theta_min          1.27 
_diffrn_reflns_theta_max          25.29 
_reflns_number_total              3312 
_reflns_number_gt                 1988 
_reflns_threshold_expression      >2\s(I)    
 
_computing_data_collection        'COLLECT (Nonius, 1998)'
_computing_cell_refinement        'SCALEPACK (Otwinowski & Minor, 1997)'
_computing_data_reduction         'DENZO-SMN (Otwinowski & Minor, 1997)'
_computing_structure_solution     'SHELXS-97 (Sheldrick, 1990)' 
_computing_structure_refinement   'SHELXL-97 (Sheldrick, 1997)' 
_computing_molecular_graphics     'XP in SHELXTL (Sheldrick, 1994)'
_computing_publication_material
; 
SHELX97-2 (Sheldrick, 1997) and local procedures 
; 
 
_refine_special_details 
; 
 Refinement of F^2^ against ALL reflections.  The weighted R-factor wR and 
 goodness of fit S are based on F^2^, conventional R-factors R are based 
 on F, with F set to zero for negative F^2^. The threshold expression of 
 F^2^ > 2sigma(F^2^) is used only for calculating R-factors(gt) etc. and is 
 not relevant to the choice of reflections for refinement.  R-factors based 
 on F^2^ are statistically about twice as large as those based on F, and R- 
 factors based on ALL data will be even larger. 
; 
 
_refine_ls_structure_factor_coef  Fsqd  
_refine_ls_matrix_type            full 
_refine_ls_weighting_scheme       calc  
_refine_ls_weighting_details 
 'calc w=1/[\s^2^(Fo^2^)+(0.0666P)^2^] where P=(Fo^2^+2Fc^2^)/3' 
_atom_sites_solution_primary      direct 
_atom_sites_solution_secondary    difmap 
_atom_sites_solution_hydrogens    geom 
_refine_ls_hydrogen_treatment     constr 
_refine_ls_extinction_method      none 
_refine_ls_extinction_coef        ? 
_refine_ls_number_reflns          3312 
_refine_ls_number_parameters      225 
_refine_ls_number_restraints      62 
_refine_ls_R_factor_all           0.1163 
_refine_ls_R_factor_gt            0.0558 
_refine_ls_wR_factor_ref          0.1394 
_refine_ls_wR_factor_gt           0.1164 
_refine_ls_goodness_of_fit_ref    1.019 
_refine_ls_restrained_S_all       1.013 
_refine_ls_shift/su_max           0.001 
_refine_ls_shift/su_mean          0.000 
 
loop_ 
 _atom_site_label 
 _atom_site_type_symbol 
 _atom_site_fract_x 
 _atom_site_fract_y 
 _atom_site_fract_z 
 _atom_site_U_iso_or_equiv 
 _atom_site_adp_type 
 _atom_site_occupancy 
 _atom_site_symmetry_multiplicity 
 _atom_site_calc_flag 
 _atom_site_refinement_flags 
 _atom_site_disorder_assembly 
 _atom_site_disorder_group 
Si1 Si 0.55936(11) 0.80826(9) 0.83562(4) 0.0273(3) Uani 1 1 d . . . 
C1 C 0.5197(3) 0.5628(3) 0.58338(14) 0.0179(6) Uani 1 1 d . . . 
C2 C 0.3623(3) 0.4555(3) 0.54697(14) 0.0185(6) Uani 1 1 d . . . 
C3 C 0.2222(3) 0.4082(3) 0.59037(15) 0.0209(6) Uani 1 1 d . . . 
H3 H 0.2366 0.4473 0.6466 0.025 Uiso 1 1 calc R . . 
C4 C 0.0647(3) 0.3072(3) 0.55413(14) 0.0198(6) Uani 1 1 d . . . 
C5 C -0.0799(4) 0.2608(3) 0.59766(15) 0.0233(6) Uani 1 1 d . . . 
H5 H -0.0674 0.2993 0.6539 0.028 Uiso 1 1 calc R . . 
C6 C -0.2328(4) 0.1640(3) 0.56036(16) 0.0240(6) Uani 1 1 d . . . 
H6 H -0.3259 0.1341 0.5907 0.029 Uiso 1 1 calc R . . 
C7 C -0.2565(4) 0.1057(3) 0.47565(15) 0.0246(6) Uani 1 1 d . . . 
H7 H -0.3661 0.0388 0.4498 0.030 Uiso 1 1 calc R . . 
C8 C -0.1239(3) 0.1452(3) 0.43193(15) 0.0225(6) Uani 1 1 d . . . 
H8 H -0.1412 0.1045 0.3758 0.027 Uiso 1 1 calc R . . 
C9 C 0.0414(3) 0.2468(3) 0.46866(14) 0.0192(6) Uani 1 1 d . . . 
C10 C 0.1804(3) 0.2883(3) 0.42555(15) 0.0201(6) Uani 1 1 d . . . 
H10 H 0.1668 0.2453 0.3699 0.024 Uiso 1 1 calc R . . 
C11 C 0.3410(3) 0.3920(3) 0.46156(14) 0.0186(6) Uani 1 1 d . . . 
C12 C 0.5370(3) 0.6332(3) 0.66658(15) 0.0213(6) Uani 1 1 d . . . 
C13 C 0.5496(3) 0.6988(3) 0.73520(15) 0.0233(6) Uani 1 1 d . A . 
C14 C 0.6153(4) 1.0389(3) 0.82532(15) 0.0295(7) Uani 1 1 d . A . 
H14 H 0.6251 1.0969 0.8811 0.035 Uiso 1 1 calc R . . 
C15 C 0.4598(4) 1.1268(4) 0.76309(18) 0.0467(8) Uani 1 1 d . . . 
H15A H 0.4986 1.2455 0.7588 0.070 Uiso 1 1 calc R A . 
H15B H 0.3401 1.1228 0.7823 0.070 Uiso 1 1 calc R . . 
H15C H 0.4412 1.0682 0.7084 0.070 Uiso 1 1 calc R . . 
C16 C 0.8101(4) 1.0634(3) 0.80136(17) 0.0405(8) Uani 1 1 d . . . 
H16A H 0.8065 1.0044 0.7477 0.061 Uiso 1 1 calc R A . 
H16B H 0.9108 1.0163 0.8442 0.061 Uiso 1 1 calc R . . 
H16C H 0.8363 1.1849 0.7971 0.061 Uiso 1 1 calc R . . 
C17 C 0.7480(4) 0.7108(3) 0.91618(15) 0.0297(7) Uani 1 1 d . A . 
H17 H 0.8724 0.7346 0.9005 0.036 Uiso 1 1 calc R . . 
C18 C 0.7632(5) 0.7941(4) 1.00317(16) 0.0535(10) Uani 1 1 d . . . 
H18A H 0.6414 0.7795 1.0199 0.080 Uiso 1 1 calc R A . 
H18B H 0.7938 0.9157 1.0019 0.080 Uiso 1 1 calc R . . 
H18C H 0.8642 0.7403 1.0433 0.080 Uiso 1 1 calc R . . 
C19 C 0.7265(4) 0.5169(3) 0.91824(17) 0.0384(8) Uani 1 1 d . . . 
H19A H 0.8361 0.4727 0.9576 0.058 Uiso 1 1 calc R A . 
H19B H 0.7210 0.4665 0.8625 0.058 Uiso 1 1 calc R . . 
H19C H 0.6088 0.4876 0.9359 0.058 Uiso 1 1 calc R . . 
C20 C 0.3132(10) 0.7907(8) 0.8575(4) 0.0373(16) Uani 0.791(5) 1 d PDU A 1 
H20A H 0.3163 0.8453 0.9128 0.045 Uiso 0.791(5) 1 calc PR A 1 
H20B H 0.2244 0.8549 0.8156 0.045 Uiso 0.791(5) 1 calc PR A 1 
C21 C 0.2373(5) 0.6137(5) 0.8564(2) 0.0355(11) Uani 0.791(5) 1 d PDU A 1 
H21 H 0.2921 0.5478 0.9024 0.043 Uiso 0.791(5) 1 calc PR A 1 
C22 C 0.1050(15) 0.5395(11) 0.7998(8) 0.041(2) Uani 0.791(5) 1 d PDU A 1 
H22A H 0.0451 0.5994 0.7523 0.049 Uiso 0.791(5) 1 calc PR A 1 
H22B H 0.0676 0.4250 0.8056 0.049 Uiso 0.791(5) 1 calc PR A 1 
C20' C 0.332(4) 0.765(4) 0.8738(17) 0.036(4) Uiso 0.209(5) 1 d PDU A 2 
H20C H 0.3565 0.6779 0.9164 0.043 Uiso 0.209(5) 1 calc PR A 2 
H20D H 0.2959 0.8708 0.9003 0.043 Uiso 0.209(5) 1 calc PR A 2 
C21' C 0.171(2) 0.7061(19) 0.8047(9) 0.040(3) Uiso 0.209(5) 1 d PDU A 2 
H21' H 0.1298 0.7842 0.7621 0.048 Uiso 0.209(5) 1 calc PR A 2 
C22' C 0.081(6) 0.561(4) 0.796(4) 0.042(6) Uiso 0.209(5) 1 d PDU A 2 
H22C H 0.1165 0.4781 0.8367 0.051 Uiso 0.209(5) 1 calc PR A 2 
H22D H -0.0197 0.5379 0.7489 0.051 Uiso 0.209(5) 1 calc PR A 2 
 
loop_ 
 _atom_site_aniso_label 
 _atom_site_aniso_U_11 
 _atom_site_aniso_U_22 
 _atom_site_aniso_U_33 
 _atom_site_aniso_U_23 
 _atom_site_aniso_U_13 
 _atom_site_aniso_U_12 
Si1 0.0291(5) 0.0287(5) 0.0243(4) -0.0072(3) 0.0074(3) 0.0004(3) 
C1 0.0180(14) 0.0168(13) 0.0185(13) -0.0011(11) 0.0034(11) 0.0045(11) 
C2 0.0213(15) 0.0132(13) 0.0205(14) 0.0000(10) 0.0038(11) 0.0029(11) 
C3 0.0244(16) 0.0199(14) 0.0191(14) 0.0001(11) 0.0059(12) 0.0059(12) 
C4 0.0202(15) 0.0164(14) 0.0233(15) 0.0001(11) 0.0055(12) 0.0053(12) 
C5 0.0285(17) 0.0206(14) 0.0219(14) -0.0027(11) 0.0084(13) 0.0021(12) 
C6 0.0233(16) 0.0186(14) 0.0331(16) 0.0051(12) 0.0120(13) 0.0029(12) 
C7 0.0204(16) 0.0203(14) 0.0306(16) -0.0011(12) 0.0004(13) 0.0016(12) 
C8 0.0221(16) 0.0187(14) 0.0250(14) -0.0009(11) 0.0015(12) 0.0039(12) 
C9 0.0199(15) 0.0141(13) 0.0228(14) 0.0015(11) 0.0026(12) 0.0052(11) 
C10 0.0204(16) 0.0180(14) 0.0214(14) -0.0016(11) 0.0037(12) 0.0047(12) 
C11 0.0214(15) 0.0162(13) 0.0178(14) -0.0015(10) 0.0031(11) 0.0063(11) 
C12 0.0162(15) 0.0203(14) 0.0270(15) 0.0029(12) 0.0035(12) 0.0013(11) 
C13 0.0180(15) 0.0244(15) 0.0266(16) -0.0009(12) 0.0034(12) -0.0015(12) 
C14 0.0363(18) 0.0281(15) 0.0220(15) -0.0075(12) 0.0027(13) 0.0022(13) 
C15 0.058(2) 0.0335(18) 0.0440(19) 0.0001(14) 0.0006(16) 0.0063(16) 
C16 0.049(2) 0.0302(17) 0.0412(18) -0.0023(14) 0.0087(15) -0.0113(14) 
C17 0.0361(18) 0.0286(16) 0.0227(15) -0.0065(12) 0.0046(13) -0.0021(13) 
C18 0.081(3) 0.045(2) 0.0279(17) -0.0047(14) -0.0014(17) 0.0179(18) 
C19 0.046(2) 0.0355(18) 0.0332(17) 0.0001(13) 0.0064(14) 0.0073(15) 
C20 0.038(3) 0.043(3) 0.032(3) -0.015(3) 0.015(2) 0.002(2) 
C21 0.026(2) 0.050(2) 0.033(2) 0.0052(18) 0.0106(17) -0.0009(18) 
C22 0.036(4) 0.049(3) 0.040(3) -0.007(3) 0.013(3) -0.004(3) 
 
_geom_special_details 
; 
 All esds (except the esd in the dihedral angle between two l.s. planes) 
 are estimated using the full covariance matrix.  The cell esds are taken 
 into account individually in the estimation of esds in distances, angles 
 and torsion angles; correlations between esds in cell parameters are only 
 used when they are defined by crystal symmetry.  An approximate (isotropic) 
 treatment of cell esds is used for estimating esds involving l.s. planes. 
; 
 
loop_ 
 _geom_bond_atom_site_label_1 
 _geom_bond_atom_site_label_2 
 _geom_bond_distance 
 _geom_bond_site_symmetry_2 
 _geom_bond_publ_flag 
Si1 C13 1.827(3) . ? 
Si1 C17 1.870(3) . ? 
Si1 C14 1.874(3) . ? 
Si1 C20 1.885(8) . ? 
Si1 C20' 1.90(4) . ? 
C1 C2 1.409(3) . ? 
C1 C11 1.418(3) 2_666 ? 
C1 C12 1.440(3) . ? 
C2 C3 1.409(3) . ? 
C2 C11 1.453(3) . ? 
C3 C4 1.382(3) . ? 
C3 H3 0.9500 . ? 
C4 C5 1.436(3) . ? 
C4 C9 1.445(3) . ? 
C5 C6 1.345(3) . ? 
C5 H5 0.9500 . ? 
C6 C7 1.427(3) . ? 
C6 H6 0.9500 . ? 
C7 C8 1.353(3) . ? 
C7 H7 0.9500 . ? 
C8 C9 1.427(3) . ? 
C8 H8 0.9500 . ? 
C9 C10 1.389(3) . ? 
C10 C11 1.409(3) . ? 
C10 H10 0.9500 . ? 
C11 C1 1.418(3) 2_666 ? 
C12 C13 1.211(3) . ? 
C14 C15 1.532(4) . ? 
C14 C16 1.547(4) . ? 
C14 H14 1.0000 . ? 
C15 H15A 0.9800 . ? 
C15 H15B 0.9800 . ? 
C15 H15C 0.9800 . ? 
C16 H16A 0.9800 . ? 
C16 H16B 0.9800 . ? 
C16 H16C 0.9800 . ? 
C17 C19 1.534(3) . ? 
C17 C18 1.537(3) . ? 
C17 H17 1.0000 . ? 
C18 H18A 0.9800 . ? 
C18 H18B 0.9800 . ? 
C18 H18C 0.9800 . ? 
C19 H19A 0.9800 . ? 
C19 H19B 0.9800 . ? 
C19 H19C 0.9800 . ? 
C20 C21 1.486(7) . ? 
C20 H20A 0.9900 . ? 
C20 H20B 0.9900 . ? 
C21 C22 1.292(8) . ? 
C21 H21 0.9500 . ? 
C22 H22A 0.9500 . ? 
C22 H22B 0.9500 . ? 
C20' C21' 1.488(16) . ? 
C20' H20C 0.9900 . ? 
C20' H20D 0.9900 . ? 
C21' C22' 1.287(19) . ? 
C21' H21' 0.9500 . ? 
C22' H22C 0.9500 . ? 
C22' H22D 0.9500 . ? 
 
loop_ 
 _geom_angle_atom_site_label_1 
 _geom_angle_atom_site_label_2 
 _geom_angle_atom_site_label_3 
 _geom_angle 
 _geom_angle_site_symmetry_1 
 _geom_angle_site_symmetry_3 
 _geom_angle_publ_flag 
C13 Si1 C17 108.80(11) . . ? 
C13 Si1 C14 108.10(11) . . ? 
C17 Si1 C14 111.07(12) . . ? 
C13 Si1 C20 107.17(18) . . ? 
C17 Si1 C20 113.5(2) . . ? 
C14 Si1 C20 108.0(2) . . ? 
C13 Si1 C20' 111.0(7) . . ? 
C17 Si1 C20' 103.2(9) . . ? 
C14 Si1 C20' 114.5(10) . . ? 
C20 Si1 C20' 10.4(10) . . ? 
C2 C1 C11 121.2(2) . 2_666 ? 
C2 C1 C12 119.9(2) . . ? 
C11 C1 C12 118.9(2) 2_666 . ? 
C1 C2 C3 122.3(2) . . ? 
C1 C2 C11 119.5(2) . . ? 
C3 C2 C11 118.3(2) . . ? 
C4 C3 C2 122.5(2) . . ? 
C4 C3 H3 118.8 . . ? 
C2 C3 H3 118.8 . . ? 
C3 C4 C5 122.7(2) . . ? 
C3 C4 C9 119.3(2) . . ? 
C5 C4 C9 118.0(2) . . ? 
C6 C5 C4 121.3(2) . . ? 
C6 C5 H5 119.3 . . ? 
C4 C5 H5 119.3 . . ? 
C5 C6 C7 120.6(2) . . ? 
C5 C6 H6 119.7 . . ? 
C7 C6 H6 119.7 . . ? 
C8 C7 C6 120.5(2) . . ? 
C8 C7 H7 119.8 . . ? 
C6 C7 H7 119.8 . . ? 
C7 C8 C9 121.2(2) . . ? 
C7 C8 H8 119.4 . . ? 
C9 C8 H8 119.4 . . ? 
C10 C9 C8 122.5(2) . . ? 
C10 C9 C4 119.1(2) . . ? 
C8 C9 C4 118.5(2) . . ? 
C9 C10 C11 122.2(2) . . ? 
C9 C10 H10 118.9 . . ? 
C11 C10 H10 118.9 . . ? 
C10 C11 C1 122.0(2) . 2_666 ? 
C10 C11 C2 118.7(2) . . ? 
C1 C11 C2 119.4(2) 2_666 . ? 
C13 C12 C1 177.4(2) . . ? 
C12 C13 Si1 176.4(2) . . ? 
C15 C14 C16 109.8(2) . . ? 
C15 C14 Si1 113.06(19) . . ? 
C16 C14 Si1 111.21(17) . . ? 
C15 C14 H14 107.5 . . ? 
C16 C14 H14 107.5 . . ? 
Si1 C14 H14 107.5 . . ? 
C14 C15 H15A 109.5 . . ? 
C14 C15 H15B 109.5 . . ? 
H15A C15 H15B 109.5 . . ? 
C14 C15 H15C 109.5 . . ? 
H15A C15 H15C 109.5 . . ? 
H15B C15 H15C 109.5 . . ? 
C14 C16 H16A 109.5 . . ? 
C14 C16 H16B 109.5 . . ? 
H16A C16 H16B 109.5 . . ? 
C14 C16 H16C 109.5 . . ? 
H16A C16 H16C 109.5 . . ? 
H16B C16 H16C 109.5 . . ? 
C19 C17 C18 111.0(2) . . ? 
C19 C17 Si1 113.49(18) . . ? 
C18 C17 Si1 112.12(18) . . ? 
C19 C17 H17 106.6 . . ? 
C18 C17 H17 106.6 . . ? 
Si1 C17 H17 106.6 . . ? 
C17 C18 H18A 109.5 . . ? 
C17 C18 H18B 109.5 . . ? 
H18A C18 H18B 109.5 . . ? 
C17 C18 H18C 109.5 . . ? 
H18A C18 H18C 109.5 . . ? 
H18B C18 H18C 109.5 . . ? 
C17 C19 H19A 109.5 . . ? 
C17 C19 H19B 109.5 . . ? 
H19A C19 H19B 109.5 . . ? 
C17 C19 H19C 109.5 . . ? 
H19A C19 H19C 109.5 . . ? 
H19B C19 H19C 109.5 . . ? 
C21 C20 Si1 114.5(4) . . ? 
C21 C20 H20A 108.6 . . ? 
Si1 C20 H20A 108.6 . . ? 
C21 C20 H20B 108.6 . . ? 
Si1 C20 H20B 108.6 . . ? 
H20A C20 H20B 107.6 . . ? 
C22 C21 C20 127.3(6) . . ? 
C22 C21 H21 116.4 . . ? 
C20 C21 H21 116.4 . . ? 
C21 C22 H22A 120.0 . . ? 
C21 C22 H22B 120.0 . . ? 
H22A C22 H22B 120.0 . . ? 
C21' C20' Si1 112(2) . . ? 
C21' C20' H20C 109.2 . . ? 
Si1 C20' H20C 109.2 . . ? 
C21' C20' H20D 109.2 . . ? 
Si1 C20' H20D 109.2 . . ? 
H20C C20' H20D 107.9 . . ? 
C22' C21' C20' 128(3) . . ? 
C22' C21' H21' 116.2 . . ? 
C20' C21' H21' 116.2 . . ? 
C21' C22' H22C 120.0 . . ? 
C21' C22' H22D 120.0 . . ? 
H22C C22' H22D 120.0 . . ? 
 
loop_ 
 _geom_torsion_atom_site_label_1 
 _geom_torsion_atom_site_label_2 
 _geom_torsion_atom_site_label_3 
 _geom_torsion_atom_site_label_4 
 _geom_torsion 
 _geom_torsion_site_symmetry_1 
 _geom_torsion_site_symmetry_2 
 _geom_torsion_site_symmetry_3 
 _geom_torsion_site_symmetry_4 
 _geom_torsion_publ_flag 
C11 C1 C2 C3 179.8(2) 2_666 . . . ? 
C12 C1 C2 C3 -2.5(3) . . . . ? 
C11 C1 C2 C11 -0.8(4) 2_666 . . . ? 
C12 C1 C2 C11 176.91(19) . . . . ? 
C1 C2 C3 C4 178.0(2) . . . . ? 
C11 C2 C3 C4 -1.3(3) . . . . ? 
C2 C3 C4 C5 -179.0(2) . . . . ? 
C2 C3 C4 C9 0.1(3) . . . . ? 
C3 C4 C5 C6 179.2(2) . . . . ? 
C9 C4 C5 C6 0.0(3) . . . . ? 
C4 C5 C6 C7 -0.6(4) . . . . ? 
C5 C6 C7 C8 0.9(3) . . . . ? 
C6 C7 C8 C9 -0.6(3) . . . . ? 
C7 C8 C9 C10 179.5(2) . . . . ? 
C7 C8 C9 C4 0.0(3) . . . . ? 
C3 C4 C9 C10 1.5(3) . . . . ? 
C5 C4 C9 C10 -179.3(2) . . . . ? 
C3 C4 C9 C8 -178.9(2) . . . . ? 
C5 C4 C9 C8 0.3(3) . . . . ? 
C8 C9 C10 C11 178.5(2) . . . . ? 
C4 C9 C10 C11 -2.0(3) . . . . ? 
C9 C10 C11 C1 -178.5(2) . . . 2_666 ? 
C9 C10 C11 C2 0.8(3) . . . . ? 
C1 C2 C11 C10 -178.5(2) . . . . ? 
C3 C2 C11 C10 0.9(3) . . . . ? 
C1 C2 C11 C1 0.8(3) . . . 2_666 ? 
C3 C2 C11 C1 -179.8(2) . . . 2_666 ? 
C2 C1 C12 C13 -107(6) . . . . ? 
C11 C1 C12 C13 71(6) 2_666 . . . ? 
C1 C12 C13 Si1 20(9) . . . . ? 
C17 Si1 C13 C12 -167(4) . . . . ? 
C14 Si1 C13 C12 -47(4) . . . . ? 
C20 Si1 C13 C12 69(4) . . . . ? 
C20' Si1 C13 C12 80(4) . . . . ? 
C13 Si1 C14 C15 63.6(2) . . . . ? 
C17 Si1 C14 C15 -177.12(19) . . . . ? 
C20 Si1 C14 C15 -52.0(3) . . . . ? 
C20' Si1 C14 C15 -60.7(8) . . . . ? 
C13 Si1 C14 C16 -60.5(2) . . . . ? 
C17 Si1 C14 C16 58.8(2) . . . . ? 
C20 Si1 C14 C16 -176.2(2) . . . . ? 
C20' Si1 C14 C16 175.2(8) . . . . ? 
C13 Si1 C17 C19 -52.3(2) . . . . ? 
C14 Si1 C17 C19 -171.21(18) . . . . ? 
C20 Si1 C17 C19 66.9(3) . . . . ? 
C20' Si1 C17 C19 65.6(9) . . . . ? 
C13 Si1 C17 C18 -179.06(19) . . . . ? 
C14 Si1 C17 C18 62.1(2) . . . . ? 
C20 Si1 C17 C18 -59.8(3) . . . . ? 
C20' Si1 C17 C18 -61.1(9) . . . . ? 
C13 Si1 C20 C21 56.1(4) . . . . ? 
C17 Si1 C20 C21 -64.0(4) . . . . ? 
C14 Si1 C20 C21 172.4(3) . . . . ? 
C20' Si1 C20 C21 -57(5) . . . . ? 
Si1 C20 C21 C22 -106.8(8) . . . . ? 
C13 Si1 C20' C21' -20(2) . . . . ? 
C17 Si1 C20' C21' -136.3(17) . . . . ? 
C14 Si1 C20' C21' 102.8(18) . . . . ? 
C20 Si1 C20' C21' 50(4) . . . . ? 
Si1 C20' C21' C22' 117(4) . . . . ? 
 
_diffrn_measured_fraction_theta_max     .998 
_diffrn_reflns_theta_full              25.29 
_diffrn_measured_fraction_theta_full    .998 
_refine_diff_density_max     .326 
_refine_diff_density_min    -.310 
_refine_diff_density_rms     .059 
