 
data_k08046 
 
_audit_creation_method            SHELXL-97 
_chemical_name_systematic 
; 
 ? 
; 
_chemical_name_common             ? 
_chemical_melting_point           ? 
_chemical_formula_moiety 
 'C46 H54 Si2' 
_chemical_formula_sum 
 'C46 H54 Si2' 
_chemical_formula_weight          663.07 
 
loop_ 
 _atom_type_symbol 
 _atom_type_description 
 _atom_type_scat_dispersion_real 
 _atom_type_scat_dispersion_imag 
 _atom_type_scat_source 
 'C'  'C'   0.0033   0.0016 
 'International Tables Vol C Tables 4.2.6.8 and 6.1.1.4' 
 'H'  'H'   0.0000   0.0000 
 'International Tables Vol C Tables 4.2.6.8 and 6.1.1.4' 
 'Si'  'Si'   0.0817   0.0704 
 'International Tables Vol C Tables 4.2.6.8 and 6.1.1.4' 
 
_symmetry_cell_setting            triclinic
_symmetry_space_group_name_H-M    'P -1'
_symmetry_space_group_name_Hall   '-P 1'
 
loop_ 
 _symmetry_equiv_pos_as_xyz 
 'x, y, z' 
 '-x, -y, -z' 
 
_cell_length_a                    7.7304(5) 
_cell_length_b                    7.5695(5) 
_cell_length_c                    16.9293(12) 
_cell_angle_alpha                 77.163(3) 
_cell_angle_beta                  89.077(3) 
_cell_angle_gamma                 84.015(3) 
_cell_volume                      960.57(11) 
_cell_formula_units_Z             1 
_cell_measurement_temperature     90.0(2) 
_cell_measurement_reflns_used     3402
_cell_measurement_theta_min       1.00
_cell_measurement_theta_max       25.35
 
_exptl_crystal_description        'flaky plate'
_exptl_crystal_colour             blue
_exptl_crystal_size_max           0.40 
_exptl_crystal_size_mid           0.25 
_exptl_crystal_size_min           0.01 
_exptl_crystal_density_meas       ? 
_exptl_crystal_density_diffrn     1.146 
_exptl_crystal_density_method     'not measured' 
_exptl_crystal_F_000              358 
_exptl_absorpt_coefficient_mu     0.123 
_exptl_absorpt_correction_type    multi-scan 
_exptl_absorpt_correction_T_min   0.952
_exptl_absorpt_correction_T_max   0.999 
_exptl_absorpt_process_details    'Scalepack (Otwinowski & Minor, 1997)' 
 
_exptl_special_details 
; 
 ? 
; 
 
_diffrn_ambient_temperature       90.0(2) 
_diffrn_radiation_wavelength      0.71073 
_diffrn_radiation_type            MoK\a 
_diffrn_radiation_source          'fine-focus sealed tube'    
_diffrn_radiation_monochromator   'graphite'                 
_diffrn_measurement_device_type   'Nonius KappaCCD diffractometer'  
_diffrn_measurement_method        '\w scans at fixed \c = 55\%'
_diffrn_detector_area_resol_mean  18
_diffrn_standards_number          0 
_diffrn_standards_interval_count  . 
_diffrn_standards_interval_time   . 
_diffrn_standards_decay_%         ? 
_diffrn_reflns_number             6436 
_diffrn_reflns_av_R_equivalents   0.0887 
_diffrn_reflns_av_sigmaI/netI     0.1338 
_diffrn_reflns_limit_h_min        -9 
_diffrn_reflns_limit_h_max        9 
_diffrn_reflns_limit_k_min        -8 
_diffrn_reflns_limit_k_max        8 
_diffrn_reflns_limit_l_min        -20 
_diffrn_reflns_limit_l_max        20 
_diffrn_reflns_theta_min          2.47 
_diffrn_reflns_theta_max          24.99 
_reflns_number_total              3353 
_reflns_number_gt                 1820 
_reflns_threshold_expression      >2\s(I)    
 
_computing_data_collection        'COLLECT (Nonius, 1998)'
_computing_cell_refinement        'SCALEPACK (Otwinowski & Minor, 1997)'
_computing_data_reduction         'DENZO-SMN (Otwinowski & Minor, 1997)'
_computing_structure_solution     'SHELXS-97 (Sheldrick, 2008)' 
_computing_structure_refinement   'SHELXL-97 (Sheldrick, 2008)' 
_computing_molecular_graphics     'XP in SHELXTL (Sheldrick, 2008)'
_computing_publication_material
; 
SHELX97-2 (Sheldrick, 2008) and local procedures 
; 
 
_refine_special_details 
; 
 Refinement of F^2^ against ALL reflections.  The weighted R-factor wR and 
 goodness of fit S are based on F^2^, conventional R-factors R are based 
 on F, with F set to zero for negative F^2^. The threshold expression of 
 F^2^ > 2\s(F^2^) is used only for calculating R-factors(gt) etc. and is 
 not relevant to the choice of reflections for refinement.  R-factors based 
 on F^2^ are statistically about twice as large as those based on F, and R- 
 factors based on ALL data will be even larger. 
; 

_publ_section_exptl_refinement
;
H atoms were found in difference Fourier maps and subsequently placed in
idealized positions with constrained C-H distances of 0.98 \%A (RCH~3~),
0.99 \%A (R~2~CH~2~), 1.00 \%A (R~3~CH) and 0.95 \%A (C~Ar~H, RC~sp2~H~2~) 
with U~iso~(H) values set to either 1.5U~eq~ (RCH~3~ only) or 1.2U~eq~ of 
the attached C atom.
;
 
_refine_ls_structure_factor_coef  Fsqd  
_refine_ls_matrix_type            full 
_refine_ls_weighting_scheme       calc  
_refine_ls_weighting_details 
 'calc w=1/[\s^2^(Fo^2^)+(0.0580P)^2^] where P=(Fo^2^+2Fc^2^)/3'         
_atom_sites_solution_primary      direct 
_atom_sites_solution_secondary    difmap 
_atom_sites_solution_hydrogens    geom 
_refine_ls_hydrogen_treatment     constr 
_refine_ls_extinction_method      none 
_refine_ls_extinction_coef        ? 
_refine_ls_number_reflns          3353 
_refine_ls_number_parameters      238 
_refine_ls_number_restraints      41 
_refine_ls_R_factor_all           0.1373 
_refine_ls_R_factor_gt            0.0595 
_refine_ls_wR_factor_ref          0.1383 
_refine_ls_wR_factor_gt           0.1145 
_refine_ls_goodness_of_fit_ref    0.973 
_refine_ls_restrained_S_all       0.970 
_refine_ls_shift/su_max           0.000 
_refine_ls_shift/su_mean          0.000 
 
loop_ 
 _atom_site_label 
 _atom_site_type_symbol 
 _atom_site_fract_x 
 _atom_site_fract_y 
 _atom_site_fract_z 
 _atom_site_U_iso_or_equiv 
 _atom_site_adp_type 
 _atom_site_occupancy 
 _atom_site_symmetry_multiplicity 
 _atom_site_calc_flag 
 _atom_site_refinement_flags 
 _atom_site_disorder_assembly 
 _atom_site_disorder_group 
Si1 Si 0.21294(11) 0.25055(12) 0.82617(5) 0.0288(3) Uani 1 1 d . . . 
C1 C 0.4416(3) 0.4404(4) 0.58058(15) 0.0209(7) Uani 1 1 d . . . 
C2 C 0.3926(3) 0.6221(4) 0.53828(15) 0.0207(7) Uani 1 1 d . . . 
C3 C 0.2894(3) 0.7477(4) 0.57382(16) 0.0220(7) Uani 1 1 d . . . 
H3 H 0.2487 0.7084 0.6275 0.026 Uiso 1 1 calc R . . 
C4 C 0.2453(3) 0.9257(4) 0.53345(15) 0.0224(7) Uani 1 1 d . . . 
C5 C 0.1430(3) 1.0557(4) 0.56957(17) 0.0289(8) Uani 1 1 d . . . 
H5 H 0.1030 1.0191 0.6235 0.035 Uiso 1 1 calc R . . 
C6 C 0.1026(4) 1.2292(4) 0.52824(18) 0.0315(8) Uani 1 1 d . . . 
H6 H 0.0349 1.3129 0.5535 0.038 Uiso 1 1 calc R . . 
C7 C 0.1601(4) 1.2880(4) 0.44734(18) 0.0308(8) Uani 1 1 d . . . 
H7 H 0.1315 1.4106 0.4191 0.037 Uiso 1 1 calc R . . 
C8 C 0.2557(4) 1.1697(4) 0.41051(17) 0.0284(8) Uani 1 1 d . . . 
H8 H 0.2919 1.2106 0.3562 0.034 Uiso 1 1 calc R . . 
C9 C 0.3034(3) 0.9851(4) 0.45116(15) 0.0231(7) Uani 1 1 d . . . 
C10 C 0.4022(3) 0.8620(4) 0.41505(16) 0.0228(7) Uani 1 1 d . . . 
H10 H 0.4379 0.9014 0.3606 0.027 Uiso 1 1 calc R . . 
C11 C 0.4520(3) 0.6811(4) 0.45565(15) 0.0206(7) Uani 1 1 d . . . 
C12 C 0.3767(3) 0.3784(4) 0.66116(16) 0.0233(7) Uani 1 1 d . . . 
C13 C 0.3170(3) 0.3261(4) 0.72806(16) 0.0267(7) Uani 1 1 d . A . 
C14 C -0.0262(4) 0.3223(4) 0.81316(16) 0.0344(8) Uani 1 1 d . A . 
H14 H -0.0825 0.2741 0.8661 0.041 Uiso 1 1 calc R . . 
C15 C -0.1074(4) 0.2390(5) 0.74879(18) 0.0574(11) Uani 1 1 d . . . 
H15A H -0.2313 0.2827 0.7424 0.086 Uiso 1 1 calc R A . 
H15B H -0.0939 0.1058 0.7663 0.086 Uiso 1 1 calc R . . 
H15C H -0.0484 0.2755 0.6969 0.086 Uiso 1 1 calc R . . 
C16 C -0.0674(4) 0.5298(5) 0.79350(18) 0.0501(10) Uani 1 1 d . . . 
H16A H -0.0114 0.5821 0.7425 0.075 Uiso 1 1 calc R A . 
H16B H -0.0236 0.5792 0.8373 0.075 Uiso 1 1 calc R . . 
H16C H -0.1936 0.5610 0.7881 0.075 Uiso 1 1 calc R . . 
C17 C 0.3089(4) 0.3621(4) 0.90143(15) 0.0266(8) Uani 1 1 d . A . 
H17 H 0.2909 0.4966 0.8791 0.032 Uiso 1 1 calc R . . 
C18 C 0.2153(4) 0.3241(4) 0.98293(16) 0.0377(9) Uani 1 1 d . . . 
H18A H 0.2335 0.1936 1.0077 0.057 Uiso 1 1 calc R A . 
H18B H 0.0906 0.3613 0.9744 0.057 Uiso 1 1 calc R . . 
H18C H 0.2620 0.3931 1.0189 0.057 Uiso 1 1 calc R . . 
C19 C 0.5050(4) 0.3103(4) 0.91284(17) 0.0409(9) Uani 1 1 d . . . 
H19A H 0.5501 0.3778 0.9498 0.061 Uiso 1 1 calc R A . 
H19B H 0.5627 0.3408 0.8603 0.061 Uiso 1 1 calc R . . 
H19C H 0.5277 0.1793 0.9357 0.061 Uiso 1 1 calc R . . 
C20 C 0.2650(8) -0.0041(11) 0.8652(3) 0.0274(14) Uani 0.744(7) 1 d PDU A 1 
C21 C 0.145(2) -0.096(3) 0.9124(8) 0.047(3) Uani 0.744(7) 1 d PDU A 1 
H21A H 0.1625 -0.2247 0.9290 0.056 Uiso 0.744(7) 1 calc PR A 1 
H21B H 0.0443 -0.0308 0.9288 0.056 Uiso 0.744(7) 1 calc PR A 1 
C22 C 0.4253(6) -0.1096(6) 0.8395(3) 0.0330(14) Uani 0.744(7) 1 d PDU A 1 
H22A H 0.5214 -0.0308 0.8292 0.040 Uiso 0.744(7) 1 calc PR A 1 
H22B H 0.4622 -0.2158 0.8837 0.040 Uiso 0.744(7) 1 calc PR A 1 
C23 C 0.3896(6) -0.1744(6) 0.7640(2) 0.0379(15) Uani 0.744(7) 1 d PDU A 1 
H23A H 0.2923 -0.2496 0.7736 0.057 Uiso 0.744(7) 1 calc PR A 1 
H23B H 0.4934 -0.2468 0.7499 0.057 Uiso 0.744(7) 1 calc PR A 1 
H23C H 0.3598 -0.0691 0.7193 0.057 Uiso 0.744(7) 1 calc PR A 1 
C20' C 0.230(2) 0.005(4) 0.8445(11) 0.0274(14) Uani 0.256(7) 1 d PDU A 2 
C21' C 0.170(7) -0.085(8) 0.916(3) 0.047(3) Uani 0.256(7) 1 d PD A 2 
H21C H 0.2106 -0.2090 0.9374 0.056 Uiso 0.256(7) 1 calc PR A 2 
H21D H 0.0873 -0.0233 0.9457 0.056 Uiso 0.256(7) 1 calc PR A 2 
C22' C 0.3608(17) -0.093(2) 0.7984(10) 0.047(5) Uiso 0.256(7) 1 d PD A 2 
H22C H 0.3403 -0.0413 0.7398 0.056 Uiso 0.256(7) 1 calc PR A 2 
H22D H 0.3378 -0.2223 0.8091 0.056 Uiso 0.256(7) 1 calc PR A 2 
C23' C 0.5530(17) -0.087(2) 0.8164(8) 0.056(5) Uiso 0.256(7) 1 d PD A 2 
H23D H 0.5877 0.0336 0.7907 0.083 Uiso 0.256(7) 1 calc PR A 2 
H23E H 0.6235 -0.1804 0.7950 0.083 Uiso 0.256(7) 1 calc PR A 2 
H23F H 0.5709 -0.1088 0.8751 0.083 Uiso 0.256(7) 1 calc PR A 2 
 
loop_ 
 _atom_site_aniso_label 
 _atom_site_aniso_U_11 
 _atom_site_aniso_U_22 
 _atom_site_aniso_U_33 
 _atom_site_aniso_U_23 
 _atom_site_aniso_U_13 
 _atom_site_aniso_U_12 
Si1 0.0271(5) 0.0372(6) 0.0222(5) -0.0054(4) 0.0071(4) -0.0083(4) 
C1 0.0158(17) 0.0304(19) 0.0189(15) -0.0097(15) 0.0041(12) -0.0043(14) 
C2 0.0146(16) 0.0275(19) 0.0213(15) -0.0078(14) 0.0007(12) -0.0039(14) 
C3 0.0119(16) 0.034(2) 0.0207(15) -0.0077(15) 0.0020(12) -0.0041(14) 
C4 0.0124(16) 0.033(2) 0.0248(16) -0.0121(15) 0.0005(12) -0.0019(14) 
C5 0.0204(18) 0.041(2) 0.0285(17) -0.0152(16) 0.0000(14) -0.0010(16) 
C6 0.0192(18) 0.037(2) 0.0402(19) -0.0170(17) -0.0005(14) 0.0050(15) 
C7 0.0274(19) 0.0237(19) 0.042(2) -0.0094(16) -0.0054(15) 0.0019(15) 
C8 0.0211(18) 0.033(2) 0.0305(17) -0.0057(16) -0.0029(14) -0.0027(15) 
C9 0.0207(17) 0.027(2) 0.0229(15) -0.0086(15) -0.0016(13) -0.0036(15) 
C10 0.0181(17) 0.032(2) 0.0203(15) -0.0078(15) 0.0037(13) -0.0080(14) 
C11 0.0156(16) 0.029(2) 0.0186(15) -0.0060(14) -0.0005(12) -0.0063(14) 
C12 0.0216(17) 0.0246(19) 0.0253(17) -0.0097(14) -0.0006(13) -0.0011(14) 
C13 0.0224(18) 0.031(2) 0.0276(17) -0.0090(15) 0.0005(14) -0.0029(15) 
C14 0.0251(18) 0.053(2) 0.0241(17) -0.0054(16) 0.0094(14) -0.0083(16) 
C15 0.030(2) 0.109(3) 0.039(2) -0.024(2) 0.0020(16) -0.014(2) 
C16 0.033(2) 0.070(3) 0.039(2) -0.0005(19) 0.0019(16) 0.0133(19) 
C17 0.0272(19) 0.0296(19) 0.0230(16) -0.0056(14) 0.0098(13) -0.0045(15) 
C18 0.038(2) 0.049(2) 0.0292(17) -0.0146(16) 0.0076(15) -0.0106(17) 
C19 0.036(2) 0.055(2) 0.0372(19) -0.0169(17) 0.0046(15) -0.0150(17) 
C20 0.025(3) 0.038(2) 0.020(3) -0.002(3) 0.002(2) -0.011(2) 
C21 0.060(6) 0.033(3) 0.050(3) -0.014(2) 0.016(4) -0.010(3) 
C22 0.029(3) 0.034(3) 0.033(3) 0.002(2) -0.001(2) -0.008(2) 
C23 0.045(3) 0.035(3) 0.033(3) -0.007(2) 0.009(2) -0.002(2) 
C20' 0.025(3) 0.038(2) 0.020(3) -0.002(3) 0.002(2) -0.011(2) 
C21' 0.060(6) 0.033(3) 0.050(3) -0.014(2) 0.016(4) -0.010(3) 
 
_geom_special_details 
; 
 All esds (except the esd in the dihedral angle between two l.s. planes) 
 are estimated using the full covariance matrix.  The cell esds are taken 
 into account individually in the estimation of esds in distances, angles 
 and torsion angles; correlations between esds in cell parameters are only 
 used when they are defined by crystal symmetry.  An approximate (isotropic) 
 treatment of cell esds is used for estimating esds involving l.s. planes. 
; 
 
loop_ 
 _geom_bond_atom_site_label_1 
 _geom_bond_atom_site_label_2 
 _geom_bond_distance 
 _geom_bond_site_symmetry_2 
 _geom_bond_publ_flag 
Si1 C20' 1.81(3) . ? 
Si1 C13 1.834(3) . ? 
Si1 C14 1.874(3) . ? 
Si1 C17 1.878(3) . ? 
Si1 C20 1.896(8) . ? 
C1 C11 1.405(4) 2_666 ? 
C1 C2 1.418(4) . ? 
C1 C12 1.441(3) . ? 
C2 C3 1.408(4) . ? 
C2 C11 1.453(3) . ? 
C3 C4 1.379(4) . ? 
C3 H3 0.9500 . ? 
C4 C5 1.434(4) . ? 
C4 C9 1.445(3) . ? 
C5 C6 1.351(4) . ? 
C5 H5 0.9500 . ? 
C6 C7 1.422(4) . ? 
C6 H6 0.9500 . ? 
C7 C8 1.353(4) . ? 
C7 H7 0.9500 . ? 
C8 C9 1.427(4) . ? 
C8 H8 0.9500 . ? 
C9 C10 1.384(4) . ? 
C10 C11 1.406(4) . ? 
C10 H10 0.9500 . ? 
C11 C1 1.405(4) 2_666 ? 
C12 C13 1.214(3) . ? 
C14 C16 1.532(4) . ? 
C14 C15 1.546(4) . ? 
C14 H14 1.0000 . ? 
C15 H15A 0.9800 . ? 
C15 H15B 0.9800 . ? 
C15 H15C 0.9800 . ? 
C16 H16A 0.9800 . ? 
C16 H16B 0.9800 . ? 
C16 H16C 0.9800 . ? 
C17 C19 1.530(4) . ? 
C17 C18 1.531(3) . ? 
C17 H17 1.0000 . ? 
C18 H18A 0.9800 . ? 
C18 H18B 0.9800 . ? 
C18 H18C 0.9800 . ? 
C19 H19A 0.9800 . ? 
C19 H19B 0.9800 . ? 
C19 H19C 0.9800 . ? 
C20 C21 1.356(10) . ? 
C20 C22 1.514(6) . ? 
C21 H21A 0.9500 . ? 
C21 H21B 0.9500 . ? 
C22 C23 1.506(6) . ? 
C22 H22A 0.9900 . ? 
C22 H22B 0.9900 . ? 
C23 H23A 0.9800 . ? 
C23 H23B 0.9800 . ? 
C23 H23C 0.9800 . ? 
C20' C21' 1.356(18) . ? 
C20' C22' 1.500(15) . ? 
C21' H21C 0.9500 . ? 
C21' H21D 0.9500 . ? 
C22' C23' 1.529(14) . ? 
C22' H22C 0.9900 . ? 
C22' H22D 0.9900 . ? 
C23' H23D 0.9800 . ? 
C23' H23E 0.9800 . ? 
C23' H23F 0.9800 . ? 
 
loop_ 
 _geom_angle_atom_site_label_1 
 _geom_angle_atom_site_label_2 
 _geom_angle_atom_site_label_3 
 _geom_angle 
 _geom_angle_site_symmetry_1 
 _geom_angle_site_symmetry_3 
 _geom_angle_publ_flag 
C20' Si1 C13 105.6(6) . . ? 
C20' Si1 C14 104.3(6) . . ? 
C13 Si1 C14 107.92(12) . . ? 
C20' Si1 C17 119.5(6) . . ? 
C13 Si1 C17 108.19(12) . . ? 
C14 Si1 C17 110.66(13) . . ? 
C13 Si1 C20 110.53(19) . . ? 
C14 Si1 C20 113.0(2) . . ? 
C17 Si1 C20 106.4(2) . . ? 
C11 C1 C2 121.1(2) 2_666 . ? 
C11 C1 C12 119.6(3) 2_666 . ? 
C2 C1 C12 119.2(2) . . ? 
C3 C2 C1 122.2(2) . . ? 
C3 C2 C11 118.9(3) . . ? 
C1 C2 C11 118.9(2) . . ? 
C4 C3 C2 122.3(2) . . ? 
C4 C3 H3 118.9 . . ? 
C2 C3 H3 118.9 . . ? 
C3 C4 C5 122.8(3) . . ? 
C3 C4 C9 119.1(3) . . ? 
C5 C4 C9 118.1(3) . . ? 
C6 C5 C4 121.2(3) . . ? 
C6 C5 H5 119.4 . . ? 
C4 C5 H5 119.4 . . ? 
C5 C6 C7 120.8(3) . . ? 
C5 C6 H6 119.6 . . ? 
C7 C6 H6 119.6 . . ? 
C8 C7 C6 120.1(3) . . ? 
C8 C7 H7 119.9 . . ? 
C6 C7 H7 119.9 . . ? 
C7 C8 C9 121.7(3) . . ? 
C7 C8 H8 119.2 . . ? 
C9 C8 H8 119.2 . . ? 
C10 C9 C8 122.7(3) . . ? 
C10 C9 C4 119.1(3) . . ? 
C8 C9 C4 118.1(3) . . ? 
C9 C10 C11 122.7(2) . . ? 
C9 C10 H10 118.6 . . ? 
C11 C10 H10 118.6 . . ? 
C1 C11 C10 122.2(2) 2_666 . ? 
C1 C11 C2 120.0(2) 2_666 . ? 
C10 C11 C2 117.8(3) . . ? 
C13 C12 C1 178.0(3) . . ? 
C12 C13 Si1 176.3(2) . . ? 
C16 C14 C15 110.6(3) . . ? 
C16 C14 Si1 112.3(2) . . ? 
C15 C14 Si1 111.8(2) . . ? 
C16 C14 H14 107.3 . . ? 
C15 C14 H14 107.3 . . ? 
Si1 C14 H14 107.3 . . ? 
C14 C15 H15A 109.5 . . ? 
C14 C15 H15B 109.5 . . ? 
H15A C15 H15B 109.5 . . ? 
C14 C15 H15C 109.5 . . ? 
H15A C15 H15C 109.5 . . ? 
H15B C15 H15C 109.5 . . ? 
C14 C16 H16A 109.5 . . ? 
C14 C16 H16B 109.5 . . ? 
H16A C16 H16B 109.5 . . ? 
C14 C16 H16C 109.5 . . ? 
H16A C16 H16C 109.5 . . ? 
H16B C16 H16C 109.5 . . ? 
C19 C17 C18 110.9(2) . . ? 
C19 C17 Si1 112.53(19) . . ? 
C18 C17 Si1 111.88(19) . . ? 
C19 C17 H17 107.1 . . ? 
C18 C17 H17 107.1 . . ? 
Si1 C17 H17 107.1 . . ? 
C17 C18 H18A 109.5 . . ? 
C17 C18 H18B 109.5 . . ? 
H18A C18 H18B 109.5 . . ? 
C17 C18 H18C 109.5 . . ? 
H18A C18 H18C 109.5 . . ? 
H18B C18 H18C 109.5 . . ? 
C17 C19 H19A 109.5 . . ? 
C17 C19 H19B 109.5 . . ? 
H19A C19 H19B 109.5 . . ? 
C17 C19 H19C 109.5 . . ? 
H19A C19 H19C 109.5 . . ? 
H19B C19 H19C 109.5 . . ? 
C21 C20 C22 119.3(9) . . ? 
C21 C20 Si1 117.8(9) . . ? 
C22 C20 Si1 122.6(5) . . ? 
C20 C21 H21A 120.0 . . ? 
C20 C21 H21B 120.0 . . ? 
H21A C21 H21B 120.0 . . ? 
C23 C22 C20 111.0(5) . . ? 
C23 C22 H22A 109.4 . . ? 
C20 C22 H22A 109.4 . . ? 
C23 C22 H22B 109.4 . . ? 
C20 C22 H22B 109.4 . . ? 
H22A C22 H22B 108.0 . . ? 
C21' C20' C22' 120(3) . . ? 
C21' C20' Si1 117(3) . . ? 
C22' C20' Si1 119.5(16) . . ? 
C20' C21' H21C 120.0 . . ? 
C20' C21' H21D 120.0 . . ? 
H21C C21' H21D 120.0 . . ? 
C20' C22' C23' 117.1(16) . . ? 
C20' C22' H22C 108.0 . . ? 
C23' C22' H22C 108.0 . . ? 
C20' C22' H22D 108.0 . . ? 
C23' C22' H22D 108.0 . . ? 
H22C C22' H22D 107.3 . . ? 
C22' C23' H23D 109.5 . . ? 
C22' C23' H23E 109.5 . . ? 
H23D C23' H23E 109.5 . . ? 
C22' C23' H23F 109.5 . . ? 
H23D C23' H23F 109.5 . . ? 
H23E C23' H23F 109.5 . . ? 
 
loop_ 
 _geom_torsion_atom_site_label_1 
 _geom_torsion_atom_site_label_2 
 _geom_torsion_atom_site_label_3 
 _geom_torsion_atom_site_label_4 
 _geom_torsion 
 _geom_torsion_site_symmetry_1 
 _geom_torsion_site_symmetry_2 
 _geom_torsion_site_symmetry_3 
 _geom_torsion_site_symmetry_4 
 _geom_torsion_publ_flag 
C11 C1 C2 C3 -178.6(2) 2_666 . . . ? 
C12 C1 C2 C3 3.3(4) . . . . ? 
C11 C1 C2 C11 0.9(4) 2_666 . . . ? 
C12 C1 C2 C11 -177.2(2) . . . . ? 
C1 C2 C3 C4 178.3(2) . . . . ? 
C11 C2 C3 C4 -1.2(4) . . . . ? 
C2 C3 C4 C5 -178.8(3) . . . . ? 
C2 C3 C4 C9 1.5(4) . . . . ? 
C3 C4 C5 C6 179.9(3) . . . . ? 
C9 C4 C5 C6 -0.4(4) . . . . ? 
C4 C5 C6 C7 0.2(4) . . . . ? 
C5 C6 C7 C8 0.4(4) . . . . ? 
C6 C7 C8 C9 -0.8(4) . . . . ? 
C7 C8 C9 C10 -179.4(3) . . . . ? 
C7 C8 C9 C4 0.6(4) . . . . ? 
C3 C4 C9 C10 -0.2(4) . . . . ? 
C5 C4 C9 C10 -180.0(2) . . . . ? 
C3 C4 C9 C8 179.8(2) . . . . ? 
C5 C4 C9 C8 0.0(4) . . . . ? 
C8 C9 C10 C11 178.7(2) . . . . ? 
C4 C9 C10 C11 -1.3(4) . . . . ? 
C9 C10 C11 C1 -177.3(2) . . . 2_666 ? 
C9 C10 C11 C2 1.5(4) . . . . ? 
C3 C2 C11 C1 178.6(2) . . . 2_666 ? 
C1 C2 C11 C1 -0.9(4) . . . 2_666 ? 
C3 C2 C11 C10 -0.3(3) . . . . ? 
C1 C2 C11 C10 -179.8(2) . . . . ? 
C20' Si1 C14 C16 -177.7(6) . . . . ? 
C13 Si1 C14 C16 -65.7(2) . . . . ? 
C17 Si1 C14 C16 52.5(2) . . . . ? 
C20 Si1 C14 C16 171.8(2) . . . . ? 
C20' Si1 C14 C15 -52.7(6) . . . . ? 
C13 Si1 C14 C15 59.4(2) . . . . ? 
C17 Si1 C14 C15 177.6(2) . . . . ? 
C20 Si1 C14 C15 -63.2(3) . . . . ? 
C20' Si1 C17 C19 59.9(7) . . . . ? 
C13 Si1 C17 C19 -60.9(2) . . . . ? 
C14 Si1 C17 C19 -178.90(19) . . . . ? 
C20 Si1 C17 C19 57.9(3) . . . . ? 
C20' Si1 C17 C18 -65.7(7) . . . . ? 
C13 Si1 C17 C18 173.5(2) . . . . ? 
C14 Si1 C17 C18 55.5(2) . . . . ? 
C20 Si1 C17 C18 -67.6(3) . . . . ? 
C20' Si1 C20 C21 -80(3) . . . . ? 
C13 Si1 C20 C21 -149.9(10) . . . . ? 
C14 Si1 C20 C21 -28.8(10) . . . . ? 
C17 Si1 C20 C21 92.9(10) . . . . ? 
C20' Si1 C20 C22 95(3) . . . . ? 
C13 Si1 C20 C22 24.3(5) . . . . ? 
C14 Si1 C20 C22 145.4(4) . . . . ? 
C17 Si1 C20 C22 -92.9(4) . . . . ? 
C21 C20 C22 C23 85.7(10) . . . . ? 
Si1 C20 C22 C23 -88.4(5) . . . . ? 
C13 Si1 C20' C21' 177(3) . . . . ? 
C14 Si1 C20' C21' -70(3) . . . . ? 
C17 Si1 C20' C21' 54(3) . . . . ? 
C20 Si1 C20' C21' 63(4) . . . . ? 
C13 Si1 C20' C22' 18.5(16) . . . . ? 
C14 Si1 C20' C22' 132.2(13) . . . . ? 
C17 Si1 C20' C22' -103.5(13) . . . . ? 
C20 Si1 C20' C22' -95(4) . . . . ? 
C21' C20' C22' C23' -90(4) . . . . ? 
Si1 C20' C22' C23' 67.5(19) . . . . ? 
 
_diffrn_measured_fraction_theta_max    0.997 
_diffrn_reflns_theta_full              24.99 
_diffrn_measured_fraction_theta_full   0.997 
_refine_diff_density_max    0.265 
_refine_diff_density_min   -0.254 
_refine_diff_density_rms    0.056 
