 
data_k08215x 
 
_audit_creation_method            SHELXL-97 
_chemical_name_systematic 
; 
 ? 
; 
_chemical_name_common             ? 
_chemical_melting_point           ? 
_chemical_formula_moiety 
 'C44 H50 F4 Si2' 
_chemical_formula_sum 
 'C44 H50 F4 Si2' 
_chemical_formula_weight          711.02 
 
loop_ 
 _atom_type_symbol 
 _atom_type_description 
 _atom_type_scat_dispersion_real 
 _atom_type_scat_dispersion_imag 
 _atom_type_scat_source 
 'C'  'C'   0.0033   0.0016 
 'International Tables Vol C Tables 4.2.6.8 and 6.1.1.4' 
 'H'  'H'   0.0000   0.0000 
 'International Tables Vol C Tables 4.2.6.8 and 6.1.1.4' 
 'F'  'F'   0.0171   0.0103 
 'International Tables Vol C Tables 4.2.6.8 and 6.1.1.4' 
 'Si'  'Si'   0.0817   0.0704 
 'International Tables Vol C Tables 4.2.6.8 and 6.1.1.4' 
 
_symmetry_cell_setting            triclinic
_symmetry_space_group_name_H-M    'P -1'
_symmetry_space_group_name_Hall   '-P 1'
 
loop_ 
 _symmetry_equiv_pos_as_xyz 
 'x, y, z' 
 '-x, -y, -z' 
 
_cell_length_a                    7.14110(10) 
_cell_length_b                    8.3011(2) 
_cell_length_c                    17.9335(5) 
_cell_angle_alpha                 87.3699(9) 
_cell_angle_beta                  82.4797(10) 
_cell_angle_gamma                 66.9838(10) 
_cell_volume                      970.02(4) 
_cell_formula_units_Z             1 
_cell_measurement_temperature     150.0(2) 
_cell_measurement_reflns_used     4409
_cell_measurement_theta_min       1.00
_cell_measurement_theta_max       27.48
 
_exptl_crystal_description        slab
_exptl_crystal_colour             'deep purple'
_exptl_crystal_size_max           0.25 
_exptl_crystal_size_mid           0.22 
_exptl_crystal_size_min           0.08 
_exptl_crystal_density_meas       ? 
_exptl_crystal_density_diffrn     1.217 
_exptl_crystal_density_method     'not measured' 
_exptl_crystal_F_000              378 
_exptl_absorpt_coefficient_mu     0.141 
_exptl_absorpt_correction_type    multi-scan 
_exptl_absorpt_correction_T_min   0.966
_exptl_absorpt_correction_T_max   0.989 
_exptl_absorpt_process_details    'Scalepack (Otwinowski & Minor, 1997)' 
 
_exptl_special_details 
; 
 The crystals shatter on cooling to 90K but remain intact when cooled
 to 150K.
; 
 
_diffrn_ambient_temperature       150.0(2) 
_diffrn_radiation_wavelength      0.71073 
_diffrn_radiation_type            MoK\a 
_diffrn_radiation_source          'fine-focus sealed tube'    
_diffrn_radiation_monochromator   'graphite'                 
_diffrn_measurement_device_type   'Nonius KappaCCD diffractometer'  
_diffrn_measurement_method        '\w scans at fixed \c = 55\%'
_diffrn_detector_area_resol_mean  18
_diffrn_standards_number          0 
_diffrn_standards_interval_count  . 
_diffrn_standards_interval_time   . 
_diffrn_standards_decay_%         ? 
_diffrn_reflns_number             4438 
_diffrn_reflns_av_R_equivalents   0.052 
_diffrn_reflns_av_sigmaI/netI     0.0517 
_diffrn_reflns_limit_h_min        -9 
_diffrn_reflns_limit_h_max        9 
_diffrn_reflns_limit_k_min        -10 
_diffrn_reflns_limit_k_max        10 
_diffrn_reflns_limit_l_min        0 
_diffrn_reflns_limit_l_max        23 
_diffrn_reflns_theta_min          2.29 
_diffrn_reflns_theta_max          27.47 
_reflns_number_total              4438 
_reflns_number_gt                 3212 
_reflns_threshold_expression      >2\s(I)    
 
_computing_data_collection        'COLLECT (Nonius, 1998)'
_computing_cell_refinement        'SCALEPACK (Otwinowski & Minor, 1997)'
_computing_data_reduction         'DENZO-SMN (Otwinowski & Minor, 1997)'
_computing_structure_solution     'SHELXS-97 (Sheldrick, 2008)' 
_computing_structure_refinement   'SHELXL-97 (Sheldrick, 2008)' 
_computing_molecular_graphics     'XP in SHELXTL (Sheldrick, 2008)'
_computing_publication_material
; 
SHELX97-2 (Sheldrick, 2008) and local procedures 
; 

_publ_section_exptl_refinement
;
H atoms were found in difference Fourier maps and subsequently placed in
idealized positions with constrained distances of 
0.98 \%A (RCH~3~),
0.99 \%A (R~2~CH~2~),
0.95 \%A (C~Ar~H),
and with U~iso~(H) values set to either 1.2U~eq~ or 1.5U~eq~ (RCH~3~) 
of the attached atom. 
;

_refine_special_details 
; 
 Refinement of F^2^ against ALL reflections.  The weighted R-factor wR and 
 goodness of fit S are based on F^2^, conventional R-factors R are based 
 on F, with F set to zero for negative F^2^. The threshold expression of 
 F^2^ > 2\s(F^2^) is used only for calculating R-factors(gt) etc. and is 
 not relevant to the choice of reflections for refinement.  R-factors based 
 on F^2^ are statistically about twice as large as those based on F, and R- 
 factors based on ALL data will be even larger. 
; 
 
_refine_ls_structure_factor_coef  Fsqd  
_refine_ls_matrix_type            full 
_refine_ls_weighting_scheme       calc  
_refine_ls_weighting_details 
 'calc w=1/[\s^2^(Fo^2^)+2.9525P] where P=(Fo^2^+2Fc^2^)/3' 
_atom_sites_solution_primary      direct 
_atom_sites_solution_secondary    difmap 
_atom_sites_solution_hydrogens    geom 
_refine_ls_hydrogen_treatment     constr 
_refine_ls_extinction_method      none 
_refine_ls_extinction_coef        ? 
_refine_ls_number_reflns          4438 
_refine_ls_number_parameters      266 
_refine_ls_number_restraints      116 
_refine_ls_R_factor_all           0.1089 
_refine_ls_R_factor_gt            0.0830 
_refine_ls_wR_factor_ref          0.2058 
_refine_ls_wR_factor_gt           0.1967 
_refine_ls_goodness_of_fit_ref    1.099 
_refine_ls_restrained_S_all       1.131 
_refine_ls_shift/su_max           0.001 
_refine_ls_shift/su_mean          0.000 
 
loop_ 
 _atom_site_label 
 _atom_site_type_symbol 
 _atom_site_fract_x 
 _atom_site_fract_y 
 _atom_site_fract_z 
 _atom_site_U_iso_or_equiv 
 _atom_site_adp_type 
 _atom_site_occupancy 
 _atom_site_symmetry_multiplicity 
 _atom_site_calc_flag 
 _atom_site_refinement_flags 
 _atom_site_disorder_assembly 
 _atom_site_disorder_group 
Si1 Si 0.64195(18) 0.75398(16) 0.19457(6) 0.0410(3) Uani 1 1 d D . . 
C1 C 0.5495(5) 0.5634(5) 0.4284(2) 0.0289(7) Uani 1 1 d . . . 
C2 C 0.6291(5) 0.3807(4) 0.44236(19) 0.0274(7) Uani 1 1 d . B . 
C3 C 0.7592(5) 0.2597(5) 0.3871(2) 0.0305(8) Uani 1 1 d . . . 
H3 H 0.7975 0.3022 0.3399 0.037 Uiso 1 1 calc R . . 
C4 C 0.8333(5) 0.0813(5) 0.3989(2) 0.0299(8) Uani 1 1 d . B . 
C5 C 0.9640(6) -0.0437(5) 0.3434(2) 0.0356(8) Uani 1 1 d . . . 
H5 H 1.0075 -0.0027 0.2961 0.043 Uiso 0.50 1 calc PR A 2 
F1 F 1.0056(7) 0.0297(6) 0.2779(2) 0.0423(11) Uani 0.50 1 d P B 1 
C6 C 1.0285(6) -0.2175(5) 0.3552(2) 0.0395(9) Uani 1 1 d . B . 
H6 H 1.1128 -0.2982 0.3160 0.047 Uiso 0.50 1 calc PR C 2 
F2 F 1.1301(7) -0.3216(6) 0.3025(3) 0.0462(12) Uani 0.50 1 d P B 1 
C7 C 0.9711(6) -0.2810(5) 0.4260(2) 0.0400(9) Uani 1 1 d . . . 
H7 H 1.0195 -0.4049 0.4343 0.048 Uiso 0.50 1 calc PR B 2 
F3 F 1.0297(8) -0.4439(6) 0.4359(3) 0.0450(11) Uani 0.50 1 d P B 1 
C8 C 0.8513(6) -0.1714(5) 0.4810(2) 0.0346(8) Uani 1 1 d . B . 
H8 H 0.8153 -0.2181 0.5281 0.041 Uiso 0.50 1 calc PR D 2 
F4 F 0.7867(7) -0.2188(6) 0.5496(2) 0.0404(10) Uani 0.50 1 d P B 1 
C9 C 0.7753(5) 0.0154(5) 0.4710(2) 0.0304(8) Uani 1 1 d . . . 
C10 C 0.6522(5) 0.1333(5) 0.5269(2) 0.0301(8) Uani 1 1 d . B . 
H10 H 0.6184 0.0903 0.5745 0.036 Uiso 1 1 calc R . . 
C11 C 0.5753(5) 0.3174(4) 0.51463(19) 0.0272(7) Uani 1 1 d . . . 
C12 C 0.5902(6) 0.6255(5) 0.3545(2) 0.0328(8) Uani 1 1 d . . . 
C13 C 0.6149(6) 0.6779(5) 0.2916(2) 0.0356(8) Uani 1 1 d . E . 
C14 C 0.6225(13) 0.9872(7) 0.1962(4) 0.0606(17) Uani 0.92(2) 1 d PDU E 1 
H14A H 0.7531 0.9877 0.2090 0.073 Uiso 0.92(2) 1 calc PR E 1 
H14B H 0.6022 1.0379 0.1454 0.073 Uiso 0.92(2) 1 calc PR E 1 
C15 C 0.4460(12) 1.1016(8) 0.2531(5) 0.076(2) Uani 0.92(2) 1 d PDU E 1 
H15A H 0.4716 1.0555 0.3043 0.092 Uiso 0.92(2) 1 calc PR E 1 
H15B H 0.3170 1.0941 0.2425 0.092 Uiso 0.92(2) 1 calc PR E 1 
C16 C 0.420(2) 1.2945(9) 0.2510(7) 0.097(3) Uani 0.92(2) 1 d PDU E 1 
H16A H 0.5475 1.3034 0.2282 0.145 Uiso 0.92(2) 1 calc PR E 1 
H16B H 0.3852 1.3417 0.3024 0.145 Uiso 0.92(2) 1 calc PR E 1 
H16C H 0.3089 1.3616 0.2212 0.145 Uiso 0.92(2) 1 calc PR E 1 
C14' C 0.571(17) 0.993(4) 0.216(6) 0.075(4) Uiso 0.08(2) 1 d PDU E 2 
H14C H 0.7005 1.0113 0.2021 0.090 Uiso 0.08(2) 1 calc PR E 2 
H14D H 0.4819 1.0567 0.1770 0.090 Uiso 0.08(2) 1 calc PR E 2 
C15' C 0.471(14) 1.100(9) 0.288(5) 0.083(5) Uiso 0.08(2) 1 d PDU E 2 
H15C H 0.5800 1.0958 0.3179 0.099 Uiso 0.08(2) 1 calc PR E 2 
H15D H 0.3862 1.0443 0.3182 0.099 Uiso 0.08(2) 1 calc PR E 2 
C16' C 0.335(15) 1.293(7) 0.274(6) 0.078(8) Uiso 0.08(2) 1 d PDU E 2 
H16D H 0.2792 1.3545 0.3221 0.118 Uiso 0.08(2) 1 calc PR E 2 
H16E H 0.2224 1.2982 0.2467 0.118 Uiso 0.08(2) 1 calc PR E 2 
H16F H 0.4178 1.3487 0.2438 0.118 Uiso 0.08(2) 1 calc PR E 2 
C17 C 0.4280(6) 0.7440(6) 0.1467(2) 0.0394(9) Uani 1 1 d D E . 
H17A H 0.4255 0.6259 0.1539 0.047 Uiso 1 1 calc R . . 
H17B H 0.2961 0.8293 0.1713 0.047 Uiso 1 1 calc R . . 
C18 C 0.4454(8) 0.7827(7) 0.0629(2) 0.0573(13) Uani 1 1 d . . . 
H18A H 0.4459 0.9015 0.0559 0.069 Uiso 1 1 calc R E . 
H18B H 0.5786 0.6987 0.0387 0.069 Uiso 1 1 calc R . . 
C19 C 0.2760(9) 0.7724(9) 0.0232(3) 0.0724(16) Uani 1 1 d . E . 
H19A H 0.2568 0.6639 0.0373 0.109 Uiso 1 1 calc R . . 
H19B H 0.3132 0.7736 -0.0314 0.109 Uiso 1 1 calc R . . 
H19C H 0.1483 0.8730 0.0379 0.109 Uiso 1 1 calc R . . 
C20 C 0.8946(8) 0.6032(9) 0.1465(4) 0.0564(15) Uani 0.85(3) 1 d PDU E 1 
H20A H 0.9120 0.6413 0.0939 0.068 Uiso 0.85(3) 1 calc PR E 1 
H20B H 1.0060 0.6102 0.1721 0.068 Uiso 0.85(3) 1 calc PR E 1 
C21 C 0.9120(11) 0.4140(11) 0.1471(4) 0.0752(18) Uani 0.85(3) 1 d PDU E 1 
H21A H 0.9268 0.3675 0.1987 0.090 Uiso 0.85(3) 1 calc PR E 1 
H21B H 0.7840 0.4113 0.1327 0.090 Uiso 0.85(3) 1 calc PR E 1 
C22 C 1.0925(10) 0.297(2) 0.0937(4) 0.096(3) Uani 0.85(3) 1 d PDU E 1 
H22A H 1.0564 0.3134 0.0422 0.143 Uiso 0.85(3) 1 calc PR E 1 
H22B H 1.1266 0.1742 0.1081 0.143 Uiso 0.85(3) 1 calc PR E 1 
H22C H 1.2111 0.3271 0.0962 0.143 Uiso 0.85(3) 1 calc PR E 1 
C20' C 0.885(3) 0.5863(19) 0.1406(12) 0.061(4) Uiso 0.15(3) 1 d PRDU E 2 
H20C H 0.8791 0.6107 0.0862 0.073 Uiso 0.15(3) 1 calc PR E 2 
H20D H 1.0043 0.6059 0.1542 0.073 Uiso 0.15(3) 1 calc PR E 2 
C21' C 0.924(3) 0.3944(19) 0.1527(6) 0.063(4) Uiso 0.15(3) 1 d PRDU E 2 
H21C H 0.7975 0.3787 0.1451 0.075 Uiso 0.15(3) 1 calc PR E 2 
H21D H 0.9449 0.3679 0.2061 0.075 Uiso 0.15(3) 1 calc PR E 2 
C22' C 1.120(3) 0.2428(18) 0.1003(9) 0.063(8) Uiso 0.15(3) 1 d PRDU E 2 
H22D H 1.1236 0.1261 0.1141 0.094 Uiso 0.15(3) 1 calc PR E 2 
H22E H 1.2492 0.2499 0.1091 0.094 Uiso 0.15(3) 1 calc PR E 2 
H22F H 1.1022 0.2637 0.0469 0.094 Uiso 0.15(3) 1 calc PR E 2 
 
loop_ 
 _atom_site_aniso_label 
 _atom_site_aniso_U_11 
 _atom_site_aniso_U_22 
 _atom_site_aniso_U_33 
 _atom_site_aniso_U_23 
 _atom_site_aniso_U_13 
 _atom_site_aniso_U_12 
Si1 0.0428(7) 0.0476(7) 0.0357(6) 0.0077(5) -0.0067(5) -0.0213(5) 
C1 0.0288(18) 0.0273(18) 0.0310(18) 0.0002(14) -0.0052(14) -0.0108(15) 
C2 0.0264(18) 0.0253(18) 0.0299(18) -0.0022(14) -0.0061(14) -0.0082(14) 
C3 0.0305(19) 0.0319(19) 0.0283(18) -0.0020(14) -0.0020(14) -0.0115(16) 
C4 0.0278(18) 0.0294(18) 0.0322(18) -0.0021(14) -0.0060(14) -0.0098(15) 
C5 0.039(2) 0.037(2) 0.0330(19) -0.0040(16) -0.0014(16) -0.0168(18) 
F1 0.045(3) 0.040(3) 0.037(2) -0.004(2) 0.004(2) -0.014(2) 
C6 0.042(2) 0.037(2) 0.040(2) -0.0075(17) -0.0027(17) -0.0159(18) 
F2 0.050(3) 0.033(2) 0.045(3) -0.011(2) 0.006(2) -0.007(2) 
C7 0.043(2) 0.034(2) 0.047(2) -0.0010(17) -0.0095(18) -0.0184(18) 
F3 0.051(3) 0.024(2) 0.054(3) -0.005(2) -0.004(2) -0.010(2) 
C8 0.034(2) 0.033(2) 0.039(2) 0.0003(16) -0.0074(16) -0.0140(17) 
F4 0.046(3) 0.033(2) 0.041(2) 0.0028(19) -0.004(2) -0.015(2) 
C9 0.0295(18) 0.0287(18) 0.0349(19) -0.0016(15) -0.0085(15) -0.0116(15) 
C10 0.0284(18) 0.0294(18) 0.0323(18) 0.0028(14) -0.0064(14) -0.0106(15) 
C11 0.0254(17) 0.0253(17) 0.0302(17) -0.0032(13) -0.0051(14) -0.0082(14) 
C12 0.0319(19) 0.032(2) 0.0342(19) 0.0004(15) -0.0042(15) -0.0126(16) 
C13 0.036(2) 0.033(2) 0.035(2) -0.0018(16) -0.0034(16) -0.0112(17) 
C14 0.072(4) 0.064(3) 0.066(4) 0.023(3) -0.030(3) -0.044(3) 
C15 0.106(4) 0.053(3) 0.075(4) 0.004(3) -0.023(3) -0.033(3) 
C16 0.134(7) 0.053(4) 0.121(7) 0.012(4) -0.062(5) -0.043(4) 
C17 0.040(2) 0.042(2) 0.038(2) 0.0009(17) -0.0036(17) -0.0174(19) 
C18 0.055(3) 0.081(4) 0.040(2) 0.010(2) -0.008(2) -0.032(3) 
C19 0.076(4) 0.108(5) 0.047(3) 0.007(3) -0.017(3) -0.048(4) 
C20 0.043(3) 0.083(4) 0.039(3) 0.005(3) -0.004(2) -0.021(3) 
C21 0.057(3) 0.089(4) 0.058(3) -0.016(3) 0.003(3) -0.007(3) 
C22 0.064(4) 0.119(7) 0.067(4) -0.022(4) -0.004(3) 0.006(5) 
 
_geom_special_details 
; 
 All esds (except the esd in the dihedral angle between two l.s. planes) 
 are estimated using the full covariance matrix.  The cell esds are taken 
 into account individually in the estimation of esds in distances, angles 
 and torsion angles; correlations between esds in cell parameters are only 
 used when they are defined by crystal symmetry.  An approximate (isotropic) 
 treatment of cell esds is used for estimating esds involving l.s. planes. 
; 
 
loop_ 
 _geom_bond_atom_site_label_1 
 _geom_bond_atom_site_label_2 
 _geom_bond_distance 
 _geom_bond_site_symmetry_2 
 _geom_bond_publ_flag 
Si1 C13 1.837(4) . ? 
Si1 C20 1.868(5) . ? 
Si1 C17 1.878(4) . ? 
Si1 C14 1.887(5) . ? 
Si1 C14' 1.890(9) . ? 
Si1 C20' 1.919(7) . ? 
C1 C11 1.408(5) 2_666 ? 
C1 C2 1.419(5) . ? 
C1 C12 1.435(5) . ? 
C2 C3 1.405(5) . ? 
C2 C11 1.438(5) . ? 
C3 C4 1.381(5) . ? 
C3 H3 0.9500 . ? 
C4 C5 1.426(5) . ? 
C4 C9 1.454(5) . ? 
C5 C6 1.347(5) . ? 
C5 F1 1.352(6) . ? 
C5 H5 0.9600 . ? 
C6 F2 1.254(6) . ? 
C6 C7 1.424(6) . ? 
C6 H6 0.9600 . ? 
C7 F3 1.261(6) . ? 
C7 C8 1.336(6) . ? 
C7 H7 0.9600 . ? 
C8 F4 1.353(6) . ? 
C8 C9 1.440(5) . ? 
C8 H8 0.9600 . ? 
C9 C10 1.386(5) . ? 
C10 C11 1.424(5) . ? 
C10 H10 0.9500 . ? 
C11 C1 1.408(5) 2_666 ? 
C12 C13 1.206(5) . ? 
C14 C15 1.532(9) . ? 
C14 H14A 0.9900 . ? 
C14 H14B 0.9900 . ? 
C15 C16 1.536(8) . ? 
C15 H15A 0.9900 . ? 
C15 H15B 0.9900 . ? 
C16 H16A 0.9800 . ? 
C16 H16B 0.9800 . ? 
C16 H16C 0.9800 . ? 
C14' C15' 1.53(2) . ? 
C14' H14C 0.9900 . ? 
C14' H14D 0.9900 . ? 
C15' C16' 1.55(2) . ? 
C15' H15C 0.9900 . ? 
C15' H15D 0.9900 . ? 
C16' H16D 0.9800 . ? 
C16' H16E 0.9800 . ? 
C16' H16F 0.9800 . ? 
C17 C18 1.522(6) . ? 
C17 H17A 0.9900 . ? 
C17 H17B 0.9900 . ? 
C18 C19 1.514(7) . ? 
C18 H18A 0.9900 . ? 
C18 H18B 0.9900 . ? 
C19 H19A 0.9800 . ? 
C19 H19B 0.9800 . ? 
C19 H19C 0.9800 . ? 
C20 C21 1.526(8) . ? 
C20 H20A 0.9900 . ? 
C20 H20B 0.9900 . ? 
C21 C22 1.519(8) . ? 
C21 H21A 0.9900 . ? 
C21 H21B 0.9900 . ? 
C22 H22A 0.9800 . ? 
C22 H22B 0.9800 . ? 
C22 H22C 0.9800 . ? 
C20' C21' 1.516(13) . ? 
C20' H20C 0.9900 . ? 
C20' H20D 0.9900 . ? 
C21' C22' 1.6779 . ? 
C21' H21C 0.9900 . ? 
C21' H21D 0.9900 . ? 
C22' H22D 0.9800 . ? 
C22' H22E 0.9800 . ? 
C22' H22F 0.9800 . ? 
 
loop_ 
 _geom_angle_atom_site_label_1 
 _geom_angle_atom_site_label_2 
 _geom_angle_atom_site_label_3 
 _geom_angle 
 _geom_angle_site_symmetry_1 
 _geom_angle_site_symmetry_3 
 _geom_angle_publ_flag 
C13 Si1 C20 107.8(2) . . ? 
C13 Si1 C17 108.09(18) . . ? 
C20 Si1 C17 110.0(3) . . ? 
C13 Si1 C14 109.1(3) . . ? 
C20 Si1 C14 112.0(4) . . ? 
C17 Si1 C14 109.7(3) . . ? 
C13 Si1 C14' 98(3) . . ? 
C20 Si1 C14' 125(3) . . ? 
C17 Si1 C14' 106(4) . . ? 
C14 Si1 C14' 14(3) . . ? 
C13 Si1 C20' 108.7(6) . . ? 
C20 Si1 C20' 6.4(9) . . ? 
C17 Si1 C20' 104.0(9) . . ? 
C14 Si1 C20' 116.9(6) . . ? 
C14' Si1 C20' 130(3) . . ? 
C11 C1 C2 120.6(3) 2_666 . ? 
C11 C1 C12 120.1(3) 2_666 . ? 
C2 C1 C12 119.3(3) . . ? 
C3 C2 C1 121.5(3) . . ? 
C3 C2 C11 119.1(3) . . ? 
C1 C2 C11 119.4(3) . . ? 
C4 C3 C2 122.3(3) . . ? 
C4 C3 H3 118.8 . . ? 
C2 C3 H3 118.8 . . ? 
C3 C4 C5 123.3(3) . . ? 
C3 C4 C9 119.1(3) . . ? 
C5 C4 C9 117.6(3) . . ? 
C6 C5 F1 124.3(4) . . ? 
C6 C5 C4 122.3(4) . . ? 
F1 C5 C4 113.3(4) . . ? 
C6 C5 H5 118.9 . . ? 
F1 C5 H5 6.3 . . ? 
C4 C5 H5 118.9 . . ? 
F2 C6 C5 119.6(4) . . ? 
F2 C6 C7 120.6(4) . . ? 
C5 C6 C7 119.7(4) . . ? 
F2 C6 H6 3.1 . . ? 
C5 C6 H6 120.1 . . ? 
C7 C6 H6 120.1 . . ? 
F3 C7 C8 119.5(4) . . ? 
F3 C7 C6 119.2(4) . . ? 
C8 C7 C6 121.3(4) . . ? 
F3 C7 H7 1.9 . . ? 
C8 C7 H7 119.4 . . ? 
C6 C7 H7 119.4 . . ? 
C7 C8 F4 125.7(4) . . ? 
C7 C8 C9 121.3(4) . . ? 
F4 C8 C9 113.0(4) . . ? 
C7 C8 H8 119.3 . . ? 
F4 C8 H8 6.4 . . ? 
C9 C8 H8 119.3 . . ? 
C10 C9 C8 123.0(3) . . ? 
C10 C9 C4 119.2(3) . . ? 
C8 C9 C4 117.8(3) . . ? 
C9 C10 C11 121.7(3) . . ? 
C9 C10 H10 119.2 . . ? 
C11 C10 H10 119.2 . . ? 
C1 C11 C10 121.4(3) 2_666 . ? 
C1 C11 C2 120.0(3) 2_666 . ? 
C10 C11 C2 118.6(3) . . ? 
C13 C12 C1 176.7(4) . . ? 
C12 C13 Si1 176.9(4) . . ? 
C15 C14 Si1 112.5(5) . . ? 
C15 C14 H14A 109.1 . . ? 
Si1 C14 H14A 109.1 . . ? 
C15 C14 H14B 109.1 . . ? 
Si1 C14 H14B 109.1 . . ? 
H14A C14 H14B 107.8 . . ? 
C14 C15 C16 112.9(7) . . ? 
C14 C15 H15A 109.0 . . ? 
C16 C15 H15A 109.0 . . ? 
C14 C15 H15B 109.0 . . ? 
C16 C15 H15B 109.0 . . ? 
H15A C15 H15B 107.8 . . ? 
C15' C14' Si1 131(6) . . ? 
C15' C14' H14C 104.6 . . ? 
Si1 C14' H14C 104.6 . . ? 
C15' C14' H14D 104.6 . . ? 
Si1 C14' H14D 104.6 . . ? 
H14C C14' H14D 105.7 . . ? 
C14' C15' C16' 113(3) . . ? 
C14' C15' H15C 108.9 . . ? 
C16' C15' H15C 108.9 . . ? 
C14' C15' H15D 108.9 . . ? 
C16' C15' H15D 108.9 . . ? 
H15C C15' H15D 107.7 . . ? 
C15' C16' H16D 109.5 . . ? 
C15' C16' H16E 109.5 . . ? 
H16D C16' H16E 109.5 . . ? 
C15' C16' H16F 109.5 . . ? 
H16D C16' H16F 109.5 . . ? 
H16E C16' H16F 109.5 . . ? 
C18 C17 Si1 113.9(3) . . ? 
C18 C17 H17A 108.8 . . ? 
Si1 C17 H17A 108.8 . . ? 
C18 C17 H17B 108.8 . . ? 
Si1 C17 H17B 108.8 . . ? 
H17A C17 H17B 107.7 . . ? 
C19 C18 C17 114.6(4) . . ? 
C19 C18 H18A 108.6 . . ? 
C17 C18 H18A 108.6 . . ? 
C19 C18 H18B 108.6 . . ? 
C17 C18 H18B 108.6 . . ? 
H18A C18 H18B 107.6 . . ? 
C18 C19 H19A 109.5 . . ? 
C18 C19 H19B 109.5 . . ? 
H19A C19 H19B 109.5 . . ? 
C18 C19 H19C 109.5 . . ? 
H19A C19 H19C 109.5 . . ? 
H19B C19 H19C 109.5 . . ? 
C21 C20 Si1 111.9(4) . . ? 
C21 C20 H20A 109.2 . . ? 
Si1 C20 H20A 109.2 . . ? 
C21 C20 H20B 109.2 . . ? 
Si1 C20 H20B 109.2 . . ? 
H20A C20 H20B 107.9 . . ? 
C22 C21 C20 112.7(7) . . ? 
C22 C21 H21A 109.0 . . ? 
C20 C21 H21A 109.0 . . ? 
C22 C21 H21B 109.0 . . ? 
C20 C21 H21B 109.0 . . ? 
H21A C21 H21B 107.8 . . ? 
C21' C20' Si1 117.2(8) . . ? 
C21' C20' H20C 108.0 . . ? 
Si1 C20' H20C 108.0 . . ? 
C21' C20' H20D 108.0 . . ? 
Si1 C20' H20D 108.0 . . ? 
H20C C20' H20D 107.2 . . ? 
C20' C21' C22' 119.3(4) . . ? 
C20' C21' H21C 107.5 . . ? 
C22' C21' H21C 107.5 . . ? 
C20' C21' H21D 107.5 . . ? 
C22' C21' H21D 107.5 . . ? 
H21C C21' H21D 107.0 . . ? 
C21' C22' H22D 109.5 . . ? 
C21' C22' H22E 109.5 . . ? 
H22D C22' H22E 109.5 . . ? 
C21' C22' H22F 109.5 . . ? 
H22D C22' H22F 109.5 . . ? 
H22E C22' H22F 109.5 . . ? 
 
loop_ 
 _geom_torsion_atom_site_label_1 
 _geom_torsion_atom_site_label_2 
 _geom_torsion_atom_site_label_3 
 _geom_torsion_atom_site_label_4 
 _geom_torsion 
 _geom_torsion_site_symmetry_1 
 _geom_torsion_site_symmetry_2 
 _geom_torsion_site_symmetry_3 
 _geom_torsion_site_symmetry_4 
 _geom_torsion_publ_flag 
C11 C1 C2 C3 -178.0(3) 2_666 . . . ? 
C12 C1 C2 C3 4.7(5) . . . . ? 
C11 C1 C2 C11 2.2(5) 2_666 . . . ? 
C12 C1 C2 C11 -175.2(3) . . . . ? 
C1 C2 C3 C4 -178.1(3) . . . . ? 
C11 C2 C3 C4 1.8(5) . . . . ? 
C2 C3 C4 C5 179.5(3) . . . . ? 
C2 C3 C4 C9 0.0(5) . . . . ? 
C3 C4 C5 C6 -177.5(4) . . . . ? 
C9 C4 C5 C6 2.0(6) . . . . ? 
C3 C4 C5 F1 -0.9(6) . . . . ? 
C9 C4 C5 F1 178.6(4) . . . . ? 
F1 C5 C6 F2 -1.8(7) . . . . ? 
C4 C5 C6 F2 174.5(4) . . . . ? 
F1 C5 C6 C7 -178.3(4) . . . . ? 
C4 C5 C6 C7 -2.1(6) . . . . ? 
F2 C6 C7 F3 2.4(7) . . . . ? 
C5 C6 C7 F3 178.9(4) . . . . ? 
F2 C6 C7 C8 -175.4(5) . . . . ? 
C5 C6 C7 C8 1.1(6) . . . . ? 
F3 C7 C8 F4 1.3(7) . . . . ? 
C6 C7 C8 F4 179.2(4) . . . . ? 
F3 C7 C8 C9 -177.8(4) . . . . ? 
C6 C7 C8 C9 0.0(6) . . . . ? 
C7 C8 C9 C10 -179.4(4) . . . . ? 
F4 C8 C9 C10 1.3(5) . . . . ? 
C7 C8 C9 C4 0.0(5) . . . . ? 
F4 C8 C9 C4 -179.3(4) . . . . ? 
C3 C4 C9 C10 -2.0(5) . . . . ? 
C5 C4 C9 C10 178.5(3) . . . . ? 
C3 C4 C9 C8 178.6(3) . . . . ? 
C5 C4 C9 C8 -0.9(5) . . . . ? 
C8 C9 C10 C11 -178.4(3) . . . . ? 
C4 C9 C10 C11 2.2(5) . . . . ? 
C9 C10 C11 C1 -180.0(3) . . . 2_666 ? 
C9 C10 C11 C2 -0.4(5) . . . . ? 
C3 C2 C11 C1 178.0(3) . . . 2_666 ? 
C1 C2 C11 C1 -2.2(5) . . . 2_666 ? 
C3 C2 C11 C10 -1.5(5) . . . . ? 
C1 C2 C11 C10 178.3(3) . . . . ? 
C11 C1 C12 C13 -82(7) 2_666 . . . ? 
C2 C1 C12 C13 95(7) . . . . ? 
C1 C12 C13 Si1 -18(13) . . . . ? 
C20 Si1 C13 C12 -110(7) . . . . ? 
C17 Si1 C13 C12 9(7) . . . . ? 
C14 Si1 C13 C12 128(7) . . . . ? 
C14' Si1 C13 C12 119(8) . . . . ? 
C20' Si1 C13 C12 -103(7) . . . . ? 
C13 Si1 C14 C15 -44.8(7) . . . . ? 
C20 Si1 C14 C15 -164.1(6) . . . . ? 
C17 Si1 C14 C15 73.5(6) . . . . ? 
C14' Si1 C14 C15 -4(16) . . . . ? 
C20' Si1 C14 C15 -168.5(11) . . . . ? 
Si1 C14 C15 C16 -176.0(6) . . . . ? 
C13 Si1 C14' C15' -13(11) . . . . ? 
C20 Si1 C14' C15' -132(9) . . . . ? 
C17 Si1 C14' C15' 98(10) . . . . ? 
C14 Si1 C14' C15' -155(24) . . . . ? 
C20' Si1 C14' C15' -137(9) . . . . ? 
Si1 C14' C15' C16' -148(9) . . . . ? 
C13 Si1 C17 C18 -173.0(3) . . . . ? 
C20 Si1 C17 C18 -55.5(4) . . . . ? 
C14 Si1 C17 C18 68.1(4) . . . . ? 
C14' Si1 C17 C18 82(3) . . . . ? 
C20' Si1 C17 C18 -57.7(6) . . . . ? 
Si1 C17 C18 C19 179.1(4) . . . . ? 
C13 Si1 C20 C21 58.5(7) . . . . ? 
C17 Si1 C20 C21 -59.2(7) . . . . ? 
C14 Si1 C20 C21 178.5(6) . . . . ? 
C14' Si1 C20 C21 173(4) . . . . ? 
C20' Si1 C20 C21 -40(6) . . . . ? 
Si1 C20 C21 C22 166.8(5) . . . . ? 
C13 Si1 C20' C21' 43(3) . . . . ? 
C20 Si1 C20' C21' 127(8) . . . . ? 
C17 Si1 C20' C21' -72(3) . . . . ? 
C14 Si1 C20' C21' 167(2) . . . . ? 
C14' Si1 C20' C21' 162(5) . . . . ? 
Si1 C20' C21' C22' 173.5(11) . . . . ? 
 
_diffrn_measured_fraction_theta_max    0.999 
_diffrn_reflns_theta_full              27.47 
_diffrn_measured_fraction_theta_full   0.999 
_refine_diff_density_max    0.439 
_refine_diff_density_min   -0.348 
_refine_diff_density_rms    0.067 
