 
data_x06014 
 
_audit_creation_method            SHELXL-97 
_chemical_name_systematic 
; 
 ? 
; 
_chemical_name_common             ? 
_chemical_melting_point           ? 
_chemical_formula_moiety          ? 
_chemical_formula_sum 
 'C58 H66 O4 Si2' 
_chemical_formula_weight          883.29 
 
loop_ 
 _atom_type_symbol 
 _atom_type_description 
 _atom_type_scat_dispersion_real 
 _atom_type_scat_dispersion_imag 
 _atom_type_scat_source 
 'C'  'C'   0.0181   0.0091 
 'International Tables Vol C Tables 4.2.6.8 and 6.1.1.4' 
 'H'  'H'   0.0000   0.0000 
 'International Tables Vol C Tables 4.2.6.8 and 6.1.1.4' 
 'Si'  'Si'   0.2541   0.3302 
 'International Tables Vol C Tables 4.2.6.8 and 6.1.1.4' 
 'O'  'O'   0.0492   0.0322 
 'International Tables Vol C Tables 4.2.6.8 and 6.1.1.4' 
 
_symmetry_cell_setting            ? 
_symmetry_space_group_name_H-M    ? 
 
loop_ 
 _symmetry_equiv_pos_as_xyz 
 'x, y, z' 
 '-x, y+1/2, -z+1/2' 
 '-x, -y, -z' 
 'x, -y-1/2, z-1/2' 
 
_cell_length_a                    18.5836(9) 
_cell_length_b                    18.2949(10) 
_cell_length_c                    14.6367(8) 
_cell_angle_alpha                 90.00 
_cell_angle_beta                  110.888(2) 
_cell_angle_gamma                 90.00 
_cell_volume                      4649.2(4) 
_cell_formula_units_Z             4 
_cell_measurement_temperature     90(2) 
_cell_measurement_reflns_used     ? 
_cell_measurement_theta_min       ? 
_cell_measurement_theta_max       ? 
 
_exptl_crystal_description        ? 
_exptl_crystal_colour             ? 
_exptl_crystal_size_max           0.15 
_exptl_crystal_size_mid           0.10 
_exptl_crystal_size_min           0.02 
_exptl_crystal_density_meas       ? 
_exptl_crystal_density_diffrn     1.262 
_exptl_crystal_density_method     'not measured' 
_exptl_crystal_F_000              1896 
_exptl_absorpt_coefficient_mu     1.068 
_exptl_absorpt_correction_type    ? 
_exptl_absorpt_correction_T_min   0.8562 
_exptl_absorpt_correction_T_max   0.9790 
_exptl_absorpt_process_details    ? 
 
_exptl_special_details 
; 
 ? 
; 
 
_diffrn_ambient_temperature       90(2) 
_diffrn_radiation_wavelength      1.54178 
_diffrn_radiation_type            CuK\a 
_diffrn_radiation_source          'fine-focus sealed tube' 
_diffrn_radiation_monochromator   graphite 
_diffrn_measurement_device_type   ? 
_diffrn_measurement_method        ? 
_diffrn_detector_area_resol_mean  ? 
_diffrn_standards_number          ? 
_diffrn_standards_interval_count  ? 
_diffrn_standards_interval_time   ? 
_diffrn_standards_decay_%         ? 
_diffrn_reflns_number             60982 
_diffrn_reflns_av_R_equivalents   0.2334 
_diffrn_reflns_av_sigmaI/netI     0.0961 
_diffrn_reflns_limit_h_min        -22 
_diffrn_reflns_limit_h_max        22 
_diffrn_reflns_limit_k_min        -21 
_diffrn_reflns_limit_k_max        18 
_diffrn_reflns_limit_l_min        -17 
_diffrn_reflns_limit_l_max        17 
_diffrn_reflns_theta_min          2.54 
_diffrn_reflns_theta_max          67.99 
_reflns_number_total              8376 
_reflns_number_gt                 4815 
_reflns_threshold_expression      >2sigma(I) 
 
_computing_data_collection        ? 
_computing_cell_refinement        ? 
_computing_data_reduction         ? 
_computing_structure_solution     'SHELXS-97 (Sheldrick, 1990)' 
_computing_structure_refinement   'SHELXL-97 (Sheldrick, 1997)' 
_computing_molecular_graphics     ? 
_computing_publication_material   ? 
 
_refine_special_details 
; 
 Refinement of F^2^ against ALL reflections.  The weighted R-factor wR and 
 goodness of fit S are based on F^2^, conventional R-factors R are based 
 on F, with F set to zero for negative F^2^. The threshold expression of 
 F^2^ > 2sigma(F^2^) is used only for calculating R-factors(gt) etc. and is 
 not relevant to the choice of reflections for refinement.  R-factors based 
 on F^2^ are statistically about twice as large as those based on F, and R- 
 factors based on ALL data will be even larger. 
; 
 
_refine_ls_structure_factor_coef  Fsqd  
_refine_ls_matrix_type            full 
_refine_ls_weighting_scheme       calc  
_refine_ls_weighting_details 
 'calc w=1/[\s^2^(Fo^2^)+(0.1000P)^2^+0.0000P] where P=(Fo^2^+2Fc^2^)/3' 
_atom_sites_solution_primary      direct 
_atom_sites_solution_secondary    difmap 
_atom_sites_solution_hydrogens    geom 
_refine_ls_hydrogen_treatment     mixed 
_refine_ls_extinction_method      SHELXL 
_refine_ls_extinction_coef        0.00000(14) 
_refine_ls_extinction_expression 
 'Fc^*^=kFc[1+0.001xFc^2^\l^3^/sin(2\q)]^-1/4^' 
_refine_ls_number_reflns          8376 
_refine_ls_number_parameters      258 
_refine_ls_number_restraints      0 
_refine_ls_R_factor_all           0.3553 
_refine_ls_R_factor_gt            0.2727 
_refine_ls_wR_factor_ref          0.6058 
_refine_ls_wR_factor_gt           0.5671 
_refine_ls_goodness_of_fit_ref    3.322 
_refine_ls_restrained_S_all       3.322 
_refine_ls_shift/su_max           0.432 
_refine_ls_shift/su_mean          0.023 
 
loop_ 
 _atom_site_label 
 _atom_site_type_symbol 
 _atom_site_fract_x 
 _atom_site_fract_y 
 _atom_site_fract_z 
 _atom_site_U_iso_or_equiv 
 _atom_site_adp_type 
 _atom_site_occupancy 
 _atom_site_symmetry_multiplicity 
 _atom_site_calc_flag 
 _atom_site_refinement_flags 
 _atom_site_disorder_assembly 
 _atom_site_disorder_group 
Si2 Si 0.1937(2) 0.6994(2) 0.6033(3) 0.0506(11) Uiso 1 1 d . . . 
Si1 Si 0.8180(2) 0.7441(2) 0.5974(3) 0.0440(10) Uiso 1 1 d . . . 
O1 O 0.5114(5) 1.1380(5) 0.6294(6) 0.046(2) Uiso 1 1 d . . . 
O2 O 0.3883(5) 1.1180(5) 0.6243(7) 0.051(2) Uiso 1 1 d . . . 
O3 O 0.5161(5) 0.3269(5) 0.6191(6) 0.045(2) Uiso 1 1 d . . . 
O4 O 0.6420(5) 0.3470(5) 0.6318(7) 0.049(2) Uiso 1 1 d . . . 
C1 C 0.5915(6) 0.7452(6) 0.6307(7) 0.024(2) Uiso 1 1 d . . . 
C2 C 0.5433(6) 0.8050(6) 0.6278(7) 0.028(2) Uiso 1 1 d . . . 
C3 C 0.5680(6) 0.8780(6) 0.6293(7) 0.027(2) Uiso 1 1 d . . . 
C4 C 0.5240(7) 0.9375(7) 0.6262(8) 0.036(3) Uiso 1 1 d . . . 
C5 C 0.5479(7) 1.0104(7) 0.6279(8) 0.036(3) Uiso 1 1 d . . . 
C6 C 0.5003(7) 1.0656(6) 0.6271(8) 0.034(3) Uiso 1 1 d . . . 
C7 C 0.4232(7) 1.0540(7) 0.6243(9) 0.039(3) Uiso 1 1 d . . . 
C8 C 0.3954(7) 0.9853(6) 0.6227(8) 0.034(3) Uiso 1 1 d . . . 
C9 C 0.4433(7) 0.9245(6) 0.6236(8) 0.032(3) Uiso 1 1 d . . . 
C10 C 0.4188(6) 0.8547(6) 0.6245(8) 0.029(2) Uiso 1 1 d . . . 
C11 C 0.4663(6) 0.7925(6) 0.6273(7) 0.028(2) Uiso 1 1 d . . . 
C12 C 0.4390(6) 0.7200(6) 0.6241(7) 0.027(2) Uiso 1 1 d . . . 
C13 C 0.4888(6) 0.6599(6) 0.6267(7) 0.023(2) Uiso 1 1 d . . . 
C14 C 0.4613(7) 0.5877(6) 0.6233(8) 0.032(3) Uiso 1 1 d . . . 
C15 C 0.5092(7) 0.5268(6) 0.6268(8) 0.031(3) Uiso 1 1 d . . . 
C16 C 0.4792(7) 0.4560(7) 0.6211(8) 0.036(3) Uiso 1 1 d . . . 
C17 C 0.5299(7) 0.3972(7) 0.6240(9) 0.040(3) Uiso 1 1 d . . . 
C18 C 0.6075(7) 0.4127(7) 0.6313(9) 0.038(3) Uiso 1 1 d . . . 
C19 C 0.6367(7) 0.4800(7) 0.6362(8) 0.034(3) Uiso 1 1 d . . . 
C20 C 0.5865(6) 0.5418(6) 0.6341(8) 0.029(2) Uiso 1 1 d . . . 
C21 C 0.6137(7) 0.6118(6) 0.6367(8) 0.032(3) Uiso 1 1 d . . . 
C22 C 0.5642(6) 0.6719(6) 0.6322(7) 0.027(2) Uiso 1 1 d . . . 
C23 C 0.6659(7) 0.7582(6) 0.6272(8) 0.032(3) Uiso 1 1 d . . . 
C24 C 0.7296(8) 0.7573(7) 0.6188(9) 0.042(3) Uiso 1 1 d . . . 
C25 C 0.7949(19) 0.6740(16) 0.500(2) 0.139(10) Uiso 1 1 d . . . 
C26 C 0.7149(12) 0.6464(11) 0.4446(15) 0.084(6) Uiso 1 1 d . . . 
C27 C 0.7280(10) 0.5874(10) 0.3780(12) 0.067(4) Uiso 1 1 d . . . 
C28 C 0.7977(13) 0.6112(12) 0.3577(16) 0.093(6) Uiso 1 1 d . . . 
C29 C 0.8446(14) 0.6566(12) 0.4435(17) 0.099(7) Uiso 1 1 d . . . 
C30 C 0.8921(11) 0.7114(11) 0.7207(14) 0.081(5) Uiso 1 1 d . . . 
C31 C 0.8567(19) 0.6565(16) 0.772(2) 0.143(10) Uiso 1 1 d . . . 
C32 C 0.9375(18) 0.6169(16) 0.840(2) 0.130(9) Uiso 1 1 d . . . 
C33 C 1.0014(15) 0.6398(14) 0.8068(18) 0.111(8) Uiso 1 1 d . . . 
C34 C 0.9674(11) 0.6899(10) 0.7203(13) 0.073(5) Uiso 1 1 d . . . 
C35 C 0.8580(11) 0.8284(10) 0.5710(14) 0.079(5) Uiso 1 1 d . . . 
C36 C 0.889(2) 0.874(2) 0.671(3) 0.172(13) Uiso 1 1 d . . . 
C37 C 0.879(2) 0.955(3) 0.652(3) 0.204(17) Uiso 1 1 d . . . 
C38 C 0.8577(18) 0.9626(16) 0.537(2) 0.134(9) Uiso 1 1 d . . . 
C39 C 0.802(2) 0.8882(18) 0.508(2) 0.152(11) Uiso 1 1 d . . . 
C40 C 0.3616(6) 0.7085(6) 0.6181(8) 0.029(2) Uiso 1 1 d . . . 
C41 C 0.2963(7) 0.7048(7) 0.6141(9) 0.041(3) Uiso 1 1 d . . . 
C42 C 0.1890(9) 0.6606(8) 0.7146(11) 0.054(4) Uiso 1 1 d . . . 
C43 C 0.2109(10) 0.7116(10) 0.7967(13) 0.072(5) Uiso 1 1 d . . . 
C44 C 0.2395(16) 0.6606(15) 0.894(2) 0.121(8) Uiso 1 1 d . . . 
C45 C 0.2697(16) 0.6007(15) 0.8672(19) 0.116(8) Uiso 1 1 d . . . 
C46 C 0.2352(14) 0.5906(13) 0.7467(18) 0.108(7) Uiso 1 1 d . . . 
C47 C 0.142(2) 0.6378(19) 0.497(2) 0.149(11) Uiso 1 1 d . . . 
C48 C 0.169(2) 0.600(2) 0.452(3) 0.179(14) Uiso 1 1 d . . . 
C49 C 0.094(3) 0.549(2) 0.378(3) 0.194(16) Uiso 1 1 d . . . 
C50 C 0.0312(17) 0.5654(15) 0.417(2) 0.125(9) Uiso 1 1 d . . . 
C51 C 0.0521(16) 0.6322(15) 0.481(2) 0.120(8) Uiso 1 1 d . . . 
C52 C 0.1520(10) 0.7922(10) 0.5727(13) 0.072(5) Uiso 1 1 d . . . 
C53 C 0.2097(10) 0.8585(9) 0.6324(12) 0.067(4) Uiso 1 1 d . . . 
C54 C 0.1638(15) 0.9140(13) 0.6705(18) 0.109(7) Uiso 1 1 d . . . 
C55 C 0.0754(13) 0.8913(12) 0.6054(16) 0.094(6) Uiso 1 1 d . . . 
C56 C 0.0768(14) 0.8117(12) 0.5928(17) 0.100(7) Uiso 1 1 d . . . 
C57 C 0.4406(9) 1.1764(8) 0.6204(11) 0.053(4) Uiso 1 1 d . . . 
C58 C 0.5860(9) 0.2884(8) 0.6288(11) 0.055(4) Uiso 1 1 d . . . 
 
_geom_special_details 
; 
 All esds (except the esd in the dihedral angle between two l.s. planes) 
 are estimated using the full covariance matrix.  The cell esds are taken 
 into account individually in the estimation of esds in distances, angles 
 and torsion angles; correlations between esds in cell parameters are only 
 used when they are defined by crystal symmetry.  An approximate (isotropic) 
 treatment of cell esds is used for estimating esds involving l.s. planes. 
; 
 
loop_ 
 _geom_bond_atom_site_label_1 
 _geom_bond_atom_site_label_2 
 _geom_bond_distance 
 _geom_bond_site_symmetry_2 
 _geom_bond_publ_flag 
Si2 C42 1.808(15) . ? 
Si2 C52 1.853(19) . ? 
Si2 C41 1.859(13) . ? 
Si2 C47 1.88(4) . ? 
Si1 C24 1.794(14) . ? 
Si1 C35 1.81(2) . ? 
Si1 C25 1.85(3) . ? 
Si1 C30 1.93(2) . ? 
O1 C6 1.340(14) . ? 
O1 C57 1.456(17) . ? 
O2 C7 1.337(15) . ? 
O2 C57 1.459(17) . ? 
O3 C17 1.308(15) . ? 
O3 C58 1.439(17) . ? 
O4 C18 1.361(15) . ? 
O4 C58 1.483(18) . ? 
C1 C2 1.405(15) . ? 
C1 C23 1.422(15) . ? 
C1 C22 1.437(15) . ? 
C2 C3 1.410(15) . ? 
C2 C11 1.448(15) . ? 
C3 C4 1.353(16) . ? 
C4 C5 1.402(17) . ? 
C4 C9 1.505(16) . ? 
C5 C6 1.339(17) . ? 
C6 C7 1.435(17) . ? 
C7 C8 1.356(17) . ? 
C8 C9 1.423(16) . ? 
C9 C10 1.358(15) . ? 
C10 C11 1.431(15) . ? 
C11 C12 1.415(15) . ? 
C12 C40 1.426(15) . ? 
C12 C13 1.428(15) . ? 
C13 C22 1.392(14) . ? 
C13 C14 1.410(15) . ? 
C14 C15 1.415(16) . ? 
C15 C16 1.402(17) . ? 
C15 C20 1.427(16) . ? 
C16 C17 1.420(18) . ? 
C17 C18 1.436(17) . ? 
C18 C19 1.336(17) . ? 
C19 C20 1.459(16) . ? 
C20 C21 1.373(16) . ? 
C21 C22 1.420(16) . ? 
C23 C24 1.233(17) . ? 
C25 C29 1.48(4) . ? 
C25 C26 1.50(3) . ? 
C26 C27 1.53(3) . ? 
C27 C28 1.49(3) . ? 
C28 C29 1.50(3) . ? 
C30 C34 1.46(2) . ? 
C30 C31 1.54(3) . ? 
C31 C32 1.64(4) . ? 
C32 C33 1.49(3) . ? 
C33 C34 1.51(3) . ? 
C35 C39 1.56(4) . ? 
C35 C36 1.60(4) . ? 
C36 C37 1.51(5) . ? 
C37 C38 1.59(5) . ? 
C38 C39 1.66(4) . ? 
C40 C41 1.196(16) . ? 
C42 C43 1.46(2) . ? 
C42 C46 1.52(3) . ? 
C43 C44 1.62(3) . ? 
C44 C45 1.35(3) . ? 
C45 C46 1.66(3) . ? 
C47 C48 1.18(4) . ? 
C47 C51 1.60(4) . ? 
C48 C49 1.70(5) . ? 
C49 C50 1.51(4) . ? 
C50 C51 1.51(3) . ? 
C52 C56 1.57(3) . ? 
C52 C53 1.65(2) . ? 
C53 C54 1.55(3) . ? 
C54 C55 1.63(3) . ? 
C55 C56 1.47(3) . ? 
 
loop_ 
 _geom_angle_atom_site_label_1 
 _geom_angle_atom_site_label_2 
 _geom_angle_atom_site_label_3 
 _geom_angle 
 _geom_angle_site_symmetry_1 
 _geom_angle_site_symmetry_3 
 _geom_angle_publ_flag 
C42 Si2 C52 115.3(7) . . ? 
C42 Si2 C41 108.8(6) . . ? 
C52 Si2 C41 107.4(7) . . ? 
C42 Si2 C47 109.5(11) . . ? 
C52 Si2 C47 107.5(12) . . ? 
C41 Si2 C47 108.1(12) . . ? 
C24 Si1 C35 113.2(8) . . ? 
C24 Si1 C25 104.6(11) . . ? 
C35 Si1 C25 115.2(11) . . ? 
C24 Si1 C30 105.7(7) . . ? 
C35 Si1 C30 104.6(9) . . ? 
C25 Si1 C30 113.4(11) . . ? 
C6 O1 C57 110.5(10) . . ? 
C7 O2 C57 108.2(11) . . ? 
C17 O3 C58 108.9(10) . . ? 
C18 O4 C58 108.3(10) . . ? 
C2 C1 C23 119.1(10) . . ? 
C2 C1 C22 120.1(10) . . ? 
C23 C1 C22 120.7(9) . . ? 
C1 C2 C3 122.5(10) . . ? 
C1 C2 C11 119.8(10) . . ? 
C3 C2 C11 117.7(9) . . ? 
C4 C3 C2 125.0(11) . . ? 
C3 C4 C5 125.5(12) . . ? 
C3 C4 C9 117.2(10) . . ? 
C5 C4 C9 117.2(10) . . ? 
C6 C5 C4 120.8(12) . . ? 
C5 C6 O1 130.6(11) . . ? 
C5 C6 C7 122.7(11) . . ? 
O1 C6 C7 106.8(10) . . ? 
O2 C7 C8 129.1(12) . . ? 
O2 C7 C6 110.5(11) . . ? 
C8 C7 C6 120.4(11) . . ? 
C7 C8 C9 119.5(11) . . ? 
C10 C9 C8 121.7(11) . . ? 
C10 C9 C4 118.9(10) . . ? 
C8 C9 C4 119.4(10) . . ? 
C9 C10 C11 122.8(10) . . ? 
C12 C11 C10 122.3(10) . . ? 
C12 C11 C2 119.3(10) . . ? 
C10 C11 C2 118.3(10) . . ? 
C11 C12 C40 118.8(10) . . ? 
C11 C12 C13 120.0(10) . . ? 
C40 C12 C13 121.2(10) . . ? 
C22 C13 C14 119.6(10) . . ? 
C22 C13 C12 120.6(10) . . ? 
C14 C13 C12 119.8(10) . . ? 
C13 C14 C15 121.4(11) . . ? 
C16 C15 C14 119.5(11) . . ? 
C16 C15 C20 123.4(10) . . ? 
C14 C15 C20 117.0(10) . . ? 
C15 C16 C17 116.9(11) . . ? 
O3 C17 C16 128.9(12) . . ? 
O3 C17 C18 111.7(11) . . ? 
C16 C17 C18 119.4(11) . . ? 
C19 C18 O4 129.2(12) . . ? 
C19 C18 C17 124.3(12) . . ? 
O4 C18 C17 106.5(10) . . ? 
C18 C19 C20 117.9(11) . . ? 
C21 C20 C15 122.1(10) . . ? 
C21 C20 C19 119.7(10) . . ? 
C15 C20 C19 118.1(10) . . ? 
C20 C21 C22 119.7(11) . . ? 
C13 C22 C21 120.2(10) . . ? 
C13 C22 C1 120.0(10) . . ? 
C21 C22 C1 119.8(10) . . ? 
C24 C23 C1 169.1(12) . . ? 
C23 C24 Si1 171.9(11) . . ? 
C29 C25 C26 109(2) . . ? 
C29 C25 Si1 124(2) . . ? 
C26 C25 Si1 124(2) . . ? 
C25 C26 C27 103.3(19) . . ? 
C28 C27 C26 105.5(16) . . ? 
C27 C28 C29 106.4(17) . . ? 
C25 C29 C28 107(2) . . ? 
C34 C30 C31 113.9(19) . . ? 
C34 C30 Si1 116.5(13) . . ? 
C31 C30 Si1 112.0(17) . . ? 
C30 C31 C32 97(2) . . ? 
C33 C32 C31 110(2) . . ? 
C32 C33 C34 107(2) . . ? 
C30 C34 C33 106.0(17) . . ? 
C39 C35 C36 97(2) . . ? 
C39 C35 Si1 119.1(17) . . ? 
C36 C35 Si1 106.9(18) . . ? 
C37 C36 C35 111(3) . . ? 
C36 C37 C38 104(3) . . ? 
C37 C38 C39 95(3) . . ? 
C35 C39 C38 102(2) . . ? 
C41 C40 C12 174.7(12) . . ? 
C40 C41 Si2 178.0(11) . . ? 
C43 C42 C46 108.8(15) . . ? 
C43 C42 Si2 113.7(11) . . ? 
C46 C42 Si2 113.9(13) . . ? 
C42 C43 C44 105.2(15) . . ? 
C45 C44 C43 105(2) . . ? 
C44 C45 C46 111(2) . . ? 
C42 C46 C45 101.3(17) . . ? 
C48 C47 C51 121(4) . . ? 
C48 C47 Si2 128(4) . . ? 
C51 C47 Si2 111(2) . . ? 
C47 C48 C49 106(4) . . ? 
C50 C49 C48 102(3) . . ? 
C51 C50 C49 110(3) . . ? 
C50 C51 C47 100(2) . . ? 
C56 C52 C53 100.9(14) . . ? 
C56 C52 Si2 119.1(13) . . ? 
C53 C52 Si2 114.2(12) . . ? 
C54 C53 C52 109.6(15) . . ? 
C53 C54 C55 101.0(17) . . ? 
C56 C55 C54 105.4(18) . . ? 
C55 C56 C52 107.8(18) . . ? 
O1 C57 O2 103.6(11) . . ? 
O3 C58 O4 104.4(11) . . ? 
 
_diffrn_measured_fraction_theta_max    0.990 
_diffrn_reflns_theta_full              67.99 
_diffrn_measured_fraction_theta_full   0.990 
_refine_diff_density_max    3.342 
_refine_diff_density_min   -2.047 
_refine_diff_density_rms    0.238 
