 
data_x06077 
 
_audit_creation_method            SHELXL-97 
_chemical_name_systematic 
; 
 ? 
; 
_chemical_name_common             ? 
_chemical_melting_point           ? 
_chemical_formula_moiety          
 'C42 H46 O2 Si2' 
_chemical_formula_sum 
 'C42 H46 O2 Si2' 
_chemical_formula_weight          638.97 
 
loop_ 
 _atom_type_symbol 
 _atom_type_description 
 _atom_type_scat_dispersion_real 
 _atom_type_scat_dispersion_imag 
 _atom_type_scat_source 
 'C'  'C'    .0181    .0091 
 'International Tables Vol C Tables 4.2.6.8 and 6.1.1.4' 
 'H'  'H'    .0000    .0000 
 'International Tables Vol C Tables 4.2.6.8 and 6.1.1.4' 
 'O'  'O'    .0492    .0322 
 'International Tables Vol C Tables 4.2.6.8 and 6.1.1.4' 
 'Si'  'Si'    .2541    .3302 
 'International Tables Vol C Tables 4.2.6.8 and 6.1.1.4' 
 
_symmetry_cell_setting            triclinic
_symmetry_space_group_name_H-M    'P -1'
 
loop_ 
 _symmetry_equiv_pos_as_xyz 
 'x, y, z' 
 '-x, -y, -z' 
 
_cell_length_a                    7.0429(2) 
_cell_length_b                    8.0689(3) 
_cell_length_c                    15.7272(5) 
_cell_angle_alpha                 88.862(1) 
_cell_angle_beta                  79.313(1) 
_cell_angle_gamma                 89.519(1) 
_cell_volume                      878.07(5) 
_cell_formula_units_Z             1 
_cell_measurement_temperature     90.0(2) 
_cell_measurement_reflns_used     7364
_cell_measurement_theta_min       2.86
_cell_measurement_theta_max       67.70
 
_exptl_crystal_description        'thin plate'
_exptl_crystal_colour             'dark blue'
_exptl_crystal_size_max           0.20 
_exptl_crystal_size_mid           0.10 
_exptl_crystal_size_min           0.01 
_exptl_crystal_density_meas       ? 
_exptl_crystal_density_diffrn     1.208 
_exptl_crystal_density_method     'not measured' 
_exptl_crystal_F_000              342 
_exptl_absorpt_coefficient_mu     1.179 
_exptl_absorpt_correction_type    multi-scan
_exptl_absorpt_correction_T_min   0.7983 
_exptl_absorpt_correction_T_max   0.9883 
_exptl_absorpt_process_details    'SADABS in APEX2 (Bruker-Nonius, 2004)'
 
_exptl_special_details 
; 
 ? 
; 
 
_diffrn_ambient_temperature       90.0(2) 
_diffrn_radiation_wavelength      1.54178 
_diffrn_radiation_type            CuK\a 
_diffrn_radiation_source          'fine-focus rotating anode' 
_diffrn_radiation_monochromator   'Helios multilayer optics' 
_diffrn_measurement_device_type   'X8 Proteum diffractometer'
_diffrn_measurement_method        '\w and \f scans'
_diffrn_detector_area_resol_mean  18
_diffrn_standards_number          ? 
_diffrn_standards_interval_count  ? 
_diffrn_standards_interval_time   ? 
_diffrn_standards_decay_%         ? 
_diffrn_reflns_number             11234 
_diffrn_reflns_av_R_equivalents   0.0367 
_diffrn_reflns_av_sigmaI/netI     0.0360 
_diffrn_reflns_limit_h_min        -8 
_diffrn_reflns_limit_h_max        8 
_diffrn_reflns_limit_k_min        -8 
_diffrn_reflns_limit_k_max        9 
_diffrn_reflns_limit_l_min        -18 
_diffrn_reflns_limit_l_max        18 
_diffrn_reflns_theta_min          2.86 
_diffrn_reflns_theta_max          67.76 
_reflns_number_total              3096 
_reflns_number_gt                 2855 
_reflns_threshold_expression      >2\s(I)    
 
_computing_data_collection        'APEX2 (Bruker-Nonius, 2004)'
_computing_cell_refinement        'APEX2 (Bruker-Nonius, 2004)'
_computing_data_reduction         'APEX2 (Bruker-Nonius, 2004)'
_computing_structure_solution     'SHELXS-97 (Sheldrick, 1990)' 
_computing_structure_refinement   'SHELXL-97 (Sheldrick, 1997)' 
_computing_molecular_graphics     'XP in SHELXTL (Sheldrick, 1994)'
_computing_publication_material
; 
SHELX97-2 (Sheldrick, 1997) and local procedures 
; 
 
_refine_special_details 
; 
 Refinement of F^2^ against ALL reflections.  The weighted R-factor wR and 
 goodness of fit S are based on F^2^, conventional R-factors R are based 
 on F, with F set to zero for negative F^2^. The threshold expression of 
 F^2^ > 2sigma(F^2^) is used only for calculating R-factors(gt) etc. and is 
 not relevant to the choice of reflections for refinement.  R-factors based 
 on F^2^ are statistically about twice as large as those based on F, and R- 
 factors based on ALL data will be even larger. 
; 
 
_refine_ls_structure_factor_coef  Fsqd  
_refine_ls_matrix_type            full 
_refine_ls_weighting_scheme       calc  
_refine_ls_weighting_details 
 'calc w=1/[\s^2^(Fo^2^)+(0.0568P)^2^+0.5383P] where P=(Fo^2^+2Fc^2^)/3' 
_atom_sites_solution_primary      direct 
_atom_sites_solution_secondary    difmap 
_atom_sites_solution_hydrogens    geom 
_refine_ls_hydrogen_treatment     constr 
_refine_ls_extinction_method      none 
_refine_ls_extinction_coef        ? 
_refine_ls_number_reflns          3096 
_refine_ls_number_parameters      213 
_refine_ls_number_restraints      0 
_refine_ls_R_factor_all           0.0426 
_refine_ls_R_factor_gt            0.0394 
_refine_ls_wR_factor_ref          0.1110 
_refine_ls_wR_factor_gt           0.1075 
_refine_ls_goodness_of_fit_ref    1.028 
_refine_ls_restrained_S_all       1.028 
_refine_ls_shift/su_max           0.001 
_refine_ls_shift/su_mean          0.000 
 
loop_ 
 _atom_site_label 
 _atom_site_type_symbol 
 _atom_site_fract_x 
 _atom_site_fract_y 
 _atom_site_fract_z 
 _atom_site_U_iso_or_equiv 
 _atom_site_adp_type 
 _atom_site_occupancy 
 _atom_site_symmetry_multiplicity 
 _atom_site_calc_flag 
 _atom_site_refinement_flags 
 _atom_site_disorder_assembly 
 _atom_site_disorder_group 
Si1 Si 0.28027(6) 0.29053(5) 0.65457(3) 0.01933(15) Uani 1 1 d . . . 
O1 O 0.65941(17) 0.32301(16) 0.57873(8) 0.0322(3) Uani 1 1 d . . . 
C1 C 0.0590(2) 0.06237(18) 0.91431(10) 0.0166(3) Uani 1 1 d . . . 
C2 C -0.1243(2) 0.10746(18) 0.96172(10) 0.0162(3) Uani 1 1 d . . . 
C3 C -0.2517(2) 0.21051(18) 0.92590(10) 0.0176(3) Uani 1 1 d . . . 
H3 H -0.2124 0.2531 0.8686 0.021 Uiso 1 1 calc R . . 
C4 C -0.4329(2) 0.25204(18) 0.97154(10) 0.0176(3) Uani 1 1 d . . . 
C5 C -0.5649(2) 0.35312(19) 0.93457(11) 0.0207(3) Uani 1 1 d . . . 
H5 H -0.5289 0.3936 0.8767 0.025 Uiso 1 1 calc R . . 
C6 C -0.7413(2) 0.3921(2) 0.98099(11) 0.0226(4) Uani 1 1 d . . . 
H6 H -0.8279 0.4585 0.9551 0.027 Uiso 1 1 calc R . . 
C7 C -0.7976(2) 0.3345(2) 1.06808(11) 0.0231(4) Uani 1 1 d . . . 
H7 H -0.9210 0.3638 1.1000 0.028 Uiso 1 1 calc R . . 
C8 C -0.6773(2) 0.2385(2) 1.10591(11) 0.0212(3) Uani 1 1 d . . . 
H8 H -0.7173 0.2011 1.1641 0.025 Uiso 1 1 calc R . . 
C9 C -0.4904(2) 0.19243(19) 1.05940(10) 0.0184(3) Uani 1 1 d . . . 
C10 C -0.3656(2) 0.09196(19) 1.09541(10) 0.0180(3) Uani 1 1 d . . . 
H10 H -0.4042 0.0533 1.1534 0.022 Uiso 1 1 calc R . . 
C11 C -0.1834(2) 0.04488(18) 1.04921(10) 0.0164(3) Uani 1 1 d . . . 
C12 C 0.1214(2) 0.12973(19) 0.82935(10) 0.0178(3) Uani 1 1 d . . . 
C13 C 0.1771(2) 0.1926(2) 0.75885(10) 0.0206(3) Uani 1 1 d . . . 
C14 C 0.1815(2) 0.1896(2) 0.56561(10) 0.0224(3) Uani 1 1 d . . . 
H14 H 0.0404 0.2163 0.5742 0.027 Uiso 1 1 calc R . . 
C15 C 0.2012(3) 0.0013(2) 0.57055(12) 0.0293(4) Uani 1 1 d . . . 
H15A H 0.1452 -0.0484 0.5245 0.044 Uiso 1 1 calc R . . 
H15B H 0.1329 -0.0397 0.6270 0.044 Uiso 1 1 calc R . . 
H15C H 0.3382 -0.0291 0.5634 0.044 Uiso 1 1 calc R . . 
C16 C 0.2752(3) 0.2583(2) 0.47642(11) 0.0298(4) Uani 1 1 d . . . 
H16A H 0.4146 0.2365 0.4666 0.045 Uiso 1 1 calc R . . 
H16B H 0.2522 0.3781 0.4739 0.045 Uiso 1 1 calc R . . 
H16C H 0.2188 0.2044 0.4317 0.045 Uiso 1 1 calc R . . 
C17 C 0.2351(2) 0.5195(2) 0.65999(11) 0.0256(4) Uani 1 1 d . . . 
H17 H 0.2842 0.5683 0.6012 0.031 Uiso 1 1 calc R . . 
C18 C 0.3405(3) 0.6041(2) 0.72374(12) 0.0326(4) Uani 1 1 d . . . 
H18A H 0.3154 0.7237 0.7227 0.049 Uiso 1 1 calc R . . 
H18B H 0.4797 0.5836 0.7073 0.049 Uiso 1 1 calc R . . 
H18C H 0.2941 0.5592 0.7822 0.049 Uiso 1 1 calc R . . 
C19 C 0.0169(3) 0.5537(2) 0.68234(14) 0.0351(4) Uani 1 1 d . . . 
H19A H -0.0359 0.5039 0.7391 0.053 Uiso 1 1 calc R . . 
H19B H -0.0466 0.5054 0.6383 0.053 Uiso 1 1 calc R . . 
H19C H -0.0062 0.6736 0.6839 0.053 Uiso 1 1 calc R . . 
C20 C 0.5546(2) 0.2464(2) 0.63647(10) 0.0238(4) Uani 1 1 d . . . 
C21 C 0.6370(2) 0.1187(3) 0.69051(12) 0.0321(4) Uani 1 1 d . . . 
H21A H 0.7773 0.1118 0.6711 0.048 Uiso 1 1 calc R . . 
H21B H 0.5792 0.0106 0.6842 0.048 Uiso 1 1 calc R . . 
H21C H 0.6081 0.1505 0.7514 0.048 Uiso 1 1 calc R . . 
 
loop_ 
 _atom_site_aniso_label 
 _atom_site_aniso_U_11 
 _atom_site_aniso_U_22 
 _atom_site_aniso_U_33 
 _atom_site_aniso_U_23 
 _atom_site_aniso_U_13 
 _atom_site_aniso_U_12 
Si1 0.0152(2) 0.0220(3) 0.0196(2) 0.00284(16) -0.00056(16) -0.00231(16) 
O1 0.0220(6) 0.0365(7) 0.0348(7) 0.0061(5) 0.0032(5) -0.0067(5) 
C1 0.0141(7) 0.0149(8) 0.0201(7) -0.0002(6) -0.0012(6) -0.0023(6) 
C2 0.0130(7) 0.0139(8) 0.0215(8) -0.0012(6) -0.0023(6) -0.0023(5) 
C3 0.0151(7) 0.0160(8) 0.0216(8) 0.0003(6) -0.0029(6) -0.0023(6) 
C4 0.0146(7) 0.0131(8) 0.0256(8) -0.0023(6) -0.0043(6) -0.0009(6) 
C5 0.0185(8) 0.0177(8) 0.0264(8) -0.0007(6) -0.0058(6) -0.0003(6) 
C6 0.0165(8) 0.0179(8) 0.0349(9) -0.0030(6) -0.0085(6) 0.0029(6) 
C7 0.0130(7) 0.0209(8) 0.0344(9) -0.0053(7) -0.0012(6) 0.0022(6) 
C8 0.0154(7) 0.0196(8) 0.0272(8) -0.0023(6) -0.0002(6) -0.0009(6) 
C9 0.0139(7) 0.0155(8) 0.0253(8) -0.0027(6) -0.0019(6) -0.0010(6) 
C10 0.0148(7) 0.0167(8) 0.0213(8) -0.0008(6) 0.0002(6) -0.0021(6) 
C11 0.0127(7) 0.0151(8) 0.0211(8) -0.0009(6) -0.0018(6) -0.0020(6) 
C12 0.0123(7) 0.0179(8) 0.0231(8) -0.0010(6) -0.0028(6) 0.0013(6) 
C13 0.0143(7) 0.0222(8) 0.0243(8) 0.0001(6) -0.0014(6) 0.0015(6) 
C14 0.0173(7) 0.0256(9) 0.0237(8) 0.0014(6) -0.0025(6) -0.0022(6) 
C15 0.0288(9) 0.0279(10) 0.0314(9) 0.0002(7) -0.0063(7) -0.0029(7) 
C16 0.0334(9) 0.0331(10) 0.0225(8) 0.0015(7) -0.0042(7) -0.0038(7) 
C17 0.0265(9) 0.0249(9) 0.0252(8) 0.0042(7) -0.0047(7) -0.0032(7) 
C18 0.0382(10) 0.0260(10) 0.0356(10) -0.0002(7) -0.0120(8) -0.0025(8) 
C19 0.0328(10) 0.0265(10) 0.0476(11) -0.0007(8) -0.0119(8) 0.0059(8) 
C20 0.0191(8) 0.0277(9) 0.0235(8) -0.0021(7) -0.0008(6) -0.0049(6) 
C21 0.0161(8) 0.0445(11) 0.0339(10) 0.0067(8) -0.0009(7) 0.0013(7) 
 
_geom_special_details 
; 
 All esds (except the esd in the dihedral angle between two l.s. planes) 
 are estimated using the full covariance matrix.  The cell esds are taken 
 into account individually in the estimation of esds in distances, angles 
 and torsion angles; correlations between esds in cell parameters are only 
 used when they are defined by crystal symmetry.  An approximate (isotropic) 
 treatment of cell esds is used for estimating esds involving l.s. planes. 
; 
 
loop_ 
 _geom_bond_atom_site_label_1 
 _geom_bond_atom_site_label_2 
 _geom_bond_distance 
 _geom_bond_site_symmetry_2 
 _geom_bond_publ_flag 
Si1 C13 1.8326(16) . ? 
Si1 C17 1.8729(18) . ? 
Si1 C14 1.8766(17) . ? 
Si1 C20 1.9310(16) . ? 
O1 C20 1.220(2) . ? 
C1 C11 1.414(2) 2_557 ? 
C1 C2 1.415(2) . ? 
C1 C12 1.425(2) . ? 
C2 C3 1.403(2) . ? 
C2 C11 1.444(2) . ? 
C3 C4 1.385(2) . ? 
C3 H3 0.9500 . ? 
C4 C5 1.427(2) . ? 
C4 C9 1.440(2) . ? 
C5 C6 1.357(2) . ? 
C5 H5 0.9500 . ? 
C6 C7 1.423(2) . ? 
C6 H6 0.9500 . ? 
C7 C8 1.353(2) . ? 
C7 H7 0.9500 . ? 
C8 C9 1.432(2) . ? 
C8 H8 0.9500 . ? 
C9 C10 1.380(2) . ? 
C10 C11 1.406(2) . ? 
C10 H10 0.9500 . ? 
C11 C1 1.414(2) 2_557 ? 
C12 C13 1.208(2) . ? 
C14 C15 1.526(2) . ? 
C14 C16 1.531(2) . ? 
C14 H14 1.0000 . ? 
C15 H15A 0.9800 . ? 
C15 H15B 0.9800 . ? 
C15 H15C 0.9800 . ? 
C16 H16A 0.9800 . ? 
C16 H16B 0.9800 . ? 
C16 H16C 0.9800 . ? 
C17 C18 1.528(2) . ? 
C17 C19 1.536(2) . ? 
C17 H17 1.0000 . ? 
C18 H18A 0.9800 . ? 
C18 H18B 0.9800 . ? 
C18 H18C 0.9800 . ? 
C19 H19A 0.9800 . ? 
C19 H19B 0.9800 . ? 
C19 H19C 0.9800 . ? 
C20 C21 1.503(2) . ? 
C21 H21A 0.9800 . ? 
C21 H21B 0.9800 . ? 
C21 H21C 0.9800 . ? 
 
loop_ 
 _geom_angle_atom_site_label_1 
 _geom_angle_atom_site_label_2 
 _geom_angle_atom_site_label_3 
 _geom_angle 
 _geom_angle_site_symmetry_1 
 _geom_angle_site_symmetry_3 
 _geom_angle_publ_flag 
C13 Si1 C17 109.53(7) . . ? 
C13 Si1 C14 109.77(7) . . ? 
C17 Si1 C14 113.35(8) . . ? 
C13 Si1 C20 106.11(7) . . ? 
C17 Si1 C20 109.85(7) . . ? 
C14 Si1 C20 107.96(7) . . ? 
C11 C1 C2 121.03(14) 2_557 . ? 
C11 C1 C12 119.50(13) 2_557 . ? 
C2 C1 C12 119.44(14) . . ? 
C3 C2 C1 121.85(14) . . ? 
C3 C2 C11 118.86(14) . . ? 
C1 C2 C11 119.29(14) . . ? 
C4 C3 C2 121.98(14) . . ? 
C4 C3 H3 119.0 . . ? 
C2 C3 H3 119.0 . . ? 
C3 C4 C5 122.18(14) . . ? 
C3 C4 C9 119.20(14) . . ? 
C5 C4 C9 118.62(13) . . ? 
C6 C5 C4 120.82(15) . . ? 
C6 C5 H5 119.6 . . ? 
C4 C5 H5 119.6 . . ? 
C5 C6 C7 120.59(15) . . ? 
C5 C6 H6 119.7 . . ? 
C7 C6 H6 119.7 . . ? 
C8 C7 C6 120.71(14) . . ? 
C8 C7 H7 119.6 . . ? 
C6 C7 H7 119.6 . . ? 
C7 C8 C9 120.86(15) . . ? 
C7 C8 H8 119.6 . . ? 
C9 C8 H8 119.6 . . ? 
C10 C9 C8 122.39(15) . . ? 
C10 C9 C4 119.22(14) . . ? 
C8 C9 C4 118.38(14) . . ? 
C9 C10 C11 122.30(14) . . ? 
C9 C10 H10 118.9 . . ? 
C11 C10 H10 118.9 . . ? 
C10 C11 C1 121.91(14) . 2_557 ? 
C10 C11 C2 118.41(14) . . ? 
C1 C11 C2 119.67(14) 2_557 . ? 
C13 C12 C1 177.24(16) . . ? 
C12 C13 Si1 175.40(14) . . ? 
C15 C14 C16 111.38(14) . . ? 
C15 C14 Si1 111.18(11) . . ? 
C16 C14 Si1 111.67(11) . . ? 
C15 C14 H14 107.5 . . ? 
C16 C14 H14 107.5 . . ? 
Si1 C14 H14 107.5 . . ? 
C14 C15 H15A 109.5 . . ? 
C14 C15 H15B 109.5 . . ? 
H15A C15 H15B 109.5 . . ? 
C14 C15 H15C 109.5 . . ? 
H15A C15 H15C 109.5 . . ? 
H15B C15 H15C 109.5 . . ? 
C14 C16 H16A 109.5 . . ? 
C14 C16 H16B 109.5 . . ? 
H16A C16 H16B 109.5 . . ? 
C14 C16 H16C 109.5 . . ? 
H16A C16 H16C 109.5 . . ? 
H16B C16 H16C 109.5 . . ? 
C18 C17 C19 110.83(15) . . ? 
C18 C17 Si1 112.84(12) . . ? 
C19 C17 Si1 109.75(12) . . ? 
C18 C17 H17 107.7 . . ? 
C19 C17 H17 107.7 . . ? 
Si1 C17 H17 107.7 . . ? 
C17 C18 H18A 109.5 . . ? 
C17 C18 H18B 109.5 . . ? 
H18A C18 H18B 109.5 . . ? 
C17 C18 H18C 109.5 . . ? 
H18A C18 H18C 109.5 . . ? 
H18B C18 H18C 109.5 . . ? 
C17 C19 H19A 109.5 . . ? 
C17 C19 H19B 109.5 . . ? 
H19A C19 H19B 109.5 . . ? 
C17 C19 H19C 109.5 . . ? 
H19A C19 H19C 109.5 . . ? 
H19B C19 H19C 109.5 . . ? 
O1 C20 C21 120.69(15) . . ? 
O1 C20 Si1 118.16(13) . . ? 
C21 C20 Si1 121.13(11) . . ? 
C20 C21 H21A 109.5 . . ? 
C20 C21 H21B 109.5 . . ? 
H21A C21 H21B 109.5 . . ? 
C20 C21 H21C 109.5 . . ? 
H21A C21 H21C 109.5 . . ? 
H21B C21 H21C 109.5 . . ? 
 
loop_ 
 _geom_torsion_atom_site_label_1 
 _geom_torsion_atom_site_label_2 
 _geom_torsion_atom_site_label_3 
 _geom_torsion_atom_site_label_4 
 _geom_torsion 
 _geom_torsion_site_symmetry_1 
 _geom_torsion_site_symmetry_2 
 _geom_torsion_site_symmetry_3 
 _geom_torsion_site_symmetry_4 
 _geom_torsion_publ_flag 
C11 C1 C2 C3 -178.45(13) 2_557 . . . ? 
C12 C1 C2 C3 3.3(2) . . . . ? 
C11 C1 C2 C11 1.0(2) 2_557 . . . ? 
C12 C1 C2 C11 -177.23(13) . . . . ? 
C1 C2 C3 C4 178.62(14) . . . . ? 
C11 C2 C3 C4 -0.9(2) . . . . ? 
C2 C3 C4 C5 -178.27(14) . . . . ? 
C2 C3 C4 C9 2.1(2) . . . . ? 
C3 C4 C5 C6 -179.80(14) . . . . ? 
C9 C4 C5 C6 -0.2(2) . . . . ? 
C4 C5 C6 C7 0.7(2) . . . . ? 
C5 C6 C7 C8 -0.7(2) . . . . ? 
C6 C7 C8 C9 0.0(2) . . . . ? 
C7 C8 C9 C10 -178.69(15) . . . . ? 
C7 C8 C9 C4 0.5(2) . . . . ? 
C3 C4 C9 C10 -1.6(2) . . . . ? 
C5 C4 C9 C10 178.78(14) . . . . ? 
C3 C4 C9 C8 179.19(14) . . . . ? 
C5 C4 C9 C8 -0.5(2) . . . . ? 
C8 C9 C10 C11 179.02(14) . . . . ? 
C4 C9 C10 C11 -0.2(2) . . . . ? 
C9 C10 C11 C1 -177.95(14) . . . 2_557 ? 
C9 C10 C11 C2 1.4(2) . . . . ? 
C3 C2 C11 C10 -0.9(2) . . . . ? 
C1 C2 C11 C10 179.61(13) . . . . ? 
C3 C2 C11 C1 178.48(13) . . . 2_557 ? 
C1 C2 C11 C1 -1.0(2) . . . 2_557 ? 
C11 C1 C12 C13 -93(3) 2_557 . . . ? 
C2 C1 C12 C13 85(3) . . . . ? 
C1 C12 C13 Si1 51(4) . . . . ? 
C17 Si1 C13 C12 -90.2(18) . . . . ? 
C14 Si1 C13 C12 144.7(18) . . . . ? 
C20 Si1 C13 C12 28.3(18) . . . . ? 
C13 Si1 C14 C15 -50.59(13) . . . . ? 
C17 Si1 C14 C15 -173.42(11) . . . . ? 
C20 Si1 C14 C15 64.65(13) . . . . ? 
C13 Si1 C14 C16 -175.67(11) . . . . ? 
C17 Si1 C14 C16 61.51(13) . . . . ? 
C20 Si1 C14 C16 -60.42(13) . . . . ? 
C13 Si1 C17 C18 65.28(14) . . . . ? 
C14 Si1 C17 C18 -171.77(12) . . . . ? 
C20 Si1 C17 C18 -50.90(14) . . . . ? 
C13 Si1 C17 C19 -58.86(14) . . . . ? 
C14 Si1 C17 C19 64.09(14) . . . . ? 
C20 Si1 C17 C19 -175.04(12) . . . . ? 
C13 Si1 C20 O1 -167.50(13) . . . . ? 
C17 Si1 C20 O1 -49.19(16) . . . . ? 
C14 Si1 C20 O1 74.87(15) . . . . ? 
C13 Si1 C20 C21 13.85(16) . . . . ? 
C17 Si1 C20 C21 132.16(14) . . . . ? 
C14 Si1 C20 C21 -103.78(15) . . . . ? 
 
_diffrn_measured_fraction_theta_max     .971 
_diffrn_reflns_theta_full              67.76 
_diffrn_measured_fraction_theta_full    .971 
_refine_diff_density_max     .369 
_refine_diff_density_min    -.299 
_refine_diff_density_rms     .052 
