 
data_x07086 
 
_audit_creation_method            SHELXL-97 
_chemical_name_systematic 
; 
 ? 
; 
_chemical_name_common             ? 
_chemical_melting_point           ? 
_chemical_formula_moiety 
 'C44 H50 Si2' 
_chemical_formula_sum 
 'C44 H50 Si2' 
_chemical_formula_weight          635.02 
_chemical_absolute_configuration  .
 
loop_ 
 _atom_type_symbol 
 _atom_type_description 
 _atom_type_scat_dispersion_real 
 _atom_type_scat_dispersion_imag 
 _atom_type_scat_source 
 'C'  'C'   0.0181   0.0091 
 'International Tables Vol C Tables 4.2.6.8 and 6.1.1.4' 
 'H'  'H'   0.0000   0.0000 
 'International Tables Vol C Tables 4.2.6.8 and 6.1.1.4' 
 'Si'  'Si'   0.2541   0.3302 
 'International Tables Vol C Tables 4.2.6.8 and 6.1.1.4' 
 
_symmetry_cell_setting            triclinic
_symmetry_space_group_name_H-M    'P -1'
_symmetry_space_group_name_Hall   '-P 1'
 
loop_ 
 _symmetry_equiv_pos_as_xyz 
 'x, y, z' 
 '-x, -y, -z' 
 
_cell_length_a                    7.4725(6) 
_cell_length_b                    7.6935(5) 
_cell_length_c                    16.2871(12) 
_cell_angle_alpha                 90.163(3) 
_cell_angle_beta                  100.717(3) 
_cell_angle_gamma                 95.799(3) 
_cell_volume                      915.08(12) 
_cell_formula_units_Z             1 
_cell_measurement_temperature     90.0(2) 
_cell_measurement_reflns_used     8214
_cell_measurement_theta_min       5.53
_cell_measurement_theta_max       69.63
 
_exptl_crystal_description        plate
_exptl_crystal_colour             blue
_exptl_crystal_size_max           0.25 
_exptl_crystal_size_mid           0.22 
_exptl_crystal_size_min           0.03 
_exptl_crystal_density_meas       ? 
_exptl_crystal_density_diffrn     1.152 
_exptl_crystal_density_method     'not measured' 
_exptl_crystal_F_000              342 
_exptl_absorpt_coefficient_mu     1.085 
_exptl_absorpt_correction_type    multi-scan 
_exptl_absorpt_correction_T_min   0.743 
_exptl_absorpt_correction_T_max   0.973 
_exptl_absorpt_process_details    'Sadabs in APEX2 (BrukerAXS, 2006)' 
 
_exptl_special_details 
; 
 ? 
; 
 
_diffrn_ambient_temperature       90.0(2) 
_diffrn_radiation_wavelength      1.54178 
_diffrn_radiation_type            CuK\a 
_diffrn_radiation_source          'fine-focus rotating anode' 
_diffrn_radiation_monochromator   'graded multilayer optics' 
_diffrn_measurement_device_type   'Bruker X8 Proteum diffractometer'
_diffrn_measurement_method        '\f and \w scans'            
_diffrn_detector_area_resol_mean  5.6
_diffrn_standards_number          0 
_diffrn_standards_interval_count  . 
_diffrn_standards_interval_time   . 
_diffrn_standards_decay_%         ? 
_diffrn_reflns_number             11441 
_diffrn_reflns_av_R_equivalents   0.0373 
_diffrn_reflns_av_sigmaI/netI     0.0343 
_diffrn_reflns_limit_h_min        -9 
_diffrn_reflns_limit_h_max        6 
_diffrn_reflns_limit_k_min        -9 
_diffrn_reflns_limit_k_max        9 
_diffrn_reflns_limit_l_min        -19 
_diffrn_reflns_limit_l_max        19 
_diffrn_reflns_theta_min          5.53 
_diffrn_reflns_theta_max          69.63 
_reflns_number_total              3355 
_reflns_number_gt                 3077 
_reflns_threshold_expression      >2\s(I)    
 
_computing_data_collection        'APEX2 (Bruker-AXS, 2006)'            
_computing_cell_refinement        'APEX2'
_computing_data_reduction         'APEX2'
_computing_structure_solution     'SHELXS-97 (Sheldrick, 2008)' 
_computing_structure_refinement   'SHELXL-97 (Sheldrick, 2008)' 
_computing_molecular_graphics     'XP in SHELXTL (Sheldrick, 2008)'
_computing_publication_material
; 
SHELX-97 (Sheldrick, 2008) and local procedures 
; 
 
_publ_section_exptl_refinement
;
H atoms were found in difference Fourier maps and subsequently placed in
idealized positions with constrained C-H distances of 0.98 \%A (C~Me~H),
0.95 \%A (C~Ar~H) and 1.00 \%A (R~3~CH) with U~iso~(H) values set to either 
1.2U~eq~ or 1.5U~eq~ (C~Me~H only) of the attached C atom.

To ensure satisfactory refinement of the disordered parts of the structure, 
a combination of constraints and restraints were needed.  The constraints 
(SHELXL97 command EADP) was used to make the displacement parameters of 
closely proximate atoms equal.  The restraints (SHELXL97 commands SAME, 
DELU and FLAT) were used to ensure similar geometries and displacement 
parameters of closely proximate, chemically similar groups. 
;

_refine_special_details 
; 
Refinement of F^2^ against all reflections.  The weighted R-value wR and 
goodness of fit S are based on F^2^. Conventional R-values R are based 
on F, with F set to zero for negative F^2^.  The threshold expression of 
F^2^ > 2\s(F^2^) is used only for calculating R-factors(gt) etc. and is 
not relevant to the choice of reflections for refinement.  R-values based 
on F^2^ are statistically about twice as large as those based on F, and  
R-values based on ALL data will be even larger. 
; 
 
_refine_ls_structure_factor_coef  Fsqd  
_refine_ls_matrix_type            full 
_refine_ls_weighting_scheme       calc  
_refine_ls_weighting_details 
 'calc w=1/[\s^2^(Fo^2^)+(0.0547P)^2^+0.4362P] where P=(Fo^2^+2Fc^2^)/3' 
_atom_sites_solution_primary      direct 
_atom_sites_solution_secondary    difmap 
_atom_sites_solution_hydrogens    geom 
_refine_ls_hydrogen_treatment     constr 
_refine_ls_extinction_method      none 
_refine_ls_extinction_coef        ? 
_refine_ls_number_reflns          3355 
_refine_ls_number_parameters      232 
_refine_ls_number_restraints      38 
_refine_ls_R_factor_all           0.0431 
_refine_ls_R_factor_gt            0.0397 
_refine_ls_wR_factor_ref          0.1094 
_refine_ls_wR_factor_gt           0.1063 
_refine_ls_goodness_of_fit_ref    1.051 
_refine_ls_restrained_S_all       1.046 
_refine_ls_shift/su_max           0.001 
_refine_ls_shift/su_mean          0.000 
 
loop_ 
 _atom_site_label 
 _atom_site_type_symbol 
 _atom_site_fract_x 
 _atom_site_fract_y 
 _atom_site_fract_z 
 _atom_site_U_iso_or_equiv 
 _atom_site_adp_type 
 _atom_site_occupancy 
 _atom_site_symmetry_multiplicity 
 _atom_site_calc_flag 
 _atom_site_refinement_flags 
 _atom_site_disorder_assembly 
 _atom_site_disorder_group 
Si1 Si 0.25485(5) 0.20924(5) 0.82737(2) 0.01872(14) Uani 1 1 d DU . . 
C1 C 0.05276(19) 0.43979(17) 0.58204(8) 0.0167(3) Uani 1 1 d . . . 
C2 C -0.12713(19) 0.39352(17) 0.53828(9) 0.0167(3) Uani 1 1 d . . . 
C3 C -0.25761(19) 0.29230(17) 0.57440(9) 0.0180(3) Uani 1 1 d . . . 
H3 H -0.2235 0.2529 0.6298 0.022 Uiso 1 1 calc R . . 
C4 C -0.43378(19) 0.24829(17) 0.53188(9) 0.0175(3) Uani 1 1 d . . . 
C5 C -0.5675(2) 0.14642(18) 0.56842(9) 0.0205(3) Uani 1 1 d . . . 
H5 H -0.5360 0.1078 0.6241 0.025 Uiso 1 1 calc R . . 
C6 C -0.7383(2) 0.10431(18) 0.52465(9) 0.0223(3) Uani 1 1 d . . . 
H6 H -0.8258 0.0366 0.5500 0.027 Uiso 1 1 calc R . . 
C7 C -0.7889(2) 0.15974(19) 0.44135(9) 0.0229(3) Uani 1 1 d . . . 
H7 H -0.9096 0.1283 0.4113 0.027 Uiso 1 1 calc R . . 
C8 C -0.66695(19) 0.25679(18) 0.40443(9) 0.0208(3) Uani 1 1 d . . . 
H8 H -0.7028 0.2935 0.3487 0.025 Uiso 1 1 calc R . . 
C9 C -0.48508(19) 0.30488(17) 0.44803(9) 0.0180(3) Uani 1 1 d . . . 
C10 C -0.35869(19) 0.40564(17) 0.41192(9) 0.0176(3) Uani 1 1 d . . . 
H10 H -0.3940 0.4438 0.3564 0.021 Uiso 1 1 calc R . . 
C11 C -0.17987(19) 0.45341(17) 0.45469(9) 0.0169(3) Uani 1 1 d . . . 
C12 C 0.10956(18) 0.37244(17) 0.66275(9) 0.0179(3) Uani 1 1 d . . . 
C13 C 0.16281(19) 0.31103(18) 0.72957(9) 0.0197(3) Uani 1 1 d . A . 
C14 C 0.1771(2) -0.03045(19) 0.81830(9) 0.0249(3) Uani 1 1 d D A . 
H14 H 0.2223 -0.0832 0.8734 0.030 Uiso 1 1 calc R . . 
C15 C 0.2582(3) -0.1209(2) 0.75205(11) 0.0348(4) Uani 1 1 d D . . 
H15A H 0.2124 -0.2452 0.7480 0.052 Uiso 1 1 calc R A . 
H15B H 0.3920 -0.1087 0.7678 0.052 Uiso 1 1 calc R . . 
H15C H 0.2221 -0.0669 0.6979 0.052 Uiso 1 1 calc R . . 
C16 C -0.0308(2) -0.0634(2) 0.80027(11) 0.0329(4) Uani 1 1 d D . . 
H16A H -0.0792 -0.0106 0.7471 0.049 Uiso 1 1 calc R A . 
H16B H -0.0797 -0.0113 0.8453 0.049 Uiso 1 1 calc R . . 
H16C H -0.0675 -0.1895 0.7967 0.049 Uiso 1 1 calc R . . 
C17 C 0.503(3) 0.2568(17) 0.8511(8) 0.0253(12) Uani 0.50 1 d PDU A 1 
C18 C 0.601(4) 0.157(3) 0.9065(12) 0.0380(10) Uani 0.50 1 d PDU A 1 
H18A H 0.7305 0.1803 0.9197 0.046 Uiso 0.50 1 calc PR A 1 
H18B H 0.5407 0.0642 0.9325 0.046 Uiso 0.50 1 calc PR A 1 
C19 C 0.5961(12) 0.4035(11) 0.8099(4) 0.0435(14) Uani 0.50 1 d PDU A 1 
H19A H 0.7272 0.4167 0.8339 0.065 Uiso 0.50 1 calc PR A 1 
H19B H 0.5436 0.5121 0.8190 0.065 Uiso 0.50 1 calc PR A 1 
H19C H 0.5788 0.3781 0.7498 0.065 Uiso 0.50 1 calc PR A 1 
C17' C 0.518(3) 0.2415(17) 0.8372(9) 0.0253(12) Uani 0.50 1 d PDU A 2 
H17' H 0.5508 0.1873 0.7868 0.030 Uiso 0.50 1 calc PR A 2 
C18' C 0.608(4) 0.149(3) 0.9149(12) 0.0380(10) Uani 0.50 1 d PDU A 2 
H18C H 0.5618 0.0248 0.9111 0.057 Uiso 0.50 1 calc PR A 2 
H18D H 0.5794 0.2021 0.9650 0.057 Uiso 0.50 1 calc PR A 2 
H18E H 0.7413 0.1605 0.9184 0.057 Uiso 0.50 1 calc PR A 2 
C19' C 0.5890(12) 0.4362(11) 0.8416(4) 0.0435(14) Uani 0.50 1 d PDU A 2 
H19D H 0.5701 0.4883 0.8939 0.065 Uiso 0.50 1 calc PR A 2 
H19E H 0.5223 0.4955 0.7941 0.065 Uiso 0.50 1 calc PR A 2 
H19F H 0.7200 0.4491 0.8397 0.065 Uiso 0.50 1 calc PR A 2 
C20 C 0.1908(12) 0.315(2) 0.9159(11) 0.0192(12) Uani 0.50 1 d PDU A 1 
C21 C 0.170(3) 0.227(3) 0.9848(13) 0.0358(13) Uani 0.50 1 d PDU A 1 
H21A H 0.1361 0.2845 1.0304 0.043 Uiso 0.50 1 calc PR A 1 
H21B H 0.1884 0.1064 0.9881 0.043 Uiso 0.50 1 calc PR A 1 
C22 C 0.1619(18) 0.504(2) 0.9100(11) 0.0377(19) Uani 0.50 1 d PDU A 1 
H22A H 0.0583 0.5190 0.8649 0.057 Uiso 0.50 1 calc PR A 1 
H22B H 0.2725 0.5706 0.8981 0.057 Uiso 0.50 1 calc PR A 1 
H22C H 0.1359 0.5452 0.9630 0.057 Uiso 0.50 1 calc PR A 1 
C20' C 0.1480(12) 0.317(2) 0.9117(11) 0.0192(12) Uani 0.50 1 d PDU A 2 
H20' H 0.0124 0.3065 0.8918 0.023 Uiso 0.50 1 calc PR A 2 
C21' C 0.185(3) 0.224(3) 0.9948(13) 0.0358(13) Uani 0.50 1 d PDU A 2 
H21C H 0.1347 0.1009 0.9866 0.054 Uiso 0.50 1 calc PR A 2 
H21D H 0.1274 0.2798 1.0356 0.054 Uiso 0.50 1 calc PR A 2 
H21E H 0.3177 0.2300 1.0154 0.054 Uiso 0.50 1 calc PR A 2 
C22' C 0.2141(17) 0.510(2) 0.9222(11) 0.0377(19) Uani 0.50 1 d PDU A 2 
H22D H 0.1537 0.5635 0.9631 0.057 Uiso 0.50 1 calc PR A 2 
H22E H 0.1843 0.5676 0.8684 0.057 Uiso 0.50 1 calc PR A 2 
H22F H 0.3470 0.5252 0.9420 0.057 Uiso 0.50 1 calc PR A 2 
 
loop_ 
 _atom_site_aniso_label 
 _atom_site_aniso_U_11 
 _atom_site_aniso_U_22 
 _atom_site_aniso_U_33 
 _atom_site_aniso_U_23 
 _atom_site_aniso_U_13 
 _atom_site_aniso_U_12 
Si1 0.0183(2) 0.0183(2) 0.0185(2) 0.00510(14) 0.00063(15) 0.00183(15) 
C1 0.0188(7) 0.0132(6) 0.0186(7) 0.0016(5) 0.0038(5) 0.0029(5) 
C2 0.0188(7) 0.0120(6) 0.0197(7) 0.0010(5) 0.0037(5) 0.0025(5) 
C3 0.0213(7) 0.0136(6) 0.0190(7) 0.0027(5) 0.0035(5) 0.0021(5) 
C4 0.0188(7) 0.0121(6) 0.0227(7) 0.0006(5) 0.0061(5) 0.0020(5) 
C5 0.0229(7) 0.0161(7) 0.0233(7) 0.0021(5) 0.0070(6) 0.0010(5) 
C6 0.0203(7) 0.0182(7) 0.0296(8) 0.0009(6) 0.0097(6) -0.0020(5) 
C7 0.0170(7) 0.0208(7) 0.0296(8) -0.0013(6) 0.0024(6) -0.0001(6) 
C8 0.0194(7) 0.0185(7) 0.0236(7) 0.0006(6) 0.0019(6) 0.0017(5) 
C9 0.0176(7) 0.0136(6) 0.0230(7) 0.0001(5) 0.0035(5) 0.0028(5) 
C10 0.0194(7) 0.0147(7) 0.0185(7) 0.0021(5) 0.0024(5) 0.0024(5) 
C11 0.0184(7) 0.0128(6) 0.0196(7) 0.0009(5) 0.0035(5) 0.0029(5) 
C12 0.0167(7) 0.0156(6) 0.0210(7) 0.0009(5) 0.0039(5) -0.0006(5) 
C13 0.0175(7) 0.0187(7) 0.0223(7) 0.0025(5) 0.0035(5) -0.0007(5) 
C14 0.0331(9) 0.0197(7) 0.0212(7) 0.0058(6) 0.0042(6) 0.0016(6) 
C15 0.0488(11) 0.0245(8) 0.0325(9) 0.0000(7) 0.0109(8) 0.0044(7) 
C16 0.0360(9) 0.0279(8) 0.0314(9) 0.0017(7) 0.0049(7) -0.0098(7) 
C17 0.018(3) 0.032(2) 0.028(4) 0.0028(17) 0.007(2) 0.0073(17) 
C18 0.0217(17) 0.0459(16) 0.045(3) 0.0114(18) 0.000(2) 0.0091(11) 
C19 0.0219(12) 0.055(3) 0.047(4) 0.019(3) -0.003(3) -0.0065(17) 
C17' 0.018(3) 0.032(2) 0.028(4) 0.0028(17) 0.007(2) 0.0073(17) 
C18' 0.0217(17) 0.0459(16) 0.045(3) 0.0114(18) 0.000(2) 0.0091(11) 
C19' 0.0219(12) 0.055(3) 0.047(4) 0.019(3) -0.003(3) -0.0065(17) 
C20 0.008(4) 0.0245(8) 0.0242(16) 0.0036(9) 0.001(3) 0.005(3) 
C21 0.050(3) 0.0338(11) 0.030(4) 0.008(2) 0.018(2) 0.0155(19) 
C22 0.058(6) 0.0301(14) 0.028(4) 0.004(2) 0.009(4) 0.017(4) 
C20' 0.008(4) 0.0245(8) 0.0242(16) 0.0036(9) 0.001(3) 0.005(3) 
C21' 0.050(3) 0.0338(11) 0.030(4) 0.008(2) 0.018(2) 0.0155(19) 
C22' 0.058(6) 0.0301(14) 0.028(4) 0.004(2) 0.009(4) 0.017(4) 
 
_geom_special_details 
; 
 All esds (except the esd in the dihedral angle between two l.s. planes) 
 are estimated using the full covariance matrix.  The cell esds are taken 
 into account individually in the estimation of esds in distances, angles 
 and torsion angles; correlations between esds in cell parameters are only 
 used when they are defined by crystal symmetry.  An approximate (isotropic) 
 treatment of cell esds is used for estimating esds involving l.s. planes. 
; 
 
loop_ 
 _geom_bond_atom_site_label_1 
 _geom_bond_atom_site_label_2 
 _geom_bond_distance 
 _geom_bond_site_symmetry_2 
 _geom_bond_publ_flag 
Si1 C20 1.815(18) . ? 
Si1 C17 1.82(2) . ? 
Si1 C13 1.8255(15) . ? 
Si1 C14 1.8735(15) . ? 
Si1 C17' 1.935(19) . ? 
Si1 C20' 1.936(17) . ? 
C1 C2 1.410(2) . ? 
C1 C11 1.4113(19) 2_566 ? 
C1 C12 1.4204(19) . ? 
C2 C3 1.402(2) . ? 
C2 C11 1.436(2) . ? 
C3 C4 1.377(2) . ? 
C3 H3 0.9500 . ? 
C4 C5 1.426(2) . ? 
C4 C9 1.430(2) . ? 
C5 C6 1.348(2) . ? 
C5 H5 0.9500 . ? 
C6 C7 1.418(2) . ? 
C6 H6 0.9500 . ? 
C7 C8 1.348(2) . ? 
C7 H7 0.9500 . ? 
C8 C9 1.423(2) . ? 
C8 H8 0.9500 . ? 
C9 C10 1.378(2) . ? 
C10 C11 1.400(2) . ? 
C10 H10 0.9500 . ? 
C11 C1 1.4113(19) 2_566 ? 
C12 C13 1.202(2) . ? 
C14 C16 1.522(2) . ? 
C14 C15 1.530(2) . ? 
C14 H14 1.0000 . ? 
C15 H15A 0.9800 . ? 
C15 H15B 0.9800 . ? 
C15 H15C 0.9800 . ? 
C16 H16A 0.9800 . ? 
C16 H16B 0.9800 . ? 
C16 H16C 0.9800 . ? 
C17 C18 1.345(17) . ? 
C17 C19 1.493(16) . ? 
C18 H18A 0.9500 . ? 
C18 H18B 0.9500 . ? 
C19 H19A 0.9800 . ? 
C19 H19B 0.9800 . ? 
C19 H19C 0.9800 . ? 
C17' C18' 1.532(16) . ? 
C17' C19' 1.534(14) . ? 
C17' H17' 1.0000 . ? 
C18' H18C 0.9800 . ? 
C18' H18D 0.9800 . ? 
C18' H18E 0.9800 . ? 
C19' H19D 0.9800 . ? 
C19' H19E 0.9800 . ? 
C19' H19F 0.9800 . ? 
C20 C21 1.338(17) . ? 
C20 C22 1.491(16) . ? 
C21 H21A 0.9500 . ? 
C21 H21B 0.9500 . ? 
C22 H22A 0.9800 . ? 
C22 H22B 0.9800 . ? 
C22 H22C 0.9800 . ? 
C20' C22' 1.518(15) . ? 
C20' C21' 1.527(16) . ? 
C20' H20' 1.0000 . ? 
C21' H21C 0.9800 . ? 
C21' H21D 0.9800 . ? 
C21' H21E 0.9800 . ? 
C22' H22D 0.9800 . ? 
C22' H22E 0.9800 . ? 
C22' H22F 0.9800 . ? 
 
loop_ 
 _geom_angle_atom_site_label_1 
 _geom_angle_atom_site_label_2 
 _geom_angle_atom_site_label_3 
 _geom_angle 
 _geom_angle_site_symmetry_1 
 _geom_angle_site_symmetry_3 
 _geom_angle_publ_flag 
C20 Si1 C17 101.0(4) . . ? 
C20 Si1 C13 111.1(4) . . ? 
C17 Si1 C13 109.8(5) . . ? 
C20 Si1 C14 112.9(5) . . ? 
C17 Si1 C14 113.3(4) . . ? 
C13 Si1 C14 108.59(7) . . ? 
C20 Si1 C17' 109.5(4) . . ? 
C17 Si1 C17' 8.5(6) . . ? 
C13 Si1 C17' 105.6(5) . . ? 
C14 Si1 C17' 108.8(4) . . ? 
C20 Si1 C20' 8.9(5) . . ? 
C17 Si1 C20' 109.7(4) . . ? 
C13 Si1 C20' 105.2(4) . . ? 
C14 Si1 C20' 109.9(4) . . ? 
C17' Si1 C20' 118.2(4) . . ? 
C2 C1 C11 120.84(13) . 2_566 ? 
C2 C1 C12 119.73(12) . . ? 
C11 C1 C12 119.38(13) 2_566 . ? 
C3 C2 C1 121.91(13) . . ? 
C3 C2 C11 118.76(13) . . ? 
C1 C2 C11 119.33(13) . . ? 
C4 C3 C2 121.90(13) . . ? 
C4 C3 H3 119.0 . . ? 
C2 C3 H3 119.0 . . ? 
C3 C4 C5 122.21(13) . . ? 
C3 C4 C9 119.30(13) . . ? 
C5 C4 C9 118.49(13) . . ? 
C6 C5 C4 120.61(13) . . ? 
C6 C5 H5 119.7 . . ? 
C4 C5 H5 119.7 . . ? 
C5 C6 C7 120.90(13) . . ? 
C5 C6 H6 119.6 . . ? 
C7 C6 H6 119.6 . . ? 
C8 C7 C6 120.49(13) . . ? 
C8 C7 H7 119.8 . . ? 
C6 C7 H7 119.8 . . ? 
C7 C8 C9 120.76(13) . . ? 
C7 C8 H8 119.6 . . ? 
C9 C8 H8 119.6 . . ? 
C10 C9 C8 121.80(13) . . ? 
C10 C9 C4 119.45(13) . . ? 
C8 C9 C4 118.75(13) . . ? 
C9 C10 C11 121.93(13) . . ? 
C9 C10 H10 119.0 . . ? 
C11 C10 H10 119.0 . . ? 
C10 C11 C1 121.53(13) . 2_566 ? 
C10 C11 C2 118.64(13) . . ? 
C1 C11 C2 119.82(13) 2_566 . ? 
C13 C12 C1 177.04(15) . . ? 
C12 C13 Si1 175.82(13) . . ? 
C16 C14 C15 110.67(13) . . ? 
C16 C14 Si1 111.24(11) . . ? 
C15 C14 Si1 111.65(11) . . ? 
C16 C14 H14 107.7 . . ? 
C15 C14 H14 107.7 . . ? 
Si1 C14 H14 107.7 . . ? 
C14 C15 H15A 109.5 . . ? 
C14 C15 H15B 109.5 . . ? 
H15A C15 H15B 109.5 . . ? 
C14 C15 H15C 109.5 . . ? 
H15A C15 H15C 109.5 . . ? 
H15B C15 H15C 109.5 . . ? 
C14 C16 H16A 109.5 . . ? 
C14 C16 H16B 109.5 . . ? 
H16A C16 H16B 109.5 . . ? 
C14 C16 H16C 109.5 . . ? 
H16A C16 H16C 109.5 . . ? 
H16B C16 H16C 109.5 . . ? 
C18 C17 C19 120.4(18) . . ? 
C18 C17 Si1 118.8(16) . . ? 
C19 C17 Si1 120.8(12) . . ? 
C17 C18 H18A 120.0 . . ? 
C17 C18 H18B 120.0 . . ? 
H18A C18 H18B 120.0 . . ? 
C18' C17' C19' 110.5(12) . . ? 
C18' C17' Si1 109.6(13) . . ? 
C19' C17' Si1 111.1(9) . . ? 
C18' C17' H17' 108.5 . . ? 
C19' C17' H17' 108.5 . . ? 
Si1 C17' H17' 108.5 . . ? 
C17' C18' H18C 109.5 . . ? 
C17' C18' H18D 109.5 . . ? 
H18C C18' H18D 109.5 . . ? 
C17' C18' H18E 109.5 . . ? 
H18C C18' H18E 109.5 . . ? 
H18D C18' H18E 109.5 . . ? 
C17' C19' H19D 109.5 . . ? 
C17' C19' H19E 109.5 . . ? 
H19D C19' H19E 109.5 . . ? 
C17' C19' H19F 109.5 . . ? 
H19D C19' H19F 109.5 . . ? 
H19E C19' H19F 109.5 . . ? 
C21 C20 C22 120.5(18) . . ? 
C21 C20 Si1 121.4(16) . . ? 
C22 C20 Si1 118.1(13) . . ? 
C20 C21 H21A 120.0 . . ? 
C20 C21 H21B 120.0 . . ? 
H21A C21 H21B 120.0 . . ? 
C22' C20' C21' 111.4(13) . . ? 
C22' C20' Si1 110.9(11) . . ? 
C21' C20' Si1 111.5(13) . . ? 
C22' C20' H20' 107.6 . . ? 
C21' C20' H20' 107.6 . . ? 
Si1 C20' H20' 107.6 . . ? 
C20' C21' H21C 109.5 . . ? 
C20' C21' H21D 109.5 . . ? 
H21C C21' H21D 109.5 . . ? 
C20' C21' H21E 109.5 . . ? 
H21C C21' H21E 109.5 . . ? 
H21D C21' H21E 109.5 . . ? 
C20' C22' H22D 109.5 . . ? 
C20' C22' H22E 109.5 . . ? 
H22D C22' H22E 109.5 . . ? 
C20' C22' H22F 109.5 . . ? 
H22D C22' H22F 109.5 . . ? 
H22E C22' H22F 109.5 . . ? 
 
loop_ 
 _geom_torsion_atom_site_label_1 
 _geom_torsion_atom_site_label_2 
 _geom_torsion_atom_site_label_3 
 _geom_torsion_atom_site_label_4 
 _geom_torsion 
 _geom_torsion_site_symmetry_1 
 _geom_torsion_site_symmetry_2 
 _geom_torsion_site_symmetry_3 
 _geom_torsion_site_symmetry_4 
 _geom_torsion_publ_flag 
C11 C1 C2 C3 -177.90(12) 2_566 . . . ? 
C12 C1 C2 C3 4.7(2) . . . . ? 
C11 C1 C2 C11 1.2(2) 2_566 . . . ? 
C12 C1 C2 C11 -176.16(12) . . . . ? 
C1 C2 C3 C4 179.47(12) . . . . ? 
C11 C2 C3 C4 0.4(2) . . . . ? 
C2 C3 C4 C5 -179.57(13) . . . . ? 
C2 C3 C4 C9 1.0(2) . . . . ? 
C3 C4 C5 C6 -179.34(13) . . . . ? 
C9 C4 C5 C6 0.1(2) . . . . ? 
C4 C5 C6 C7 0.2(2) . . . . ? 
C5 C6 C7 C8 -0.4(2) . . . . ? 
C6 C7 C8 C9 0.3(2) . . . . ? 
C7 C8 C9 C10 -179.26(13) . . . . ? 
C7 C8 C9 C4 0.0(2) . . . . ? 
C3 C4 C9 C10 -1.4(2) . . . . ? 
C5 C4 C9 C10 179.06(12) . . . . ? 
C3 C4 C9 C8 179.27(12) . . . . ? 
C5 C4 C9 C8 -0.23(19) . . . . ? 
C8 C9 C10 C11 179.87(13) . . . . ? 
C4 C9 C10 C11 0.6(2) . . . . ? 
C9 C10 C11 C1 -178.41(12) . . . 2_566 ? 
C9 C10 C11 C2 0.7(2) . . . . ? 
C3 C2 C11 C10 -1.2(2) . . . . ? 
C1 C2 C11 C10 179.69(12) . . . . ? 
C3 C2 C11 C1 177.94(12) . . . 2_566 ? 
C1 C2 C11 C1 -1.2(2) . . . 2_566 ? 
C2 C1 C12 C13 111(3) . . . . ? 
C11 C1 C12 C13 -66(3) 2_566 . . . ? 
C1 C12 C13 Si1 2(4) . . . . ? 
C20 Si1 C13 C12 166.5(17) . . . . ? 
C17 Si1 C13 C12 55.6(18) . . . . ? 
C14 Si1 C13 C12 -68.7(17) . . . . ? 
C17' Si1 C13 C12 47.9(18) . . . . ? 
C20' Si1 C13 C12 173.6(17) . . . . ? 
C20 Si1 C14 C16 64.8(4) . . . . ? 
C17 Si1 C14 C16 178.8(4) . . . . ? 
C13 Si1 C14 C16 -58.94(12) . . . . ? 
C17' Si1 C14 C16 -173.4(4) . . . . ? 
C20' Si1 C14 C16 55.7(4) . . . . ? 
C20 Si1 C14 C15 -171.1(3) . . . . ? 
C17 Si1 C14 C15 -57.0(4) . . . . ? 
C13 Si1 C14 C15 65.24(13) . . . . ? 
C17' Si1 C14 C15 -49.2(4) . . . . ? 
C20' Si1 C14 C15 179.9(4) . . . . ? 
C20 Si1 C17 C18 80.6(8) . . . . ? 
C13 Si1 C17 C18 -161.9(6) . . . . ? 
C14 Si1 C17 C18 -40.4(5) . . . . ? 
C17' Si1 C17 C18 -100(7) . . . . ? 
C20' Si1 C17 C18 82.9(7) . . . . ? 
C20 Si1 C17 C19 -99.4(7) . . . . ? 
C13 Si1 C17 C19 18.1(6) . . . . ? 
C14 Si1 C17 C19 139.6(5) . . . . ? 
C17' Si1 C17 C19 80(6) . . . . ? 
C20' Si1 C17 C19 -97.1(7) . . . . ? 
C20 Si1 C17' C18' 64.1(8) . . . . ? 
C17 Si1 C17' C18' 63(6) . . . . ? 
C13 Si1 C17' C18' -176.1(6) . . . . ? 
C14 Si1 C17' C18' -59.7(6) . . . . ? 
C20' Si1 C17' C18' 66.6(10) . . . . ? 
C20 Si1 C17' C19' -58.2(9) . . . . ? 
C17 Si1 C17' C19' -59(6) . . . . ? 
C13 Si1 C17' C19' 61.5(7) . . . . ? 
C14 Si1 C17' C19' 177.9(6) . . . . ? 
C20' Si1 C17' C19' -55.8(11) . . . . ? 
C17 Si1 C20 C21 -93.0(8) . . . . ? 
C13 Si1 C20 C21 150.6(7) . . . . ? 
C14 Si1 C20 C21 28.3(6) . . . . ? 
C17' Si1 C20 C21 -93.2(8) . . . . ? 
C20' Si1 C20 C21 101(6) . . . . ? 
C17 Si1 C20 C22 87.0(8) . . . . ? 
C13 Si1 C20 C22 -29.4(6) . . . . ? 
C14 Si1 C20 C22 -151.7(5) . . . . ? 
C17' Si1 C20 C22 86.9(8) . . . . ? 
C20' Si1 C20 C22 -79(6) . . . . ? 
C20 Si1 C20' C22' 67(6) . . . . ? 
C17 Si1 C20' C22' 52.9(8) . . . . ? 
C13 Si1 C20' C22' -65.1(7) . . . . ? 
C14 Si1 C20' C22' 178.1(6) . . . . ? 
C17' Si1 C20' C22' 52.4(11) . . . . ? 
C20 Si1 C20' C21' -58(6) . . . . ? 
C17 Si1 C20' C21' -71.9(9) . . . . ? 
C13 Si1 C20' C21' 170.1(7) . . . . ? 
C14 Si1 C20' C21' 53.3(7) . . . . ? 
C17' Si1 C20' C21' -72.4(10) . . . . ? 
 
_diffrn_measured_fraction_theta_max    0.969 
_diffrn_reflns_theta_full              69.63 
_diffrn_measured_fraction_theta_full   0.969 
_refine_diff_density_max    0.344 
_refine_diff_density_min   -0.235 
_refine_diff_density_rms    0.046 
