 
data_x08015 
 
_audit_creation_method            SHELXL-97 
_chemical_name_systematic 
; 
 ? 
; 
_chemical_name_common             ? 
_chemical_melting_point           ? 
_chemical_formula_moiety 
 'C44 H52 F2 Si2' 
_chemical_formula_sum 
 'C44 H52 F2 Si2' 
_chemical_formula_weight          675.04 
 
loop_ 
 _atom_type_symbol 
 _atom_type_description 
 _atom_type_scat_dispersion_real 
 _atom_type_scat_dispersion_imag 
 _atom_type_scat_source 
 'C'  'C'   0.0181   0.0091 
 'International Tables Vol C Tables 4.2.6.8 and 6.1.1.4' 
 'H'  'H'   0.0000   0.0000 
 'International Tables Vol C Tables 4.2.6.8 and 6.1.1.4' 
 'F'  'F'   0.0727   0.0534 
 'International Tables Vol C Tables 4.2.6.8 and 6.1.1.4' 
 'Si'  'Si'   0.2541   0.3302 
 'International Tables Vol C Tables 4.2.6.8 and 6.1.1.4' 
 
_symmetry_cell_setting            triclinic
_symmetry_space_group_name_H-M    'P -1'
_symmetry_space_group_name_Hall   '-P 1'
 
loop_ 
 _symmetry_equiv_pos_as_xyz 
 'x, y, z' 
 '-x, -y, -z' 
 
_cell_length_a                    7.4436(4) 
_cell_length_b                    7.6906(4) 
_cell_length_c                    16.8240(8) 
_cell_angle_alpha                 89.060(2) 
_cell_angle_beta                  78.620(2) 
_cell_angle_gamma                 85.093(2) 
_cell_volume                      940.71(8) 
_cell_formula_units_Z             1 
_cell_measurement_temperature     90.0(2) 
_cell_measurement_reflns_used     8091
_cell_measurement_theta_min       2.68
_cell_measurement_theta_max       68.44
 
_exptl_crystal_description        lath
_exptl_crystal_colour             blue
_exptl_crystal_size_max           0.35 
_exptl_crystal_size_mid           0.12 
_exptl_crystal_size_min           0.02 
_exptl_crystal_density_meas       ? 
_exptl_crystal_density_diffrn     1.192 
_exptl_crystal_density_method     'not measured' 
_exptl_crystal_F_000              362 
_exptl_absorpt_coefficient_mu     1.161 
_exptl_absorpt_correction_type    multi-scan 
_exptl_absorpt_correction_T_min   0.673
_exptl_absorpt_correction_T_max   0.977 
_exptl_absorpt_process_details    'Sadabs in APEX2 (BrukerAXS, 2006)' 
 
_exptl_special_details 
; 
 ? 
; 
 
_diffrn_ambient_temperature       90.0(2) 
_diffrn_radiation_wavelength      1.54178 
_diffrn_radiation_type            CuK\a 
_diffrn_radiation_source          'fine-focus rotating anode' 
_diffrn_radiation_monochromator   'graded multilayer optics' 
_diffrn_measurement_device_type   'Bruker X8 Proteum diffractometer'
_diffrn_measurement_method        '\f and \w scans'            
_diffrn_detector_area_resol_mean  18
_diffrn_standards_number          0 
_diffrn_standards_interval_count  . 
_diffrn_standards_interval_time   . 
_diffrn_standards_decay_%         ? 
_diffrn_reflns_number             12170 
_diffrn_reflns_av_R_equivalents   0.0374 
_diffrn_reflns_av_sigmaI/netI     0.0337 
_diffrn_reflns_limit_h_min        -8 
_diffrn_reflns_limit_h_max        6 
_diffrn_reflns_limit_k_min        -9 
_diffrn_reflns_limit_k_max        9 
_diffrn_reflns_limit_l_min        -20 
_diffrn_reflns_limit_l_max        20 
_diffrn_reflns_theta_min          2.68 
_diffrn_reflns_theta_max          68.69 
_reflns_number_total              3383 
_reflns_number_gt                 2951 
_reflns_threshold_expression      >2\s(I)    
 
_computing_data_collection        'APEX2 (Bruker-AXS, 2006)'            
_computing_cell_refinement        'APEX2 (Bruker-AXS, 2006)'            
_computing_data_reduction         'APEX2 (Bruker-AXS, 2006)'            
_computing_structure_solution     'SHELXS-97 (Sheldrick, 2008)' 
_computing_structure_refinement   'SHELXL-97 (Sheldrick, 2008)' 
_computing_molecular_graphics     'XP in SHELXTL (Sheldrick, 2008)'
_computing_publication_material
; 
SHELX97-2 (Sheldrick, 2008) and local procedures 
; 

_publ_section_exptl_refinement
;
H atoms were found in difference Fourier maps and subsequently placed in
idealized positions with constrained C-H distances of 0.98 \%A (RCH~3~),
1.00 \%A (R~3~CH) and 0.95 \%A (C~Ar~H) with U~iso~(H) values set to either 
1.5U~eq~ (RCH~3~ only) or 1.2U~eq~ of the attached C atom.
;

 
_refine_special_details 
; 
 Refinement of F^2^ against ALL reflections.  The weighted R-factor wR and 
 goodness of fit S are based on F^2^, conventional R-factors R are based 
 on F, with F set to zero for negative F^2^. The threshold expression of 
 F^2^ > 2\s(F^2^) is used only for calculating R-factors(gt) etc. and is 
 not relevant to the choice of reflections for refinement.  R-factors based 
 on F^2^ are statistically about twice as large as those based on F, and R- 
 factors based on ALL data will be even larger. 
; 
 
_refine_ls_structure_factor_coef  Fsqd  
_refine_ls_matrix_type            full 
_refine_ls_weighting_scheme       calc  
_refine_ls_weighting_details 
 'calc w=1/[\s^2^(Fo^2^)+(0.0417P)^2^+1.1717P] where P=(Fo^2^+2Fc^2^)/3' 
_atom_sites_solution_primary      direct 
_atom_sites_solution_secondary    difmap 
_atom_sites_solution_hydrogens    geom 
_refine_ls_hydrogen_treatment     constr 
_refine_ls_extinction_method      none 
_refine_ls_extinction_coef        ? 
_refine_ls_number_reflns          3383 
_refine_ls_number_parameters      238 
_refine_ls_number_restraints      8 
_refine_ls_R_factor_all           0.0587 
_refine_ls_R_factor_gt            0.0497 
_refine_ls_wR_factor_ref          0.1314 
_refine_ls_wR_factor_gt           0.1241 
_refine_ls_goodness_of_fit_ref    1.114 
_refine_ls_restrained_S_all       1.118 
_refine_ls_shift/su_max           0.000 
_refine_ls_shift/su_mean          0.000 
 
loop_ 
 _atom_site_label 
 _atom_site_type_symbol 
 _atom_site_fract_x 
 _atom_site_fract_y 
 _atom_site_fract_z 
 _atom_site_U_iso_or_equiv 
 _atom_site_adp_type 
 _atom_site_occupancy 
 _atom_site_symmetry_multiplicity 
 _atom_site_calc_flag 
 _atom_site_refinement_flags 
 _atom_site_disorder_assembly 
 _atom_site_disorder_group 
Si1 Si 0.75465(8) 0.79140(7) 0.17709(3) 0.01864(18) Uani 1 1 d . D . 
C1 C 0.5534(3) 0.5608(3) 0.41983(12) 0.0154(4) Uani 1 1 d . . . 
C2 C 0.6802(3) 0.4541(3) 0.45543(12) 0.0155(4) Uani 1 1 d . . . 
C3 C 0.8592(3) 0.4086(3) 0.41316(12) 0.0170(4) Uani 1 1 d . A . 
H3 H 0.8952 0.4478 0.3590 0.020 Uiso 1 1 calc R . . 
C4 C 0.9845(3) 0.3081(3) 0.44857(12) 0.0167(4) Uani 1 1 d . . . 
C5 C 1.1668(3) 0.2612(3) 0.40735(13) 0.0203(5) Uani 0.627(4) 1 d P A 1 
F5 F 1.2159(3) 0.3261(3) 0.33187(12) 0.0275(7) Uani 0.627(4) 1 d P A 1 
C5' C 1.1668(3) 0.2612(3) 0.40735(13) 0.0203(5) Uani 0.373(4) 1 d P A 2 
H5 H 1.2037 0.2995 0.3531 0.024 Uiso 0.373(4) 1 calc PR A 2 
C6 C 1.2899(3) 0.1645(3) 0.44192(14) 0.0232(5) Uani 1 1 d . . . 
H6 H 1.4109 0.1352 0.4123 0.028 Uiso 1 1 calc R A 1 
C7 C 1.2372(3) 0.1068(3) 0.52291(13) 0.0218(5) Uani 1 1 d . A . 
H7 H 1.3234 0.0386 0.5477 0.026 Uiso 1 1 calc R B 1 
C8 C 1.0657(3) 0.1480(3) 0.56495(13) 0.0196(5) Uani 0.627(4) 1 d P A 1 
H8 H 1.0333 0.1081 0.6192 0.024 Uiso 0.627(4) 1 calc PR A 1 
C8' C 1.0657(3) 0.1480(3) 0.56495(13) 0.0196(5) Uani 0.373(4) 1 d P A 2 
F8 F 1.0086(5) 0.0954(4) 0.64192(19) 0.0239(11) Uani 0.373(4) 1 d P A 2 
C9 C 0.9313(3) 0.2499(3) 0.53046(12) 0.0161(4) Uani 1 1 d . A . 
C10 C 0.7552(3) 0.2924(3) 0.57237(12) 0.0163(4) Uani 1 1 d . . . 
H10 H 0.7203 0.2522 0.6265 0.020 Uiso 1 1 calc R A . 
C11 C 0.6261(3) 0.3936(2) 0.53704(12) 0.0148(4) Uani 1 1 d . . . 
C12 C 0.6119(3) 0.6289(3) 0.34053(12) 0.0169(4) Uani 1 1 d . . . 
C13 C 0.6640(3) 0.6903(3) 0.27476(13) 0.0203(5) Uani 1 1 d . . . 
C14 C 0.6800(3) 1.0309(3) 0.18542(14) 0.0274(5) Uani 1 1 d . . . 
H14 H 0.7306 1.0859 0.1324 0.033 Uiso 1 1 calc R . . 
C15 C 0.7566(5) 1.1193(4) 0.25107(16) 0.0417(7) Uani 1 1 d . . . 
H15A H 0.7096 1.2425 0.2554 0.062 Uiso 1 1 calc R . . 
H15B H 0.8912 1.1108 0.2366 0.062 Uiso 1 1 calc R . . 
H15C H 0.7181 1.0613 0.3032 0.062 Uiso 1 1 calc R . . 
C16 C 0.4714(4) 1.0642(4) 0.20040(16) 0.0393(7) Uani 1 1 d . . . 
H16A H 0.4173 1.0073 0.2510 0.059 Uiso 1 1 calc R . . 
H16B H 0.4255 1.0167 0.1552 0.059 Uiso 1 1 calc R . . 
H16C H 0.4371 1.1901 0.2046 0.059 Uiso 1 1 calc R . . 
C17 C 0.6452(3) 0.6903(3) 0.09991(13) 0.0241(5) Uani 1 1 d . . . 
H17 H 0.5095 0.7068 0.1210 0.029 Uiso 1 1 calc R . . 
C18 C 0.6789(4) 0.7795(4) 0.01747(15) 0.0349(6) Uani 1 1 d . . . 
H18A H 0.8093 0.7600 -0.0078 0.052 Uiso 1 1 calc R . . 
H18B H 0.6449 0.9050 0.0244 0.052 Uiso 1 1 calc R . . 
H18C H 0.6043 0.7308 -0.0172 0.052 Uiso 1 1 calc R . . 
C19 C 0.6922(5) 0.4944(4) 0.09063(19) 0.0515(8) Uani 1 1 d . . . 
H19A H 0.6137 0.4464 0.0575 0.077 Uiso 1 1 calc R . . 
H19B H 0.6717 0.4393 0.1442 0.077 Uiso 1 1 calc R . . 
H19C H 0.8215 0.4712 0.0642 0.077 Uiso 1 1 calc R . . 
C20 C 1.0117(3) 0.7546(4) 0.15989(15) 0.0330(6) Uani 1 1 d D . . 
H20 H 1.0458 0.8187 0.2053 0.040 Uiso 1 1 calc R C 1 
C21 C 1.1059(3) 0.8425(4) 0.08423(17) 0.0393(7) Uani 1 1 d D D . 
H21A H 1.0665 0.9675 0.0867 0.059 Uiso 1 1 calc R . . 
H21B H 1.0731 0.7911 0.0367 0.059 Uiso 1 1 calc R . . 
H21C H 1.2394 0.8260 0.0801 0.059 Uiso 1 1 calc R . . 
C22 C 1.0871(5) 0.5718(5) 0.1685(2) 0.0499(12) Uani 0.839(7) 1 d PDU D 1 
H22A H 1.2167 0.5703 0.1726 0.075 Uiso 0.839(7) 1 calc PR D 1 
H22B H 1.0768 0.5041 0.1210 0.075 Uiso 0.839(7) 1 calc PR D 1 
H22C H 1.0176 0.5203 0.2175 0.075 Uiso 0.839(7) 1 calc PR D 1 
C22' C 1.117(2) 0.696(2) 0.2202(8) 0.040(5) Uiso 0.161(7) 1 d PDU D 2 
H22D H 1.0364 0.6427 0.2655 0.061 Uiso 0.161(7) 1 calc PR D 2 
H22E H 1.1685 0.7963 0.2400 0.061 Uiso 0.161(7) 1 calc PR D 2 
H22F H 1.2167 0.6105 0.1960 0.061 Uiso 0.161(7) 1 calc PR D 2 
 
loop_ 
 _atom_site_aniso_label 
 _atom_site_aniso_U_11 
 _atom_site_aniso_U_22 
 _atom_site_aniso_U_33 
 _atom_site_aniso_U_23 
 _atom_site_aniso_U_13 
 _atom_site_aniso_U_12 
Si1 0.0166(3) 0.0198(3) 0.0196(3) 0.0057(2) -0.0033(2) -0.0037(2) 
C1 0.0162(10) 0.0136(10) 0.0172(10) 0.0009(7) -0.0047(8) -0.0036(8) 
C2 0.0154(10) 0.0127(10) 0.0192(10) 0.0005(7) -0.0047(8) -0.0026(8) 
C3 0.0165(11) 0.0163(10) 0.0183(10) 0.0007(8) -0.0034(8) -0.0028(8) 
C4 0.0152(11) 0.0140(10) 0.0219(10) -0.0016(8) -0.0055(8) -0.0017(8) 
C5 0.0182(11) 0.0200(11) 0.0221(11) -0.0010(8) -0.0028(8) -0.0017(8) 
F5 0.0206(12) 0.0353(13) 0.0234(11) 0.0037(8) 0.0001(8) 0.0042(9) 
C5' 0.0182(11) 0.0200(11) 0.0221(11) -0.0010(8) -0.0028(8) -0.0017(8) 
C6 0.0160(11) 0.0239(12) 0.0291(12) -0.0053(9) -0.0045(9) 0.0029(9) 
C7 0.0180(11) 0.0186(11) 0.0313(12) -0.0023(9) -0.0123(9) 0.0027(8) 
C8 0.0213(11) 0.0168(11) 0.0222(11) 0.0009(8) -0.0081(8) -0.0013(8) 
C8' 0.0213(11) 0.0168(11) 0.0222(11) 0.0009(8) -0.0081(8) -0.0013(8) 
F8 0.023(2) 0.027(2) 0.0209(18) 0.0055(13) -0.0071(13) 0.0055(14) 
C9 0.0169(11) 0.0106(10) 0.0225(10) -0.0016(8) -0.0075(8) -0.0015(8) 
C10 0.0180(11) 0.0132(10) 0.0190(10) 0.0023(7) -0.0064(8) -0.0031(8) 
C11 0.0155(10) 0.0102(9) 0.0197(10) -0.0004(7) -0.0052(8) -0.0022(7) 
C12 0.0139(10) 0.0160(10) 0.0214(11) 0.0020(8) -0.0051(8) -0.0005(8) 
C13 0.0149(11) 0.0223(11) 0.0241(11) 0.0026(8) -0.0055(8) -0.0012(8) 
C14 0.0363(14) 0.0241(12) 0.0210(11) 0.0057(9) -0.0038(9) -0.0033(10) 
C15 0.065(2) 0.0279(14) 0.0335(14) -0.0012(11) -0.0117(13) -0.0075(13) 
C16 0.0427(16) 0.0337(15) 0.0370(14) 0.0031(11) -0.0042(12) 0.0130(12) 
C17 0.0225(12) 0.0260(12) 0.0259(12) 0.0056(9) -0.0080(9) -0.0079(9) 
C18 0.0407(16) 0.0421(15) 0.0275(13) 0.0064(11) -0.0153(11) -0.0172(12) 
C19 0.086(3) 0.0274(15) 0.0527(18) 0.0010(12) -0.0370(17) -0.0146(15) 
C20 0.0227(13) 0.0431(15) 0.0332(13) 0.0141(11) -0.0054(10) -0.0053(11) 
C21 0.0197(13) 0.0553(18) 0.0418(15) 0.0201(13) -0.0029(11) -0.0083(12) 
C22 0.0196(17) 0.051(2) 0.071(3) 0.0263(18) 0.0067(15) 0.0059(14) 
 
_geom_special_details 
; 
 All esds (except the esd in the dihedral angle between two l.s. planes) 
 are estimated using the full covariance matrix.  The cell esds are taken 
 into account individually in the estimation of esds in distances, angles 
 and torsion angles; correlations between esds in cell parameters are only 
 used when they are defined by crystal symmetry.  An approximate (isotropic) 
 treatment of cell esds is used for estimating esds involving l.s. planes. 
; 
 
loop_ 
 _geom_bond_atom_site_label_1 
 _geom_bond_atom_site_label_2 
 _geom_bond_distance 
 _geom_bond_site_symmetry_2 
 _geom_bond_publ_flag 
Si1 C13 1.836(2) . ? 
Si1 C17 1.875(2) . ? 
Si1 C20 1.875(3) . ? 
Si1 C14 1.877(2) . ? 
C1 C11 1.407(3) 2_666 ? 
C1 C2 1.413(3) . ? 
C1 C12 1.425(3) . ? 
C2 C3 1.399(3) . ? 
C2 C11 1.434(3) . ? 
C3 C4 1.380(3) . ? 
C3 H3 0.9500 . ? 
C4 C5 1.416(3) . ? 
C4 C9 1.432(3) . ? 
C5 C6 1.345(3) . ? 
C5 F5 1.350(3) . ? 
C6 C7 1.416(3) . ? 
C6 H6 0.9500 . ? 
C7 C8 1.346(3) . ? 
C7 H7 0.9500 . ? 
C8 C9 1.425(3) . ? 
C8 H8 0.9500 . ? 
C9 C10 1.375(3) . ? 
C10 C11 1.402(3) . ? 
C10 H10 0.9500 . ? 
C11 C1 1.407(3) 2_666 ? 
C12 C13 1.201(3) . ? 
C14 C16 1.523(4) . ? 
C14 C15 1.532(4) . ? 
C14 H14 1.0000 . ? 
C15 H15A 0.9800 . ? 
C15 H15B 0.9800 . ? 
C15 H15C 0.9800 . ? 
C16 H16A 0.9800 . ? 
C16 H16B 0.9800 . ? 
C16 H16C 0.9800 . ? 
C17 C19 1.521(4) . ? 
C17 C18 1.523(3) . ? 
C17 H17 1.0000 . ? 
C18 H18A 0.9800 . ? 
C18 H18B 0.9800 . ? 
C18 H18C 0.9800 . ? 
C19 H19A 0.9800 . ? 
C19 H19B 0.9800 . ? 
C19 H19C 0.9800 . ? 
C20 C22' 1.442(9) . ? 
C20 C22 1.484(4) . ? 
C20 C21 1.506(3) . ? 
C20 H20 1.0000 . ? 
C21 H21A 0.9800 . ? 
C21 H21B 0.9800 . ? 
C21 H21C 0.9800 . ? 
C22 H22A 0.9800 . ? 
C22 H22B 0.9800 . ? 
C22 H22C 0.9800 . ? 
C22' H22D 0.9800 . ? 
C22' H22E 0.9800 . ? 
C22' H22F 0.9800 . ? 
 
loop_ 
 _geom_angle_atom_site_label_1 
 _geom_angle_atom_site_label_2 
 _geom_angle_atom_site_label_3 
 _geom_angle 
 _geom_angle_site_symmetry_1 
 _geom_angle_site_symmetry_3 
 _geom_angle_publ_flag 
C13 Si1 C17 106.46(10) . . ? 
C13 Si1 C20 106.94(10) . . ? 
C17 Si1 C20 115.36(12) . . ? 
C13 Si1 C14 107.69(10) . . ? 
C17 Si1 C14 109.49(11) . . ? 
C20 Si1 C14 110.53(12) . . ? 
C11 C1 C2 120.89(18) 2_666 . ? 
C11 C1 C12 119.92(18) 2_666 . ? 
C2 C1 C12 119.13(18) . . ? 
C3 C2 C1 121.33(19) . . ? 
C3 C2 C11 119.11(18) . . ? 
C1 C2 C11 119.55(19) . . ? 
C4 C3 C2 121.37(19) . . ? 
C4 C3 H3 119.3 . . ? 
C2 C3 H3 119.3 . . ? 
C3 C4 C5 122.51(19) . . ? 
C3 C4 C9 119.53(19) . . ? 
C5 C4 C9 117.96(18) . . ? 
C6 C5 F5 120.7(2) . . ? 
C6 C5 C4 122.7(2) . . ? 
F5 C5 C4 116.55(19) . . ? 
C5 C6 C7 119.4(2) . . ? 
C5 C6 H6 120.3 . . ? 
C7 C6 H6 120.3 . . ? 
C8 C7 C6 120.40(19) . . ? 
C8 C7 H7 119.8 . . ? 
C6 C7 H7 119.8 . . ? 
C7 C8 C9 121.9(2) . . ? 
C7 C8 H8 119.0 . . ? 
C9 C8 H8 119.0 . . ? 
C10 C9 C8 122.72(19) . . ? 
C10 C9 C4 119.63(18) . . ? 
C8 C9 C4 117.65(19) . . ? 
C9 C10 C11 121.49(19) . . ? 
C9 C10 H10 119.3 . . ? 
C11 C10 H10 119.3 . . ? 
C10 C11 C1 121.58(19) . 2_666 ? 
C10 C11 C2 118.86(19) . . ? 
C1 C11 C2 119.55(18) 2_666 . ? 
C13 C12 C1 177.9(2) . . ? 
C12 C13 Si1 176.2(2) . . ? 
C16 C14 C15 110.4(2) . . ? 
C16 C14 Si1 111.57(17) . . ? 
C15 C14 Si1 112.00(17) . . ? 
C16 C14 H14 107.5 . . ? 
C15 C14 H14 107.5 . . ? 
Si1 C14 H14 107.5 . . ? 
C14 C15 H15A 109.5 . . ? 
C14 C15 H15B 109.5 . . ? 
H15A C15 H15B 109.5 . . ? 
C14 C15 H15C 109.5 . . ? 
H15A C15 H15C 109.5 . . ? 
H15B C15 H15C 109.5 . . ? 
C14 C16 H16A 109.5 . . ? 
C14 C16 H16B 109.5 . . ? 
H16A C16 H16B 109.5 . . ? 
C14 C16 H16C 109.5 . . ? 
H16A C16 H16C 109.5 . . ? 
H16B C16 H16C 109.5 . . ? 
C19 C17 C18 110.5(2) . . ? 
C19 C17 Si1 113.59(17) . . ? 
C18 C17 Si1 113.97(16) . . ? 
C19 C17 H17 106.0 . . ? 
C18 C17 H17 106.0 . . ? 
Si1 C17 H17 106.0 . . ? 
C17 C18 H18A 109.5 . . ? 
C17 C18 H18B 109.5 . . ? 
H18A C18 H18B 109.5 . . ? 
C17 C18 H18C 109.5 . . ? 
H18A C18 H18C 109.5 . . ? 
H18B C18 H18C 109.5 . . ? 
C17 C19 H19A 109.5 . . ? 
C17 C19 H19B 109.5 . . ? 
H19A C19 H19B 109.5 . . ? 
C17 C19 H19C 109.5 . . ? 
H19A C19 H19C 109.5 . . ? 
H19B C19 H19C 109.5 . . ? 
C22' C20 C22 55.6(7) . . ? 
C22' C20 C21 119.3(7) . . ? 
C22 C20 C21 113.2(2) . . ? 
C22' C20 Si1 125.6(7) . . ? 
C22 C20 Si1 115.9(2) . . ? 
C21 C20 Si1 112.82(17) . . ? 
C22' C20 H20 49.0 . . ? 
C22 C20 H20 104.5 . . ? 
C21 C20 H20 104.5 . . ? 
Si1 C20 H20 104.5 . . ? 
C20 C21 H21A 109.5 . . ? 
C20 C21 H21B 109.5 . . ? 
H21A C21 H21B 109.5 . . ? 
C20 C21 H21C 109.5 . . ? 
H21A C21 H21C 109.5 . . ? 
H21B C21 H21C 109.5 . . ? 
C20 C22 H22A 109.5 . . ? 
C20 C22 H22B 109.5 . . ? 
C20 C22 H22C 109.5 . . ? 
C20 C22' H22D 109.5 . . ? 
C20 C22' H22E 109.5 . . ? 
H22D C22' H22E 109.5 . . ? 
C20 C22' H22F 109.5 . . ? 
H22D C22' H22F 109.5 . . ? 
H22E C22' H22F 109.5 . . ? 
 
loop_ 
 _geom_torsion_atom_site_label_1 
 _geom_torsion_atom_site_label_2 
 _geom_torsion_atom_site_label_3 
 _geom_torsion_atom_site_label_4 
 _geom_torsion 
 _geom_torsion_site_symmetry_1 
 _geom_torsion_site_symmetry_2 
 _geom_torsion_site_symmetry_3 
 _geom_torsion_site_symmetry_4 
 _geom_torsion_publ_flag 
C11 C1 C2 C3 -179.76(18) 2_666 . . . ? 
C12 C1 C2 C3 -2.6(3) . . . . ? 
C11 C1 C2 C11 -0.9(3) 2_666 . . . ? 
C12 C1 C2 C11 176.25(18) . . . . ? 
C1 C2 C3 C4 178.37(19) . . . . ? 
C11 C2 C3 C4 -0.5(3) . . . . ? 
C2 C3 C4 C5 -179.56(19) . . . . ? 
C2 C3 C4 C9 -0.5(3) . . . . ? 
C3 C4 C5 C6 179.4(2) . . . . ? 
C9 C4 C5 C6 0.3(3) . . . . ? 
C3 C4 C5 F5 2.7(3) . . . . ? 
C9 C4 C5 F5 -176.40(19) . . . . ? 
F5 C5 C6 C7 176.3(2) . . . . ? 
C4 C5 C6 C7 -0.2(3) . . . . ? 
C5 C6 C7 C8 0.1(3) . . . . ? 
C6 C7 C8 C9 0.1(3) . . . . ? 
C7 C8 C9 C10 179.6(2) . . . . ? 
C7 C8 C9 C4 0.0(3) . . . . ? 
C3 C4 C9 C10 1.1(3) . . . . ? 
C5 C4 C9 C10 -179.78(19) . . . . ? 
C3 C4 C9 C8 -179.28(19) . . . . ? 
C5 C4 C9 C8 -0.1(3) . . . . ? 
C8 C9 C10 C11 179.64(19) . . . . ? 
C4 C9 C10 C11 -0.7(3) . . . . ? 
C9 C10 C11 C1 -179.14(19) . . . 2_666 ? 
C9 C10 C11 C2 -0.2(3) . . . . ? 
C3 C2 C11 C10 0.8(3) . . . . ? 
C1 C2 C11 C10 -178.06(18) . . . . ? 
C3 C2 C11 C1 179.78(18) . . . 2_666 ? 
C1 C2 C11 C1 0.9(3) . . . 2_666 ? 
C13 Si1 C14 C16 -62.86(19) . . . . ? 
C17 Si1 C14 C16 52.51(19) . . . . ? 
C20 Si1 C14 C16 -179.34(17) . . . . ? 
C13 Si1 C14 C15 61.5(2) . . . . ? 
C17 Si1 C14 C15 176.85(18) . . . . ? 
C20 Si1 C14 C15 -55.0(2) . . . . ? 
C13 Si1 C17 C19 -61.9(2) . . . . ? 
C20 Si1 C17 C19 56.5(2) . . . . ? 
C14 Si1 C17 C19 -178.1(2) . . . . ? 
C13 Si1 C17 C18 170.27(18) . . . . ? 
C20 Si1 C17 C18 -71.3(2) . . . . ? 
C14 Si1 C17 C18 54.1(2) . . . . ? 
C13 Si1 C20 C22' -13.4(9) . . . . ? 
C17 Si1 C20 C22' -131.6(9) . . . . ? 
C14 Si1 C20 C22' 103.5(9) . . . . ? 
C13 Si1 C20 C22 51.4(3) . . . . ? 
C17 Si1 C20 C22 -66.8(3) . . . . ? 
C14 Si1 C20 C22 168.3(2) . . . . ? 
C13 Si1 C20 C21 -175.8(2) . . . . ? 
C17 Si1 C20 C21 66.0(2) . . . . ? 
C14 Si1 C20 C21 -58.9(2) . . . . ? 
 
_diffrn_measured_fraction_theta_max    0.973 
_diffrn_reflns_theta_full              68.69 
_diffrn_measured_fraction_theta_full   0.973 
_refine_diff_density_max    0.294 
_refine_diff_density_min   -0.302 
_refine_diff_density_rms    0.057 
