 
data_k11061 
 
_audit_creation_method            SHELXL-97 
_chemical_name_systematic 
; 
 ? 
; 
_chemical_name_common             ? 
_chemical_melting_point           ? 
_chemical_formula_moiety 
 'C42 H48 F6 S2 Si2' 
_chemical_formula_sum 
 'C42 H48 F6 S2 Si2' 
_chemical_formula_weight          787.10 
 
loop_ 
 _atom_type_symbol 
 _atom_type_description 
 _atom_type_scat_dispersion_real 
 _atom_type_scat_dispersion_imag 
 _atom_type_scat_source 
 'C'  'C'   0.0033   0.0016 
 'International Tables Vol C Tables 4.2.6.8 and 6.1.1.4' 
 'H'  'H'   0.0000   0.0000 
 'International Tables Vol C Tables 4.2.6.8 and 6.1.1.4' 
 'F'  'F'   0.0171   0.0103 
 'International Tables Vol C Tables 4.2.6.8 and 6.1.1.4' 
 'S'  'S'   0.1246   0.1234 
 'International Tables Vol C Tables 4.2.6.8 and 6.1.1.4' 
 'Si'  'Si'   0.0817   0.0704 
 'International Tables Vol C Tables 4.2.6.8 and 6.1.1.4' 
 
_symmetry_cell_setting            triclinic 
_symmetry_space_group_name_H-M    'P -1'
_symmetry_space_group_name_Hall   '-P 1'
 
loop_ 
 _symmetry_equiv_pos_as_xyz 
 'x, y, z' 
 '-x, -y, -z' 
 
_cell_length_a                    8.91240(10) 
_cell_length_b                    10.43340(10) 
_cell_length_c                    11.5640(2) 
_cell_angle_alpha                 109.7717(7) 
_cell_angle_beta                  94.7599(7) 
_cell_angle_gamma                 93.0208(7) 
_cell_volume                      1004.67(2) 
_cell_formula_units_Z             1 
_cell_measurement_temperature     90.0(2) 
_cell_measurement_reflns_used     4572 
_cell_measurement_theta_min       1.00 
_cell_measurement_theta_max       27.48 
 
_exptl_crystal_description        slab 
_exptl_crystal_colour             red
_exptl_crystal_size_max           0.28 
_exptl_crystal_size_mid           0.20 
_exptl_crystal_size_min           0.08 
_exptl_crystal_density_meas       ? 
_exptl_crystal_density_diffrn     1.301 
_exptl_crystal_density_method     'not measured' 
_exptl_crystal_F_000              414 
_exptl_absorpt_coefficient_mu     0.249 
_exptl_absorpt_correction_type    multi-scan 
_exptl_absorpt_correction_T_min   0.933 
_exptl_absorpt_correction_T_max   0.980 
_exptl_absorpt_process_details    'Scalepack (Otwinowski & Minor, 1997)' 
 
_exptl_special_details 
; 
 ? 
; 
 
_diffrn_ambient_temperature       90.0(2) 
_diffrn_radiation_wavelength      0.71073 
_diffrn_radiation_type            MoK\a 
_diffrn_radiation_source          'fine-focus sealed tube'    
_diffrn_radiation_monochromator   'graphite'                 
_diffrn_measurement_device_type   'Nonius KappaCCD diffractometer'  
_diffrn_measurement_method        '\w scans at fixed \c = 55\%'
_diffrn_detector_area_resol_mean  9.1
_diffrn_standards_number          0 
_diffrn_standards_interval_count  . 
_diffrn_standards_interval_time   . 
_diffrn_standards_decay_%         ? 
_diffrn_reflns_number             25461 
_diffrn_reflns_av_R_equivalents   0.0440 
_diffrn_reflns_av_sigmaI/netI     0.0400 
_diffrn_reflns_limit_h_min        -11 
_diffrn_reflns_limit_h_max        11 
_diffrn_reflns_limit_k_min        -13 
_diffrn_reflns_limit_k_max        13 
_diffrn_reflns_limit_l_min        -15 
_diffrn_reflns_limit_l_max        15 
_diffrn_reflns_theta_min          1.88 
_diffrn_reflns_theta_max          27.47 
_reflns_number_total              4596 
_reflns_number_gt                 3584 
_reflns_threshold_expression      >2\s(I)    
 
_computing_data_collection        'COLLECT (Nonius, 1998)'
_computing_cell_refinement        'SCALEPACK (Otwinowski & Minor, 1997)'
_computing_data_reduction         'DENZO-SMN (Otwinowski & Minor, 1997)'
_computing_structure_solution     'SHELXS-97 (Sheldrick, 2008)' 
_computing_structure_refinement   'SHELXL-97 (Sheldrick, 2008)' 
_computing_molecular_graphics     'XP in SHELXTL (Sheldrick, 2008)'
_computing_publication_material
; 
SHELX-97 (Sheldrick, 2008) and local procedures 
; 
 
_publ_section_exptl_refinement
;
H atoms were found in difference Fourier maps and subsequently placed 
in idealized positions with constrained distances of 0.98 \%A (RCH~3~),
1.00 \%A (R~3~CH), 0.95 \%A (C~sp2~H), and with U~iso~(H) values set to 
either 1.2U~eq~ or 1.5U~eq~ (RCH~3~) of the attached atom. 

To ensure satisfactory refinement of the disordered parts of the structure, 
a combination of constraints and restraints were needed.  The constraints 
(SHELXL97 commands EXYZ and EADP) were used to make the coordinates and/or 
displacement parameters of closely proximate atoms equal.  The restraints 
(SHELXL97 commands SAME, DELU) were used to ensure similar geometries and 
displacement parameters of closely proximate, chemically similar groups. 
;

_refine_special_details 
; 
Refinement of F^2^ against all reflections.  The weighted R-value wR and 
goodness of fit S are based on F^2^. Conventional R-values R are based 
on F, with F set to zero for negative F^2^.  The threshold expression of 
F^2^ > 2\s(F^2^) is used only for calculating R-factors(gt) etc. and is 
not relevant to the choice of reflections for refinement.  R-values based 
on F^2^ are statistically about twice as large as those based on F, and  
R-values based on ALL data will be even larger. 
; 
 
_refine_ls_structure_factor_coef  Fsqd  
_refine_ls_matrix_type            full 
_refine_ls_weighting_scheme       calc  
_refine_ls_weighting_details 
 'calc w=1/[\s^2^(Fo^2^)+(0.0484P)^2^+1.0180P] where P=(Fo^2^+2Fc^2^)/3' 
_atom_sites_solution_primary      direct 
_atom_sites_solution_secondary    difmap 
_atom_sites_solution_hydrogens    geom 
_refine_ls_hydrogen_treatment     constr 
_refine_ls_extinction_method      none 
_refine_ls_extinction_coef        ? 
_refine_ls_number_reflns          4596 
_refine_ls_number_parameters      263 
_refine_ls_number_restraints      66 
_refine_ls_R_factor_all           0.0701 
_refine_ls_R_factor_gt            0.0528 
_refine_ls_wR_factor_ref          0.1424 
_refine_ls_wR_factor_gt           0.1341 
_refine_ls_goodness_of_fit_ref    1.107 
_refine_ls_restrained_S_all       1.104 
_refine_ls_shift/su_max           0.000 
_refine_ls_shift/su_mean          0.000 
 
loop_ 
 _atom_site_label 
 _atom_site_type_symbol 
 _atom_site_fract_x 
 _atom_site_fract_y 
 _atom_site_fract_z 
 _atom_site_U_iso_or_equiv 
 _atom_site_adp_type 
 _atom_site_occupancy 
 _atom_site_symmetry_multiplicity 
 _atom_site_calc_flag 
 _atom_site_refinement_flags 
 _atom_site_disorder_assembly 
 _atom_site_disorder_group 
Si1 Si 0.34333(7) 0.88458(6) 0.24346(6) 0.02522(17) Uani 1 1 d . . . 
C1 C 0.4605(3) 0.5950(2) 0.4419(2) 0.0269(5) Uani 1 1 d . . . 
C2 C 0.3630(3) 0.5658(2) 0.5211(2) 0.0256(5) Uani 1 1 d . B . 
C3 C 0.2280(3) 0.6322(2) 0.5456(2) 0.0281(5) Uani 1 1 d . . . 
H3 H 0.1989 0.6934 0.5046 0.034 Uiso 1 1 calc R A 1 
C4 C 0.1403(3) 0.6075(2) 0.6289(2) 0.0273(5) Uani 0.752(2) 1 d PDU B 1 
S5 S -0.02468(11) 0.68687(9) 0.67495(9) 0.0300(3) Uani 0.752(2) 1 d PDU B 1 
C6 C -0.0376(10) 0.5982(8) 0.7788(9) 0.0295(10) Uani 0.752(2) 1 d PDU B 1 
C22 C -0.1554(5) 0.6287(4) 0.8659(4) 0.0343(8) Uani 0.752(2) 1 d PDU B 1 
F1 F -0.1445(3) 0.7605(2) 0.9383(2) 0.0448(6) Uani 0.752(2) 1 d PDU B 1 
F2 F -0.2959(5) 0.6020(6) 0.8111(4) 0.0419(9) Uani 0.752(2) 1 d PDU B 1 
F3 F -0.1444(3) 0.5548(3) 0.9411(2) 0.0519(6) Uani 0.752(2) 1 d PDU B 1 
C7 C 0.0730(9) 0.5146(7) 0.7770(7) 0.0301(8) Uani 0.752(2) 1 d PDU B 1 
H7 H 0.0799 0.4611 0.8290 0.036 Uiso 0.752(2) 1 calc PR B 1 
C8 C 0.1802(3) 0.5128(2) 0.6895(2) 0.0284(5) Uani 0.752(2) 1 d PDU B 1 
C4' C 0.1403(3) 0.6075(2) 0.6289(2) 0.0273(5) Uani 0.248(2) 1 d PDU B 2 
C5' C 0.0141(14) 0.6625(13) 0.6878(12) 0.0300(3) Uani 0.248(2) 1 d PDU B 2 
H5' H -0.0359 0.7299 0.6649 0.036 Uiso 0.248(2) 1 calc PR B 2 
F3' F -0.1480(10) 0.6288(9) 0.9528(8) 0.0519(6) Uani 0.248(2) 1 d PDU B 2 
F2' F -0.2922(19) 0.610(2) 0.7846(14) 0.0419(9) Uani 0.248(2) 1 d PDU B 2 
F1' F -0.1613(9) 0.7994(7) 0.8931(7) 0.0448(6) Uani 0.248(2) 1 d PDU B 2 
C22' C -0.1634(16) 0.6627(12) 0.8492(13) 0.0343(8) Uani 0.248(2) 1 d PDU B 2 
C6' C -0.035(3) 0.620(3) 0.775(3) 0.0295(10) Uani 0.248(2) 1 d PDU B 2 
S7' S 0.0649(7) 0.4898(5) 0.7992(5) 0.0301(8) Uani 0.248(2) 1 d PDU B 2 
C8' C 0.1802(3) 0.5128(2) 0.6895(2) 0.0284(5) Uani 0.248(2) 1 d PDU B 2 
C9 C 0.3073(3) 0.4448(2) 0.6647(2) 0.0296(5) Uani 1 1 d . . . 
H9 H 0.3318 0.3806 0.7037 0.036 Uiso 1 1 calc R B 1 
C10 C 0.4027(3) 0.4699(2) 0.5810(2) 0.0262(5) Uani 1 1 d . . . 
C11 C 0.4228(3) 0.6910(2) 0.3822(2) 0.0286(5) Uani 1 1 d . . . 
C12 C 0.3918(3) 0.7704(2) 0.3303(2) 0.0293(5) Uani 1 1 d . . . 
C13 C 0.2999(3) 0.7712(2) 0.0775(2) 0.0332(5) Uani 1 1 d . . . 
H13 H 0.2060 0.7122 0.0732 0.040 Uiso 1 1 calc R . . 
C14 C 0.4222(4) 0.6730(3) 0.0282(3) 0.0488(7) Uani 1 1 d . . . 
H14A H 0.3862 0.6100 -0.0550 0.073 Uiso 1 1 calc R . . 
H14B H 0.4428 0.6208 0.0832 0.073 Uiso 1 1 calc R . . 
H14C H 0.5150 0.7259 0.0253 0.073 Uiso 1 1 calc R . . 
C15 C 0.2628(4) 0.8524(3) -0.0081(2) 0.0438(7) Uani 1 1 d . . . 
H15A H 0.3516 0.9127 -0.0065 0.066 Uiso 1 1 calc R . . 
H15B H 0.1784 0.9074 0.0202 0.066 Uiso 1 1 calc R . . 
H15C H 0.2346 0.7890 -0.0926 0.066 Uiso 1 1 calc R . . 
C16 C 0.5041(3) 1.0218(3) 0.2788(2) 0.0376(6) Uani 1 1 d . . . 
H16 H 0.5263 1.0591 0.3708 0.045 Uiso 1 1 calc R . . 
C17 C 0.6496(3) 0.9674(3) 0.2284(3) 0.0496(7) Uani 1 1 d . . . 
H17A H 0.6365 0.9374 0.1379 0.074 Uiso 1 1 calc R . . 
H17B H 0.6735 0.8899 0.2543 0.074 Uiso 1 1 calc R . . 
H17C H 0.7324 1.0399 0.2605 0.074 Uiso 1 1 calc R . . 
C18 C 0.4595(4) 1.1431(3) 0.2391(3) 0.0466(7) Uani 1 1 d . . . 
H18A H 0.5465 1.2111 0.2581 0.070 Uiso 1 1 calc R . . 
H18B H 0.3759 1.1850 0.2839 0.070 Uiso 1 1 calc R . . 
H18C H 0.4280 1.1102 0.1500 0.070 Uiso 1 1 calc R . . 
C19 C 0.1699(3) 0.9664(3) 0.3038(2) 0.0393(6) Uani 1 1 d . . . 
H19 H 0.1413 1.0267 0.2556 0.047 Uiso 1 1 calc R . . 
C20 C 0.0353(3) 0.8583(4) 0.2824(3) 0.0565(9) Uani 1 1 d . . . 
H20A H 0.0625 0.7933 0.3236 0.085 Uiso 1 1 calc R . . 
H20B H 0.0108 0.8093 0.1936 0.085 Uiso 1 1 calc R . . 
H20C H -0.0527 0.9038 0.3166 0.085 Uiso 1 1 calc R . . 
C21 C 0.2004(4) 1.0576(3) 0.4405(3) 0.0501(8) Uani 1 1 d . . . 
H21A H 0.1083 1.1004 0.4682 0.075 Uiso 1 1 calc R . . 
H21B H 0.2815 1.1288 0.4501 0.075 Uiso 1 1 calc R . . 
H21C H 0.2308 1.0019 0.4902 0.075 Uiso 1 1 calc R . . 
 
loop_ 
 _atom_site_aniso_label 
 _atom_site_aniso_U_11 
 _atom_site_aniso_U_22 
 _atom_site_aniso_U_33 
 _atom_site_aniso_U_23 
 _atom_site_aniso_U_13 
 _atom_site_aniso_U_12 
Si1 0.0289(3) 0.0249(3) 0.0269(3) 0.0139(2) 0.0055(2) 0.0088(2) 
C1 0.0367(12) 0.0225(10) 0.0220(10) 0.0087(9) 0.0002(9) 0.0065(9) 
C2 0.0338(12) 0.0216(10) 0.0211(10) 0.0069(8) 0.0003(9) 0.0050(9) 
C3 0.0359(12) 0.0224(11) 0.0264(11) 0.0088(9) 0.0015(9) 0.0069(9) 
C4 0.0318(12) 0.0220(10) 0.0270(11) 0.0069(9) 0.0018(9) 0.0046(9) 
S5 0.0342(5) 0.0288(5) 0.0315(4) 0.0146(3) 0.0061(4) 0.0100(3) 
C6 0.0357(13) 0.024(3) 0.0305(14) 0.0113(17) 0.0058(10) 0.0036(19) 
C22 0.0379(15) 0.038(2) 0.0331(19) 0.0195(15) 0.0055(13) 0.0078(16) 
F1 0.0507(12) 0.0392(12) 0.0403(14) 0.0053(9) 0.0169(11) 0.0053(10) 
F2 0.0362(9) 0.0509(13) 0.039(2) 0.0138(16) 0.0099(13) 0.0043(8) 
F3 0.0573(12) 0.0628(18) 0.0577(13) 0.0431(15) 0.0235(10) 0.0213(14) 
C7 0.0392(11) 0.0229(19) 0.033(2) 0.0141(9) 0.0105(11) 0.0063(13) 
C8 0.0358(12) 0.0250(11) 0.0240(11) 0.0079(9) 0.0029(9) 0.0018(9) 
C4' 0.0318(12) 0.0220(10) 0.0270(11) 0.0069(9) 0.0018(9) 0.0046(9) 
C5' 0.0342(5) 0.0288(5) 0.0315(4) 0.0146(3) 0.0061(4) 0.0100(3) 
F3' 0.0573(12) 0.0628(18) 0.0577(13) 0.0431(15) 0.0235(10) 0.0213(14) 
F2' 0.0362(9) 0.0509(13) 0.039(2) 0.0138(16) 0.0099(13) 0.0043(8) 
F1' 0.0507(12) 0.0392(12) 0.0403(14) 0.0053(9) 0.0169(11) 0.0053(10) 
C22' 0.0379(15) 0.038(2) 0.0331(19) 0.0195(15) 0.0055(13) 0.0078(16) 
C6' 0.0357(13) 0.024(3) 0.0305(14) 0.0113(17) 0.0058(10) 0.0036(19) 
S7' 0.0392(11) 0.0229(19) 0.033(2) 0.0141(9) 0.0105(11) 0.0063(13) 
C8' 0.0358(12) 0.0250(11) 0.0240(11) 0.0079(9) 0.0029(9) 0.0018(9) 
C9 0.0402(13) 0.0257(11) 0.0251(11) 0.0112(9) 0.0040(10) 0.0054(10) 
C10 0.0353(12) 0.0217(10) 0.0216(10) 0.0073(8) 0.0010(9) 0.0055(9) 
C11 0.0333(12) 0.0294(12) 0.0243(11) 0.0095(9) 0.0049(9) 0.0089(10) 
C12 0.0323(12) 0.0303(12) 0.0293(12) 0.0136(10) 0.0072(9) 0.0090(10) 
C13 0.0407(14) 0.0297(12) 0.0307(12) 0.0116(10) 0.0053(10) 0.0072(10) 
C14 0.0637(19) 0.0448(16) 0.0348(14) 0.0051(12) 0.0126(13) 0.0230(14) 
C15 0.0630(19) 0.0369(14) 0.0302(13) 0.0129(11) -0.0047(12) -0.0024(13) 
C16 0.0446(15) 0.0365(14) 0.0334(13) 0.0161(11) -0.0014(11) 0.0005(11) 
C17 0.0365(15) 0.0596(19) 0.0609(19) 0.0324(16) 0.0037(13) -0.0006(13) 
C18 0.067(2) 0.0313(14) 0.0410(15) 0.0151(12) -0.0026(14) -0.0055(13) 
C19 0.0463(15) 0.0433(15) 0.0358(14) 0.0193(12) 0.0101(12) 0.0234(12) 
C20 0.0306(14) 0.087(2) 0.0536(18) 0.0237(18) 0.0105(13) 0.0157(15) 
C21 0.070(2) 0.0475(16) 0.0380(15) 0.0150(13) 0.0198(14) 0.0310(15) 
 
_geom_special_details 
; 
 All esds (except the esd in the dihedral angle between two l.s. planes) 
 are estimated using the full covariance matrix.  The cell esds are taken 
 into account individually in the estimation of esds in distances, angles 
 and torsion angles; correlations between esds in cell parameters are only 
 used when they are defined by crystal symmetry.  An approximate (isotropic) 
 treatment of cell esds is used for estimating esds involving l.s. planes. 
; 
 
loop_ 
 _geom_bond_atom_site_label_1 
 _geom_bond_atom_site_label_2 
 _geom_bond_distance 
 _geom_bond_site_symmetry_2 
 _geom_bond_publ_flag 
Si1 C12 1.845(2) . ? 
Si1 C19 1.876(3) . ? 
Si1 C13 1.877(2) . ? 
Si1 C16 1.887(3) . ? 
C1 C2 1.408(3) . ? 
C1 C10 1.426(3) 2_666 ? 
C1 C11 1.434(3) . ? 
C2 C3 1.421(3) . ? 
C2 C10 1.440(3) . ? 
C3 C4 1.369(3) . ? 
C3 H3 0.9500 . ? 
C4 C8 1.436(3) . ? 
C4 S5 1.758(2) . ? 
S5 C6 1.754(6) . ? 
C6 C7 1.346(9) . ? 
C6 C22 1.488(5) . ? 
C22 F2 1.326(5) . ? 
C22 F1 1.339(5) . ? 
C22 F3 1.344(4) . ? 
C7 C8 1.444(7) . ? 
C7 H7 0.9500 . ? 
C8 C9 1.367(3) . ? 
C5' C6' 1.325(17) . ? 
C5' H5' 0.9500 . ? 
F3' C22' 1.357(12) . ? 
F2' C22' 1.301(14) . ? 
F1' C22' 1.341(13) . ? 
C22' C6' 1.485(13) . ? 
C6' S7' 1.751(18) . ? 
C9 C10 1.419(3) . ? 
C9 H9 0.9500 . ? 
C10 C1 1.426(3) 2_666 ? 
C11 C12 1.207(3) . ? 
C13 C15 1.532(3) . ? 
C13 C14 1.545(4) . ? 
C13 H13 1.0000 . ? 
C14 H14A 0.9800 . ? 
C14 H14B 0.9800 . ? 
C14 H14C 0.9800 . ? 
C15 H15A 0.9800 . ? 
C15 H15B 0.9800 . ? 
C15 H15C 0.9800 . ? 
C16 C17 1.524(4) . ? 
C16 C18 1.545(4) . ? 
C16 H16 1.0000 . ? 
C17 H17A 0.9800 . ? 
C17 H17B 0.9800 . ? 
C17 H17C 0.9800 . ? 
C18 H18A 0.9800 . ? 
C18 H18B 0.9800 . ? 
C18 H18C 0.9800 . ? 
C19 C21 1.537(4) . ? 
C19 C20 1.547(4) . ? 
C19 H19 1.0000 . ? 
C20 H20A 0.9800 . ? 
C20 H20B 0.9800 . ? 
C20 H20C 0.9800 . ? 
C21 H21A 0.9800 . ? 
C21 H21B 0.9800 . ? 
C21 H21C 0.9800 . ? 
 
loop_ 
 _geom_angle_atom_site_label_1 
 _geom_angle_atom_site_label_2 
 _geom_angle_atom_site_label_3 
 _geom_angle 
 _geom_angle_site_symmetry_1 
 _geom_angle_site_symmetry_3 
 _geom_angle_publ_flag 
C12 Si1 C19 106.89(11) . . ? 
C12 Si1 C13 105.97(11) . . ? 
C19 Si1 C13 110.26(12) . . ? 
C12 Si1 C16 107.99(11) . . ? 
C19 Si1 C16 108.79(13) . . ? 
C13 Si1 C16 116.48(12) . . ? 
C2 C1 C10 121.1(2) . 2_666 ? 
C2 C1 C11 120.1(2) . . ? 
C10 C1 C11 118.9(2) 2_666 . ? 
C1 C2 C3 121.1(2) . . ? 
C1 C2 C10 119.5(2) . . ? 
C3 C2 C10 119.4(2) . . ? 
C4 C3 C2 119.6(2) . . ? 
C4 C3 H3 120.2 . . ? 
C2 C3 H3 120.2 . . ? 
C3 C4 C8 121.1(2) . . ? 
C3 C4 S5 125.35(18) . . ? 
C8 C4 S5 113.55(17) . . ? 
C6 S5 C4 89.24(18) . . ? 
C7 C6 C22 126.3(5) . . ? 
C7 C6 S5 114.0(3) . . ? 
C22 C6 S5 119.5(4) . . ? 
F2 C22 F1 105.6(4) . . ? 
F2 C22 F3 106.2(3) . . ? 
F1 C22 F3 107.0(3) . . ? 
F2 C22 C6 114.1(5) . . ? 
F1 C22 C6 112.4(4) . . ? 
F3 C22 C6 111.0(3) . . ? 
C6 C7 C8 114.7(4) . . ? 
C6 C7 H7 122.7 . . ? 
C8 C7 H7 122.7 . . ? 
C9 C8 C4 120.3(2) . . ? 
C9 C8 C7 131.0(3) . . ? 
C4 C8 C7 108.5(3) . . ? 
C6' C5' H5' 120.0 . . ? 
F2' C22' F1' 109.9(13) . . ? 
F2' C22' F3' 110.5(12) . . ? 
F1' C22' F3' 103.6(10) . . ? 
F2' C22' C6' 111.4(18) . . ? 
F1' C22' C6' 110.2(14) . . ? 
F3' C22' C6' 110.9(13) . . ? 
C5' C6' C22' 129.7(15) . . ? 
C5' C6' S7' 113.6(9) . . ? 
C22' C6' S7' 116.6(11) . . ? 
C8 C9 C10 120.2(2) . . ? 
C8 C9 H9 119.9 . . ? 
C10 C9 H9 119.9 . . ? 
C9 C10 C1 121.2(2) . 2_666 ? 
C9 C10 C2 119.3(2) . . ? 
C1 C10 C2 119.4(2) 2_666 . ? 
C12 C11 C1 179.0(2) . . ? 
C11 C12 Si1 177.1(2) . . ? 
C15 C13 C14 110.7(2) . . ? 
C15 C13 Si1 112.29(17) . . ? 
C14 C13 Si1 114.27(18) . . ? 
C15 C13 H13 106.3 . . ? 
C14 C13 H13 106.3 . . ? 
Si1 C13 H13 106.3 . . ? 
C13 C14 H14A 109.5 . . ? 
C13 C14 H14B 109.5 . . ? 
H14A C14 H14B 109.5 . . ? 
C13 C14 H14C 109.5 . . ? 
H14A C14 H14C 109.5 . . ? 
H14B C14 H14C 109.5 . . ? 
C13 C15 H15A 109.5 . . ? 
C13 C15 H15B 109.5 . . ? 
H15A C15 H15B 109.5 . . ? 
C13 C15 H15C 109.5 . . ? 
H15A C15 H15C 109.5 . . ? 
H15B C15 H15C 109.5 . . ? 
C17 C16 C18 111.7(2) . . ? 
C17 C16 Si1 113.32(19) . . ? 
C18 C16 Si1 112.31(19) . . ? 
C17 C16 H16 106.3 . . ? 
C18 C16 H16 106.3 . . ? 
Si1 C16 H16 106.3 . . ? 
C16 C17 H17A 109.5 . . ? 
C16 C17 H17B 109.5 . . ? 
H17A C17 H17B 109.5 . . ? 
C16 C17 H17C 109.5 . . ? 
H17A C17 H17C 109.5 . . ? 
H17B C17 H17C 109.5 . . ? 
C16 C18 H18A 109.5 . . ? 
C16 C18 H18B 109.5 . . ? 
H18A C18 H18B 109.5 . . ? 
C16 C18 H18C 109.5 . . ? 
H18A C18 H18C 109.5 . . ? 
H18B C18 H18C 109.5 . . ? 
C21 C19 C20 111.4(2) . . ? 
C21 C19 Si1 111.7(2) . . ? 
C20 C19 Si1 111.34(19) . . ? 
C21 C19 H19 107.4 . . ? 
C20 C19 H19 107.4 . . ? 
Si1 C19 H19 107.4 . . ? 
C19 C20 H20A 109.5 . . ? 
C19 C20 H20B 109.5 . . ? 
H20A C20 H20B 109.5 . . ? 
C19 C20 H20C 109.5 . . ? 
H20A C20 H20C 109.5 . . ? 
H20B C20 H20C 109.5 . . ? 
C19 C21 H21A 109.5 . . ? 
C19 C21 H21B 109.5 . . ? 
H21A C21 H21B 109.5 . . ? 
C19 C21 H21C 109.5 . . ? 
H21A C21 H21C 109.5 . . ? 
H21B C21 H21C 109.5 . . ? 
 
loop_ 
 _geom_torsion_atom_site_label_1 
 _geom_torsion_atom_site_label_2 
 _geom_torsion_atom_site_label_3 
 _geom_torsion_atom_site_label_4 
 _geom_torsion 
 _geom_torsion_site_symmetry_1 
 _geom_torsion_site_symmetry_2 
 _geom_torsion_site_symmetry_3 
 _geom_torsion_site_symmetry_4 
 _geom_torsion_publ_flag 
C10 C1 C2 C3 178.9(2) 2_666 . . . ? 
C11 C1 C2 C3 -1.4(3) . . . . ? 
C10 C1 C2 C10 0.7(4) 2_666 . . . ? 
C11 C1 C2 C10 -179.6(2) . . . . ? 
C1 C2 C3 C4 -176.1(2) . . . . ? 
C10 C2 C3 C4 2.1(3) . . . . ? 
C2 C3 C4 C8 -1.6(3) . . . . ? 
C2 C3 C4 S5 176.91(17) . . . . ? 
C3 C4 S5 C6 -176.9(4) . . . . ? 
C8 C4 S5 C6 1.8(4) . . . . ? 
C4 S5 C6 C7 -0.7(8) . . . . ? 
C4 S5 C6 C22 174.0(7) . . . . ? 
C7 C6 C22 F2 -123.6(11) . . . . ? 
S5 C6 C22 F2 62.4(8) . . . . ? 
C7 C6 C22 F1 116.1(10) . . . . ? 
S5 C6 C22 F1 -57.9(9) . . . . ? 
C7 C6 C22 F3 -3.7(12) . . . . ? 
S5 C6 C22 F3 -177.7(6) . . . . ? 
C22 C6 C7 C8 -174.8(8) . . . . ? 
S5 C6 C7 C8 -0.5(11) . . . . ? 
C3 C4 C8 C9 -0.2(3) . . . . ? 
S5 C4 C8 C9 -178.89(18) . . . . ? 
C3 C4 C8 C7 176.4(4) . . . . ? 
S5 C4 C8 C7 -2.3(4) . . . . ? 
C6 C7 C8 C9 177.9(6) . . . . ? 
C6 C7 C8 C4 1.8(9) . . . . ? 
F2' C22' C6' C5' 76(4) . . . . ? 
F1' C22' C6' C5' -47(4) . . . . ? 
F3' C22' C6' C5' -161(3) . . . . ? 
F2' C22' C6' S7' -101(3) . . . . ? 
F1' C22' C6' S7' 136(2) . . . . ? 
F3' C22' C6' S7' 22(3) . . . . ? 
C4 C8 C9 C10 1.5(3) . . . . ? 
C7 C8 C9 C10 -174.2(5) . . . . ? 
C8 C9 C10 C1 177.1(2) . . . 2_666 ? 
C8 C9 C10 C2 -1.0(3) . . . . ? 
C1 C2 C10 C9 177.4(2) . . . . ? 
C3 C2 C10 C9 -0.8(3) . . . . ? 
C1 C2 C10 C1 -0.7(4) . . . 2_666 ? 
C3 C2 C10 C1 -178.9(2) . . . 2_666 ? 
C12 Si1 C13 C15 -177.89(19) . . . . ? 
C19 Si1 C13 C15 66.8(2) . . . . ? 
C16 Si1 C13 C15 -57.8(2) . . . . ? 
C12 Si1 C13 C14 -50.7(2) . . . . ? 
C19 Si1 C13 C14 -166.1(2) . . . . ? 
C16 Si1 C13 C14 69.4(2) . . . . ? 
C12 Si1 C16 C17 67.0(2) . . . . ? 
C19 Si1 C16 C17 -177.34(19) . . . . ? 
C13 Si1 C16 C17 -52.0(2) . . . . ? 
C12 Si1 C16 C18 -165.21(19) . . . . ? 
C19 Si1 C16 C18 -49.5(2) . . . . ? 
C13 Si1 C16 C18 75.8(2) . . . . ? 
C12 Si1 C19 C21 64.0(2) . . . . ? 
C13 Si1 C19 C21 178.73(19) . . . . ? 
C16 Si1 C19 C21 -52.4(2) . . . . ? 
C12 Si1 C19 C20 -61.3(2) . . . . ? 
C13 Si1 C19 C20 53.5(2) . . . . ? 
C16 Si1 C19 C20 -177.65(19) . . . . ? 
 
_diffrn_measured_fraction_theta_max    0.998 
_diffrn_reflns_theta_full              27.47 
_diffrn_measured_fraction_theta_full   0.998 
_refine_diff_density_max    0.525 
_refine_diff_density_min   -0.393 
_refine_diff_density_rms    0.059 
