 
data_x08183 
 
_audit_creation_method            SHELXL-97 
_chemical_name_systematic 
; 
 ? 
; 
_chemical_name_common             ? 
_chemical_melting_point           ? 
_chemical_formula_moiety 
 'C50 H58 F8 Si2' 
_chemical_formula_sum 
 'C50 H58 F8 Si2' 
_chemical_formula_weight          867.14 
 
loop_ 
 _atom_type_symbol 
 _atom_type_description 
 _atom_type_scat_dispersion_real 
 _atom_type_scat_dispersion_imag 
 _atom_type_scat_source 
 'C'  'C'   0.0181   0.0091 
 'International Tables Vol C Tables 4.2.6.8 and 6.1.1.4' 
 'H'  'H'   0.0000   0.0000 
 'International Tables Vol C Tables 4.2.6.8 and 6.1.1.4' 
 'F'  'F'   0.0727   0.0534 
 'International Tables Vol C Tables 4.2.6.8 and 6.1.1.4' 
 'Si'  'Si'   0.2541   0.3302 
 'International Tables Vol C Tables 4.2.6.8 and 6.1.1.4' 
 
_symmetry_cell_setting            triclinic
_symmetry_space_group_name_H-M    'P -1'
_symmetry_space_group_name_Hall   '-P 1'
 
loop_ 
 _symmetry_equiv_pos_as_xyz 
 'x, y, z' 
 '-x, -y, -z' 
 
_cell_length_a                    7.4944(4) 
_cell_length_b                    8.3059(4) 
_cell_length_c                    18.6255(9) 
_cell_angle_alpha                 90.933(2) 
_cell_angle_beta                  97.236(2) 
_cell_angle_gamma                 101.834(2) 
_cell_volume                      1124.66(10) 
_cell_formula_units_Z             1 
_cell_measurement_temperature     90.0(2) 
_cell_measurement_reflns_used     8867
_cell_measurement_theta_min       2.39
_cell_measurement_theta_max       68.42
 
_exptl_crystal_description        flake
_exptl_crystal_colour             purple
_exptl_crystal_size_max           0.35 
_exptl_crystal_size_mid           0.17 
_exptl_crystal_size_min           0.01 
_exptl_crystal_density_meas       ? 
_exptl_crystal_density_diffrn     1.280 
_exptl_crystal_density_method     'not measured' 
_exptl_crystal_F_000              458 
_exptl_absorpt_coefficient_mu     1.285 
_exptl_absorpt_correction_type    multi-scan 
_exptl_absorpt_correction_T_min   0.637
_exptl_absorpt_correction_T_max   0.987 
_exptl_absorpt_process_details    'Sadabs in APEX2 (BrukerAXS, 2006)' 
 
_exptl_special_details 
; 
 ? 
; 
 
_diffrn_ambient_temperature       90.0(2) 
_diffrn_radiation_wavelength      1.54178 
_diffrn_radiation_type            CuK\a 
_diffrn_radiation_source          'fine-focus rotating anode' 
_diffrn_radiation_monochromator   'graded multilayer optics' 
_diffrn_measurement_device_type   'Bruker X8 Proteum diffractometer'
_diffrn_measurement_method        '\f and \w scans'            
_diffrn_detector_area_resol_mean  18
_diffrn_standards_number          0 
_diffrn_standards_interval_count  . 
_diffrn_standards_interval_time   . 
_diffrn_standards_decay_%         ? 
_diffrn_reflns_number             14691 
_diffrn_reflns_av_R_equivalents   0.0485 
_diffrn_reflns_av_sigmaI/netI     0.0407 
_diffrn_reflns_limit_h_min        -8 
_diffrn_reflns_limit_h_max        8 
_diffrn_reflns_limit_k_min        -7 
_diffrn_reflns_limit_k_max        9 
_diffrn_reflns_limit_l_min        -22 
_diffrn_reflns_limit_l_max        22 
_diffrn_reflns_theta_min          2.39 
_diffrn_reflns_theta_max          68.42 
_reflns_number_total              3966 
_reflns_number_gt                 3437 
_reflns_threshold_expression      >2\s(I)    
 
_computing_data_collection        'APEX2 (Bruker-AXS, 2006)'            
_computing_cell_refinement        'APEX2 (Bruker-AXS, 2006)'            
_computing_data_reduction         'APEX2 (Bruker-AXS, 2006)'            
_computing_structure_solution     'SHELXS-97 (Sheldrick, 2008)' 
_computing_structure_refinement   'SHELXL-97 (Sheldrick, 2008)' 
_computing_molecular_graphics     'XP in SHELXTL (Sheldrick, 2008)'
_computing_publication_material
; 
SHELX97-2 (Sheldrick, 2008) and local procedures 
; 

_publ_section_exptl_refinement
;
H atoms were found in difference Fourier maps and subsequently placed in
idealized positions with constrained distances of 
0.98 \%A (RCH~3~),
0.99 \%A (R~2~CH~2~),
0.95 \%A (C~Ar~H),
and with U~iso~(H) values set to either 1.2U~eq~ or 1.5U~eq~ (RCH~3~) 
of the attached atom. 
;

 
_refine_special_details 
; 
 Refinement of F^2^ against ALL reflections.  The weighted R-factor wR and 
 goodness of fit S are based on F^2^, conventional R-factors R are based 
 on F, with F set to zero for negative F^2^. The threshold expression of 
 F^2^ > 2\s(F^2^) is used only for calculating R-factors(gt) etc. and is 
 not relevant to the choice of reflections for refinement.  R-factors based 
 on F^2^ are statistically about twice as large as those based on F, and R- 
 factors based on ALL data will be even larger. 
; 
 
_refine_ls_structure_factor_coef  Fsqd  
_refine_ls_matrix_type            full 
_refine_ls_weighting_scheme       calc  
_refine_ls_weighting_details 
 'calc w=1/[\s^2^(Fo^2^)+(0.0602P)^2^+0.8958P] where P=(Fo^2^+2Fc^2^)/3' 
_atom_sites_solution_primary      direct 
_atom_sites_solution_secondary    difmap 
_atom_sites_solution_hydrogens    geom 
_refine_ls_hydrogen_treatment     constr 
_refine_ls_extinction_method      none 
_refine_ls_extinction_coef        ? 
_refine_ls_number_reflns          3966 
_refine_ls_number_parameters      274 
_refine_ls_number_restraints      0 
_refine_ls_R_factor_all           0.0556 
_refine_ls_R_factor_gt            0.0473 
_refine_ls_wR_factor_ref          0.1299 
_refine_ls_wR_factor_gt           0.1224 
_refine_ls_goodness_of_fit_ref    1.072 
_refine_ls_restrained_S_all       1.072 
_refine_ls_shift/su_max           0.000 
_refine_ls_shift/su_mean          0.000 
 
loop_ 
 _atom_site_label 
 _atom_site_type_symbol 
 _atom_site_fract_x 
 _atom_site_fract_y 
 _atom_site_fract_z 
 _atom_site_U_iso_or_equiv 
 _atom_site_adp_type 
 _atom_site_occupancy 
 _atom_site_symmetry_multiplicity 
 _atom_site_calc_flag 
 _atom_site_refinement_flags 
 _atom_site_disorder_assembly 
 _atom_site_disorder_group 
Si1 Si 0.69705(7) 0.26275(6) 0.78839(3) 0.01858(16) Uani 1 1 d . . . 
F1 F 1.02643(17) 0.92225(15) 0.69801(6) 0.0264(3) Uani 1 1 d . . . 
F2 F 1.12997(18) 1.24533(15) 0.67169(7) 0.0318(3) Uani 1 1 d . . . 
F3 F 0.99446(18) 1.36875(15) 0.54958(7) 0.0300(3) Uani 1 1 d . . . 
F4 F 0.74813(17) 1.17142(15) 0.44879(6) 0.0259(3) Uani 1 1 d . . . 
C1 C 0.5647(3) 0.4382(2) 0.56669(11) 0.0190(4) Uani 1 1 d . . . 
C2 C 0.6315(3) 0.6041(2) 0.55157(10) 0.0184(4) Uani 1 1 d . . . 
C3 C 0.7626(3) 0.7097(3) 0.60107(11) 0.0199(4) Uani 1 1 d . . . 
H3 H 0.8110 0.6673 0.6447 0.024 Uiso 1 1 calc R . . 
C4 C 0.8223(3) 0.8731(3) 0.58772(11) 0.0196(4) Uani 1 1 d . . . 
C5 C 0.9540(3) 0.9830(3) 0.63702(11) 0.0220(4) Uani 1 1 d . . . 
C6 C 1.0073(3) 1.1432(3) 0.62479(11) 0.0243(5) Uani 1 1 d . . . 
C7 C 0.9341(3) 1.2091(3) 0.55999(11) 0.0236(5) Uani 1 1 d . . . 
C8 C 0.8126(3) 1.1093(3) 0.51055(11) 0.0221(4) Uani 1 1 d . . . 
C9 C 0.7496(3) 0.9393(2) 0.52170(11) 0.0190(4) Uani 1 1 d . . . 
C10 C 0.6257(3) 0.8354(2) 0.47143(11) 0.0194(4) Uani 1 1 d . . . 
H10 H 0.5815 0.8779 0.4272 0.023 Uiso 1 1 calc R . . 
C11 C 0.5635(3) 0.6683(2) 0.48428(10) 0.0186(4) Uani 1 1 d . . . 
C12 C 0.6228(3) 0.3775(2) 0.63545(11) 0.0195(4) Uani 1 1 d . . . 
C13 C 0.6617(3) 0.3294(2) 0.69463(11) 0.0206(4) Uani 1 1 d . . . 
C14 C 0.6895(3) 0.0364(3) 0.78696(11) 0.0227(4) Uani 1 1 d . . . 
H14A H 0.8029 0.0164 0.7695 0.027 Uiso 1 1 calc R . . 
H14B H 0.6900 -0.0008 0.8372 0.027 Uiso 1 1 calc R . . 
C15 C 0.5232(3) -0.0685(3) 0.73961(11) 0.0248(5) Uani 1 1 d . . . 
H15A H 0.4105 -0.0329 0.7499 0.030 Uiso 1 1 calc R . . 
H15B H 0.5363 -0.0495 0.6880 0.030 Uiso 1 1 calc R . . 
C16 C 0.5016(3) -0.2516(3) 0.75209(12) 0.0251(5) Uani 1 1 d . . . 
H16A H 0.4896 -0.2703 0.8038 0.030 Uiso 1 1 calc R . . 
H16B H 0.6141 -0.2872 0.7415 0.030 Uiso 1 1 calc R . . 
C17 C 0.3357(3) -0.3572(3) 0.70566(13) 0.0302(5) Uani 1 1 d . . . 
H17A H 0.2240 -0.3205 0.7146 0.045 Uiso 1 1 calc R . . 
H17B H 0.3252 -0.4727 0.7181 0.045 Uiso 1 1 calc R . . 
H17C H 0.3512 -0.3464 0.6544 0.045 Uiso 1 1 calc R . . 
C18 C 0.5030(3) 0.3078(2) 0.83420(11) 0.0206(4) Uani 1 1 d . . . 
H18A H 0.5012 0.4262 0.8306 0.025 Uiso 1 1 calc R . . 
H18B H 0.3855 0.2444 0.8083 0.025 Uiso 1 1 calc R . . 
C19 C 0.5160(3) 0.2654(3) 0.91394(11) 0.0235(4) Uani 1 1 d . . . 
H19A H 0.5317 0.1503 0.9180 0.028 Uiso 1 1 calc R . . 
H19B H 0.6265 0.3376 0.9409 0.028 Uiso 1 1 calc R . . 
C20 C 0.3483(3) 0.2844(3) 0.94893(11) 0.0262(5) Uani 1 1 d . . . 
H20A H 0.3368 0.4009 0.9475 0.031 Uiso 1 1 calc R . . 
H20B H 0.2369 0.2171 0.9204 0.031 Uiso 1 1 calc R . . 
C21 C 0.3573(4) 0.2328(3) 1.02667(12) 0.0355(6) Uani 1 1 d . . . 
H21A H 0.3673 0.1171 1.0285 0.053 Uiso 1 1 calc R . . 
H21B H 0.2454 0.2464 1.0461 0.053 Uiso 1 1 calc R . . 
H21C H 0.4649 0.3016 1.0557 0.053 Uiso 1 1 calc R . . 
C22 C 0.9220(3) 0.3813(3) 0.83504(11) 0.0237(4) Uani 1 1 d . . . 
H22A H 0.9390 0.3451 0.8854 0.028 Uiso 1 1 calc R . . 
H22B H 1.0218 0.3535 0.8102 0.028 Uiso 1 1 calc R . . 
C23 C 0.9417(3) 0.5679(3) 0.83732(12) 0.0254(5) Uani 1 1 d . . . 
H23A H 0.9439 0.6069 0.7874 0.030 Uiso 1 1 calc R . . 
H23B H 0.8329 0.5955 0.8558 0.030 Uiso 1 1 calc R . . 
C24 C 1.1148(3) 0.6581(3) 0.88482(13) 0.0301(5) Uani 1 1 d . . . 
H24A H 1.1088 0.6236 0.9352 0.036 Uiso 1 1 calc R . . 
H24B H 1.2228 0.6247 0.8682 0.036 Uiso 1 1 calc R . . 
C25 C 1.1428(4) 0.8441(3) 0.88436(15) 0.0381(6) Uani 1 1 d . . . 
H25A H 1.1574 0.8803 0.8352 0.057 Uiso 1 1 calc R . . 
H25B H 1.2535 0.8938 0.9175 0.057 Uiso 1 1 calc R . . 
H25C H 1.0358 0.8784 0.9001 0.057 Uiso 1 1 calc R . . 
 
loop_ 
 _atom_site_aniso_label 
 _atom_site_aniso_U_11 
 _atom_site_aniso_U_22 
 _atom_site_aniso_U_33 
 _atom_site_aniso_U_23 
 _atom_site_aniso_U_13 
 _atom_site_aniso_U_12 
Si1 0.0203(3) 0.0164(3) 0.0195(3) 0.00562(19) 0.0046(2) 0.0033(2) 
F1 0.0293(7) 0.0242(7) 0.0249(6) 0.0046(5) 0.0006(5) 0.0057(5) 
F2 0.0333(8) 0.0229(7) 0.0348(7) -0.0002(5) 0.0006(5) -0.0020(5) 
F3 0.0335(7) 0.0168(6) 0.0385(7) 0.0067(5) 0.0081(5) -0.0001(5) 
F4 0.0300(7) 0.0214(6) 0.0277(6) 0.0106(5) 0.0064(5) 0.0065(5) 
C1 0.0202(10) 0.0199(10) 0.0199(9) 0.0050(7) 0.0080(7) 0.0072(8) 
C2 0.0202(10) 0.0195(10) 0.0190(10) 0.0045(7) 0.0083(7) 0.0081(8) 
C3 0.0225(11) 0.0201(10) 0.0204(10) 0.0053(8) 0.0065(8) 0.0092(8) 
C4 0.0206(10) 0.0199(10) 0.0220(10) 0.0037(8) 0.0095(8) 0.0084(8) 
C5 0.0229(11) 0.0228(11) 0.0227(10) 0.0050(8) 0.0067(8) 0.0078(8) 
C6 0.0231(11) 0.0218(11) 0.0283(11) 0.0009(8) 0.0073(8) 0.0032(9) 
C7 0.0239(11) 0.0177(10) 0.0310(11) 0.0055(8) 0.0107(8) 0.0039(9) 
C8 0.0214(11) 0.0230(11) 0.0251(10) 0.0074(8) 0.0092(8) 0.0080(8) 
C9 0.0196(10) 0.0181(10) 0.0229(10) 0.0056(8) 0.0102(8) 0.0074(8) 
C10 0.0200(10) 0.0201(11) 0.0218(10) 0.0070(8) 0.0079(8) 0.0089(8) 
C11 0.0190(10) 0.0193(10) 0.0209(10) 0.0053(8) 0.0090(7) 0.0076(8) 
C12 0.0204(11) 0.0150(10) 0.0236(10) 0.0034(8) 0.0057(8) 0.0029(8) 
C13 0.0202(10) 0.0168(10) 0.0251(11) 0.0037(8) 0.0065(8) 0.0022(8) 
C14 0.0261(11) 0.0197(10) 0.0239(10) 0.0070(8) 0.0062(8) 0.0064(8) 
C15 0.0272(12) 0.0202(11) 0.0279(11) 0.0057(8) 0.0060(8) 0.0052(9) 
C16 0.0326(12) 0.0186(11) 0.0268(11) 0.0065(8) 0.0093(9) 0.0076(9) 
C17 0.0380(13) 0.0180(11) 0.0349(12) 0.0040(9) 0.0066(10) 0.0051(9) 
C18 0.0223(11) 0.0161(10) 0.0247(10) 0.0046(8) 0.0050(8) 0.0051(8) 
C19 0.0246(11) 0.0228(11) 0.0236(10) 0.0053(8) 0.0050(8) 0.0049(9) 
C20 0.0278(12) 0.0233(11) 0.0293(11) 0.0040(8) 0.0096(9) 0.0059(9) 
C21 0.0379(14) 0.0415(14) 0.0290(12) 0.0064(10) 0.0139(10) 0.0067(11) 
C22 0.0225(11) 0.0237(11) 0.0249(10) 0.0058(8) 0.0044(8) 0.0036(8) 
C23 0.0224(11) 0.0237(11) 0.0302(11) 0.0041(9) 0.0053(8) 0.0038(9) 
C24 0.0244(12) 0.0281(12) 0.0355(12) 0.0041(9) 0.0024(9) 0.0009(9) 
C25 0.0309(14) 0.0298(13) 0.0489(15) -0.0003(11) 0.0021(11) -0.0023(10) 
 
_geom_special_details 
; 
 All esds (except the esd in the dihedral angle between two l.s. planes) 
 are estimated using the full covariance matrix.  The cell esds are taken 
 into account individually in the estimation of esds in distances, angles 
 and torsion angles; correlations between esds in cell parameters are only 
 used when they are defined by crystal symmetry.  An approximate (isotropic) 
 treatment of cell esds is used for estimating esds involving l.s. planes. 
; 
 
loop_ 
 _geom_bond_atom_site_label_1 
 _geom_bond_atom_site_label_2 
 _geom_bond_distance 
 _geom_bond_site_symmetry_2 
 _geom_bond_publ_flag 
Si1 C13 1.844(2) . ? 
Si1 C22 1.868(2) . ? 
Si1 C14 1.869(2) . ? 
Si1 C18 1.873(2) . ? 
F1 C5 1.347(2) . ? 
F2 C6 1.335(3) . ? 
F3 C7 1.336(2) . ? 
F4 C8 1.343(2) . ? 
C1 C2 1.412(3) . ? 
C1 C11 1.415(3) 2_666 ? 
C1 C12 1.434(3) . ? 
C2 C3 1.406(3) . ? 
C2 C11 1.445(3) . ? 
C3 C4 1.376(3) . ? 
C3 H3 0.9500 . ? 
C4 C5 1.423(3) . ? 
C4 C9 1.445(3) . ? 
C5 C6 1.341(3) . ? 
C6 C7 1.427(3) . ? 
C7 C8 1.348(3) . ? 
C8 C9 1.422(3) . ? 
C9 C10 1.382(3) . ? 
C10 C11 1.405(3) . ? 
C10 H10 0.9500 . ? 
C11 C1 1.415(3) 2_666 ? 
C12 C13 1.200(3) . ? 
C14 C15 1.531(3) . ? 
C14 H14A 0.9900 . ? 
C14 H14B 0.9900 . ? 
C15 C16 1.521(3) . ? 
C15 H15A 0.9900 . ? 
C15 H15B 0.9900 . ? 
C16 C17 1.523(3) . ? 
C16 H16A 0.9900 . ? 
C16 H16B 0.9900 . ? 
C17 H17A 0.9800 . ? 
C17 H17B 0.9800 . ? 
C17 H17C 0.9800 . ? 
C18 C19 1.528(3) . ? 
C18 H18A 0.9900 . ? 
C18 H18B 0.9900 . ? 
C19 C20 1.521(3) . ? 
C19 H19A 0.9900 . ? 
C19 H19B 0.9900 . ? 
C20 C21 1.514(3) . ? 
C20 H20A 0.9900 . ? 
C20 H20B 0.9900 . ? 
C21 H21A 0.9800 . ? 
C21 H21B 0.9800 . ? 
C21 H21C 0.9800 . ? 
C22 C23 1.526(3) . ? 
C22 H22A 0.9900 . ? 
C22 H22B 0.9900 . ? 
C23 C24 1.522(3) . ? 
C23 H23A 0.9900 . ? 
C23 H23B 0.9900 . ? 
C24 C25 1.516(3) . ? 
C24 H24A 0.9900 . ? 
C24 H24B 0.9900 . ? 
C25 H25A 0.9800 . ? 
C25 H25B 0.9800 . ? 
C25 H25C 0.9800 . ? 
 
loop_ 
 _geom_angle_atom_site_label_1 
 _geom_angle_atom_site_label_2 
 _geom_angle_atom_site_label_3 
 _geom_angle 
 _geom_angle_site_symmetry_1 
 _geom_angle_site_symmetry_3 
 _geom_angle_publ_flag 
C13 Si1 C22 109.27(9) . . ? 
C13 Si1 C14 109.34(9) . . ? 
C22 Si1 C14 111.31(10) . . ? 
C13 Si1 C18 106.85(9) . . ? 
C22 Si1 C18 110.39(10) . . ? 
C14 Si1 C18 109.58(9) . . ? 
C2 C1 C11 120.96(18) . 2_666 ? 
C2 C1 C12 119.77(18) . . ? 
C11 C1 C12 119.24(18) 2_666 . ? 
C3 C2 C1 121.38(18) . . ? 
C3 C2 C11 118.83(19) . . ? 
C1 C2 C11 119.80(19) . . ? 
C4 C3 C2 121.44(18) . . ? 
C4 C3 H3 119.3 . . ? 
C2 C3 H3 119.3 . . ? 
C3 C4 C5 122.63(19) . . ? 
C3 C4 C9 119.89(19) . . ? 
C5 C4 C9 117.47(18) . . ? 
C6 C5 F1 119.45(19) . . ? 
C6 C5 C4 122.36(19) . . ? 
F1 C5 C4 118.20(18) . . ? 
F2 C6 C5 121.81(19) . . ? 
F2 C6 C7 117.97(18) . . ? 
C5 C6 C7 120.2(2) . . ? 
F3 C7 C8 122.21(19) . . ? 
F3 C7 C6 117.95(19) . . ? 
C8 C7 C6 119.79(19) . . ? 
F4 C8 C7 119.44(18) . . ? 
F4 C8 C9 118.55(18) . . ? 
C7 C8 C9 122.00(19) . . ? 
C10 C9 C8 122.66(18) . . ? 
C10 C9 C4 119.20(18) . . ? 
C8 C9 C4 118.12(19) . . ? 
C9 C10 C11 121.51(18) . . ? 
C9 C10 H10 119.2 . . ? 
C11 C10 H10 119.2 . . ? 
C10 C11 C1 121.74(18) . 2_666 ? 
C10 C11 C2 119.05(19) . . ? 
C1 C11 C2 119.20(19) 2_666 . ? 
C13 C12 C1 175.7(2) . . ? 
C12 C13 Si1 173.28(19) . . ? 
C15 C14 Si1 114.88(14) . . ? 
C15 C14 H14A 108.5 . . ? 
Si1 C14 H14A 108.5 . . ? 
C15 C14 H14B 108.5 . . ? 
Si1 C14 H14B 108.5 . . ? 
H14A C14 H14B 107.5 . . ? 
C16 C15 C14 112.86(18) . . ? 
C16 C15 H15A 109.0 . . ? 
C14 C15 H15A 109.0 . . ? 
C16 C15 H15B 109.0 . . ? 
C14 C15 H15B 109.0 . . ? 
H15A C15 H15B 107.8 . . ? 
C15 C16 C17 113.34(18) . . ? 
C15 C16 H16A 108.9 . . ? 
C17 C16 H16A 108.9 . . ? 
C15 C16 H16B 108.9 . . ? 
C17 C16 H16B 108.9 . . ? 
H16A C16 H16B 107.7 . . ? 
C16 C17 H17A 109.5 . . ? 
C16 C17 H17B 109.5 . . ? 
H17A C17 H17B 109.5 . . ? 
C16 C17 H17C 109.5 . . ? 
H17A C17 H17C 109.5 . . ? 
H17B C17 H17C 109.5 . . ? 
C19 C18 Si1 113.46(14) . . ? 
C19 C18 H18A 108.9 . . ? 
Si1 C18 H18A 108.9 . . ? 
C19 C18 H18B 108.9 . . ? 
Si1 C18 H18B 108.9 . . ? 
H18A C18 H18B 107.7 . . ? 
C20 C19 C18 113.42(17) . . ? 
C20 C19 H19A 108.9 . . ? 
C18 C19 H19A 108.9 . . ? 
C20 C19 H19B 108.9 . . ? 
C18 C19 H19B 108.9 . . ? 
H19A C19 H19B 107.7 . . ? 
C21 C20 C19 113.13(19) . . ? 
C21 C20 H20A 109.0 . . ? 
C19 C20 H20A 109.0 . . ? 
C21 C20 H20B 109.0 . . ? 
C19 C20 H20B 109.0 . . ? 
H20A C20 H20B 107.8 . . ? 
C20 C21 H21A 109.5 . . ? 
C20 C21 H21B 109.5 . . ? 
H21A C21 H21B 109.5 . . ? 
C20 C21 H21C 109.5 . . ? 
H21A C21 H21C 109.5 . . ? 
H21B C21 H21C 109.5 . . ? 
C23 C22 Si1 114.87(15) . . ? 
C23 C22 H22A 108.5 . . ? 
Si1 C22 H22A 108.5 . . ? 
C23 C22 H22B 108.5 . . ? 
Si1 C22 H22B 108.5 . . ? 
H22A C22 H22B 107.5 . . ? 
C24 C23 C22 113.06(18) . . ? 
C24 C23 H23A 109.0 . . ? 
C22 C23 H23A 109.0 . . ? 
C24 C23 H23B 109.0 . . ? 
C22 C23 H23B 109.0 . . ? 
H23A C23 H23B 107.8 . . ? 
C25 C24 C23 113.91(19) . . ? 
C25 C24 H24A 108.8 . . ? 
C23 C24 H24A 108.8 . . ? 
C25 C24 H24B 108.8 . . ? 
C23 C24 H24B 108.8 . . ? 
H24A C24 H24B 107.7 . . ? 
C24 C25 H25A 109.5 . . ? 
C24 C25 H25B 109.5 . . ? 
H25A C25 H25B 109.5 . . ? 
C24 C25 H25C 109.5 . . ? 
H25A C25 H25C 109.5 . . ? 
H25B C25 H25C 109.5 . . ? 
 
loop_ 
 _geom_torsion_atom_site_label_1 
 _geom_torsion_atom_site_label_2 
 _geom_torsion_atom_site_label_3 
 _geom_torsion_atom_site_label_4 
 _geom_torsion 
 _geom_torsion_site_symmetry_1 
 _geom_torsion_site_symmetry_2 
 _geom_torsion_site_symmetry_3 
 _geom_torsion_site_symmetry_4 
 _geom_torsion_publ_flag 
C11 C1 C2 C3 -178.27(17) 2_666 . . . ? 
C12 C1 C2 C3 3.6(3) . . . . ? 
C11 C1 C2 C11 2.3(3) 2_666 . . . ? 
C12 C1 C2 C11 -175.83(17) . . . . ? 
C1 C2 C3 C4 -177.33(18) . . . . ? 
C11 C2 C3 C4 2.1(3) . . . . ? 
C2 C3 C4 C5 179.62(18) . . . . ? 
C2 C3 C4 C9 0.1(3) . . . . ? 
C3 C4 C5 C6 -177.8(2) . . . . ? 
C9 C4 C5 C6 1.7(3) . . . . ? 
C3 C4 C5 F1 2.1(3) . . . . ? 
C9 C4 C5 F1 -178.43(17) . . . . ? 
F1 C5 C6 F2 -0.4(3) . . . . ? 
C4 C5 C6 F2 179.52(18) . . . . ? 
F1 C5 C6 C7 179.08(18) . . . . ? 
C4 C5 C6 C7 -1.0(3) . . . . ? 
F2 C6 C7 F3 0.9(3) . . . . ? 
C5 C6 C7 F3 -178.59(19) . . . . ? 
F2 C6 C7 C8 178.66(18) . . . . ? 
C5 C6 C7 C8 -0.8(3) . . . . ? 
F3 C7 C8 F4 -0.5(3) . . . . ? 
C6 C7 C8 F4 -178.19(18) . . . . ? 
F3 C7 C8 C9 179.62(18) . . . . ? 
C6 C7 C8 C9 2.0(3) . . . . ? 
F4 C8 C9 C10 0.4(3) . . . . ? 
C7 C8 C9 C10 -179.77(19) . . . . ? 
F4 C8 C9 C4 178.90(16) . . . . ? 
C7 C8 C9 C4 -1.3(3) . . . . ? 
C3 C4 C9 C10 -2.5(3) . . . . ? 
C5 C4 C9 C10 178.04(17) . . . . ? 
C3 C4 C9 C8 178.96(18) . . . . ? 
C5 C4 C9 C8 -0.5(3) . . . . ? 
C8 C9 C10 C11 -179.02(18) . . . . ? 
C4 C9 C10 C11 2.5(3) . . . . ? 
C9 C10 C11 C1 179.39(18) . . . 2_666 ? 
C9 C10 C11 C2 -0.2(3) . . . . ? 
C3 C2 C11 C10 -2.1(3) . . . . ? 
C1 C2 C11 C10 177.35(18) . . . . ? 
C3 C2 C11 C1 178.29(17) . . . 2_666 ? 
C1 C2 C11 C1 -2.3(3) . . . 2_666 ? 
C2 C1 C12 C13 91(3) . . . . ? 
C11 C1 C12 C13 -87(3) 2_666 . . . ? 
C1 C12 C13 Si1 1(4) . . . . ? 
C22 Si1 C13 C12 -119.7(16) . . . . ? 
C14 Si1 C13 C12 118.3(16) . . . . ? 
C18 Si1 C13 C12 -0.2(16) . . . . ? 
C13 Si1 C14 C15 -49.97(18) . . . . ? 
C22 Si1 C14 C15 -170.78(14) . . . . ? 
C18 Si1 C14 C15 66.82(17) . . . . ? 
Si1 C14 C15 C16 -168.09(14) . . . . ? 
C14 C15 C16 C17 179.59(18) . . . . ? 
C13 Si1 C18 C19 -177.79(14) . . . . ? 
C22 Si1 C18 C19 -59.08(17) . . . . ? 
C14 Si1 C18 C19 63.86(17) . . . . ? 
Si1 C18 C19 C20 -173.75(15) . . . . ? 
C18 C19 C20 C21 176.69(19) . . . . ? 
C13 Si1 C22 C23 57.92(18) . . . . ? 
C14 Si1 C22 C23 178.77(14) . . . . ? 
C18 Si1 C22 C23 -59.31(17) . . . . ? 
Si1 C22 C23 C24 171.79(15) . . . . ? 
C22 C23 C24 C25 176.61(19) . . . . ? 
 
_diffrn_measured_fraction_theta_max    0.967 
_diffrn_reflns_theta_full              68.42 
_diffrn_measured_fraction_theta_full   0.967 
_refine_diff_density_max    0.425 
_refine_diff_density_min   -0.343 
_refine_diff_density_rms    0.061 
