 
data_x08194 
 
_audit_creation_method            SHELXL-97 
_chemical_name_systematic 
; 
 ? 
; 
_chemical_name_common             ? 
_chemical_melting_point           ? 
_chemical_formula_moiety 
 'C50 H62 F4 Si2' 
_chemical_formula_sum 
 'C50 H62 F4 Si2' 
_chemical_formula_weight          795.18 
 
loop_ 
 _atom_type_symbol 
 _atom_type_description 
 _atom_type_scat_dispersion_real 
 _atom_type_scat_dispersion_imag 
 _atom_type_scat_source 
 'C'  'C'   0.0181   0.0091 
 'International Tables Vol C Tables 4.2.6.8 and 6.1.1.4' 
 'H'  'H'   0.0000   0.0000 
 'International Tables Vol C Tables 4.2.6.8 and 6.1.1.4' 
 'F'  'F'   0.0727   0.0534 
 'International Tables Vol C Tables 4.2.6.8 and 6.1.1.4' 
 'Si'  'Si'   0.2541   0.3302 
 'International Tables Vol C Tables 4.2.6.8 and 6.1.1.4' 
 
_symmetry_cell_setting            triclinic
_symmetry_space_group_name_H-M    'P -1'
_symmetry_space_group_name_Hall   '-P 1'
 
loop_ 
 _symmetry_equiv_pos_as_xyz 
 'x, y, z' 
 '-x, -y, -z' 
 
_cell_length_a                    7.5089(2) 
_cell_length_b                    8.2020(2) 
_cell_length_c                    18.6936(5) 
_cell_angle_alpha                 90.871(1) 
_cell_angle_beta                  97.698(1) 
_cell_angle_gamma                 102.084(1) 
_cell_volume                      1114.53(5) 
_cell_formula_units_Z             1 
_cell_measurement_temperature     90.0(2) 
_cell_measurement_reflns_used     9964
_cell_measurement_theta_min       4.78
_cell_measurement_theta_max       68.49
 
_exptl_crystal_description        flake
_exptl_crystal_colour             purple
_exptl_crystal_size_max           0.25 
_exptl_crystal_size_mid           0.15 
_exptl_crystal_size_min           0.01 
_exptl_crystal_density_meas       ? 
_exptl_crystal_density_diffrn     1.185 
_exptl_crystal_density_method     'not measured' 
_exptl_crystal_F_000              426 
_exptl_absorpt_coefficient_mu     1.119 
_exptl_absorpt_correction_type    multi-scan 
_exptl_absorpt_correction_T_min   0.761 
_exptl_absorpt_correction_T_max   0.989 
_exptl_absorpt_process_details    'Sadabs in APEX2 (BrukerAXS, 2006)' 
 
_exptl_special_details 
; 
 ? 
; 
 
_diffrn_ambient_temperature       90.0(2) 
_diffrn_radiation_wavelength      1.54178 
_diffrn_radiation_type            CuK\a 
_diffrn_radiation_source          'fine-focus rotating anode' 
_diffrn_radiation_monochromator   'graded multilayer optics' 
_diffrn_measurement_device_type   'Bruker X8 Proteum diffractometer'
_diffrn_measurement_method        '\f and \w scans'            
_diffrn_detector_area_resol_mean  18
_diffrn_standards_number          0 
_diffrn_standards_interval_count  . 
_diffrn_standards_interval_time   . 
_diffrn_standards_decay_%         ? 
_diffrn_reflns_number             15950 
_diffrn_reflns_av_R_equivalents   0.0356 
_diffrn_reflns_av_sigmaI/netI     0.0300 
_diffrn_reflns_limit_h_min        -9 
_diffrn_reflns_limit_h_max        9 
_diffrn_reflns_limit_k_min        -9 
_diffrn_reflns_limit_k_max        9 
_diffrn_reflns_limit_l_min        -22 
_diffrn_reflns_limit_l_max        22 
_diffrn_reflns_theta_min          4.78 
_diffrn_reflns_theta_max          68.48 
_reflns_number_total              3989 
_reflns_number_gt                 3817 
_reflns_threshold_expression      >2\s(I)    
 
_computing_data_collection        'APEX2 (Bruker-AXS, 2006)'            
_computing_cell_refinement        'APEX2 (Bruker-AXS, 2006)'            
_computing_data_reduction         'APEX2 (Bruker-AXS, 2006)'            
_computing_structure_solution     'SHELXS-97 (Sheldrick, 2008)' 
_computing_structure_refinement   'SHELXL-97 (Sheldrick, 2008)' 
_computing_molecular_graphics     'XP in SHELXTL (Sheldrick, 2008)'
_computing_publication_material
; 
SHELX97-2 (Sheldrick, 2008) and local procedures 
; 

_publ_section_exptl_refinement
;
H atoms were found in difference Fourier maps and subsequently placed in
idealized positions with constrained distances of 
0.98 \%A (RCH~3~),
0.99 \%A (R~2~CH~2~),
0.95 \%A (C~Ar~H),
and with U~iso~(H) values set to either 1.2U~eq~ or 1.5U~eq~ (RCH~3~) 
of the attached atom. 
;

 
_refine_special_details 
; 
 Refinement of F^2^ against ALL reflections.  The weighted R-factor wR and 
 goodness of fit S are based on F^2^, conventional R-factors R are based 
 on F, with F set to zero for negative F^2^. The threshold expression of 
 F^2^ > 2\s(F^2^) is used only for calculating R-factors(gt) etc. and is 
 not relevant to the choice of reflections for refinement.  R-factors based 
 on F^2^ are statistically about twice as large as those based on F, and R- 
 factors based on ALL data will be even larger. 
 
 The ellipsoids of the acene are all elongated along its long axis.  This 
 is almost certainly a consequence of the disorder because the molecules
 of would be expected to shift slightly upon being flipped so as to make
 a better fit.
; 
 
_refine_ls_structure_factor_coef  Fsqd  
_refine_ls_matrix_type            full 
_refine_ls_weighting_scheme       calc  
_refine_ls_weighting_details 
 'calc w=1/[\s^2^(Fo^2^)+1.1913P] where P=(Fo^2^+2Fc^2^)/3' 
_atom_sites_solution_primary      direct 
_atom_sites_solution_secondary    difmap 
_atom_sites_solution_hydrogens    geom 
_refine_ls_hydrogen_treatment     constr 
_refine_ls_extinction_method      SHELXL 
_refine_ls_extinction_coef        0.0028(7) 
_refine_ls_extinction_expression 
 'Fc^*^=kFc[1+0.001xFc^2^\l^3^/sin(2\q)]^-1/4^' 
_refine_ls_number_reflns          3989 
_refine_ls_number_parameters      275 
_refine_ls_number_restraints      0 
_refine_ls_R_factor_all           0.0487 
_refine_ls_R_factor_gt            0.0470 
_refine_ls_wR_factor_ref          0.1142 
_refine_ls_wR_factor_gt           0.1132 
_refine_ls_goodness_of_fit_ref    1.160 
_refine_ls_restrained_S_all       1.160 
_refine_ls_shift/su_max           0.000 
_refine_ls_shift/su_mean          0.000 
 
loop_ 
 _atom_site_label 
 _atom_site_type_symbol 
 _atom_site_fract_x 
 _atom_site_fract_y 
 _atom_site_fract_z 
 _atom_site_U_iso_or_equiv 
 _atom_site_adp_type 
 _atom_site_occupancy 
 _atom_site_symmetry_multiplicity 
 _atom_site_calc_flag 
 _atom_site_refinement_flags 
 _atom_site_disorder_assembly 
 _atom_site_disorder_group 
Si1 Si 0.31517(7) 0.74341(6) 0.21146(3) 0.02100(17) Uani 1 1 d . . . 
C1 C 0.4383(3) 0.5627(3) 0.43299(11) 0.0295(5) Uani 1 1 d . . . 
C2 C 0.3697(3) 0.3938(3) 0.44743(11) 0.0299(5) Uani 1 1 d . B . 
C3 C 0.2401(3) 0.2864(3) 0.39752(11) 0.0318(5) Uani 1 1 d . . . 
H3 H 0.1944 0.3291 0.3535 0.038 Uiso 1 1 calc R . . 
C4 C 0.1769(3) 0.1203(3) 0.41046(11) 0.0329(5) Uani 1 1 d . B . 
C5 C 0.0444(3) 0.0096(3) 0.36058(12) 0.0369(5) Uani 1 1 d . . . 
H5 H -0.0061 0.0520 0.3166 0.044 Uiso 0.50 1 calc PR A 2 
F1 F -0.0067(3) 0.0881(3) 0.30159(12) 0.0290(5) Uani 0.50 1 d P B 1 
C6 C -0.0121(4) -0.1530(3) 0.37354(13) 0.0410(6) Uani 1 1 d . B . 
H6 H -0.1008 -0.2247 0.3387 0.049 Uiso 0.50 1 calc PR C 2 
F2 F -0.1170(3) -0.2393(3) 0.32797(13) 0.0349(6) Uani 0.50 1 d P B 1 
C7 C 0.0595(3) -0.2188(3) 0.43884(13) 0.0389(6) Uani 1 1 d . . . 
H7 H 0.0199 -0.3350 0.4475 0.047 Uiso 0.50 1 calc PR B 2 
F3 F 0.0122(3) -0.3641(3) 0.45184(13) 0.0319(5) Uani 0.50 1 d P B 1 
C8 C 0.1824(3) -0.1186(3) 0.48840(12) 0.0352(5) Uani 1 1 d . B . 
H8 H 0.2275 -0.1646 0.5324 0.042 Uiso 0.50 1 calc PR D 2 
F4 F 0.2603(3) -0.1632(3) 0.55332(12) 0.0279(5) Uani 0.50 1 d P B 1 
C9 C 0.2472(3) 0.0540(3) 0.47715(11) 0.0324(5) Uani 1 1 d . . . 
C10 C 0.3711(3) 0.1599(3) 0.52769(11) 0.0311(5) Uani 1 1 d . B . 
H10 H 0.4144 0.1169 0.5721 0.037 Uiso 1 1 calc R . . 
C11 C 0.4348(3) 0.3294(3) 0.51522(11) 0.0292(5) Uani 1 1 d . . . 
C12 C 0.3851(3) 0.6233(3) 0.36372(11) 0.0299(5) Uani 1 1 d . . . 
C13 C 0.3489(3) 0.6732(3) 0.30439(11) 0.0262(4) Uani 1 1 d . . . 
C14 C 0.3278(3) 0.9732(3) 0.21447(11) 0.0264(4) Uani 1 1 d . . . 
H14A H 0.3324 1.0134 0.1649 0.032 Uiso 1 1 calc R . . 
H14B H 0.2138 0.9943 0.2304 0.032 Uiso 1 1 calc R . . 
C15 C 0.4937(3) 1.0751(2) 0.26470(12) 0.0290(5) Uani 1 1 d . . . 
H15A H 0.4753 1.0545 0.3155 0.035 Uiso 1 1 calc R . . 
H15B H 0.6057 1.0363 0.2562 0.035 Uiso 1 1 calc R . . 
C16 C 0.5232(3) 1.2612(3) 0.25353(12) 0.0328(5) Uani 1 1 d . . . 
H16A H 0.5405 1.2815 0.2026 0.039 Uiso 1 1 calc R . . 
H16B H 0.4114 1.2999 0.2623 0.039 Uiso 1 1 calc R . . 
C17 C 0.6876(4) 1.3633(3) 0.30244(15) 0.0449(6) Uani 1 1 d . . . 
H17A H 0.6690 1.3483 0.3530 0.067 Uiso 1 1 calc R . . 
H17B H 0.7009 1.4815 0.2919 0.067 Uiso 1 1 calc R . . 
H17C H 0.7991 1.3260 0.2940 0.067 Uiso 1 1 calc R . . 
C18 C 0.5062(3) 0.6962(2) 0.16499(10) 0.0220(4) Uani 1 1 d . . . 
H18A H 0.6249 0.7611 0.1902 0.026 Uiso 1 1 calc R . . 
H18B H 0.5077 0.5763 0.1691 0.026 Uiso 1 1 calc R . . 
C19 C 0.4897(3) 0.7367(2) 0.08507(10) 0.0231(4) Uani 1 1 d . . . 
H19A H 0.3774 0.6633 0.0590 0.028 Uiso 1 1 calc R . . 
H19B H 0.4751 0.8534 0.0805 0.028 Uiso 1 1 calc R . . 
C20 C 0.6538(3) 0.7152(3) 0.04925(11) 0.0259(4) Uani 1 1 d . . . 
H20A H 0.6623 0.5964 0.0501 0.031 Uiso 1 1 calc R . . 
H20B H 0.7674 0.7814 0.0777 0.031 Uiso 1 1 calc R . . 
C21 C 0.6435(3) 0.7690(3) -0.02843(11) 0.0346(5) Uani 1 1 d . . . 
H21A H 0.5332 0.7019 -0.0573 0.052 Uiso 1 1 calc R . . 
H21B H 0.7530 0.7526 -0.0484 0.052 Uiso 1 1 calc R . . 
H21C H 0.6377 0.8872 -0.0296 0.052 Uiso 1 1 calc R . . 
C22 C 0.0884(3) 0.6255(3) 0.16461(11) 0.0265(4) Uani 1 1 d . . . 
H22A H -0.0104 0.6561 0.1886 0.032 Uiso 1 1 calc R . . 
H22B H 0.0724 0.6605 0.1141 0.032 Uiso 1 1 calc R . . 
C23 C 0.0657(3) 0.4358(3) 0.16377(11) 0.0287(5) Uani 1 1 d . . . 
H23A H 0.1745 0.4060 0.1467 0.034 Uiso 1 1 calc R . . 
H23B H 0.0617 0.3984 0.2137 0.034 Uiso 1 1 calc R . . 
C24 C -0.1067(3) 0.3430(3) 0.11592(12) 0.0348(5) Uani 1 1 d . . . 
H24A H -0.2147 0.3789 0.1308 0.042 Uiso 1 1 calc R . . 
H24B H -0.0987 0.3747 0.0654 0.042 Uiso 1 1 calc R . . 
C25 C -0.1366(3) 0.1549(3) 0.11879(15) 0.0439(6) Uani 1 1 d . . . 
H25A H -0.0307 0.1181 0.1037 0.066 Uiso 1 1 calc R . . 
H25B H -0.2483 0.1030 0.0863 0.066 Uiso 1 1 calc R . . 
H25C H -0.1500 0.1219 0.1683 0.066 Uiso 1 1 calc R . . 
 
loop_ 
 _atom_site_aniso_label 
 _atom_site_aniso_U_11 
 _atom_site_aniso_U_22 
 _atom_site_aniso_U_33 
 _atom_site_aniso_U_23 
 _atom_site_aniso_U_13 
 _atom_site_aniso_U_12 
Si1 0.0235(3) 0.0211(3) 0.0195(3) 0.00661(19) 0.0036(2) 0.0065(2) 
C1 0.0341(12) 0.0414(12) 0.0227(10) 0.0139(9) 0.0122(8) 0.0239(10) 
C2 0.0332(11) 0.0435(13) 0.0229(10) 0.0138(9) 0.0136(8) 0.0240(10) 
C3 0.0359(12) 0.0467(13) 0.0221(10) 0.0127(9) 0.0106(9) 0.0251(10) 
C4 0.0365(12) 0.0473(14) 0.0249(11) 0.0102(9) 0.0134(9) 0.0254(11) 
C5 0.0454(14) 0.0479(14) 0.0274(11) 0.0104(10) 0.0132(10) 0.0263(11) 
F1 0.0295(12) 0.0325(13) 0.0236(11) 0.0041(9) -0.0029(9) 0.0072(10) 
C6 0.0462(14) 0.0528(15) 0.0326(12) 0.0046(11) 0.0125(11) 0.0252(12) 
F2 0.0339(14) 0.0278(13) 0.0361(14) -0.0024(10) -0.0035(11) -0.0030(11) 
C7 0.0431(14) 0.0447(14) 0.0393(13) 0.0116(11) 0.0185(11) 0.0242(11) 
F3 0.0332(13) 0.0191(12) 0.0410(14) 0.0048(10) 0.0060(10) -0.0010(10) 
C8 0.0379(13) 0.0477(14) 0.0301(11) 0.0133(10) 0.0137(9) 0.0255(11) 
F4 0.0314(12) 0.0244(12) 0.0284(12) 0.0114(9) 0.0043(9) 0.0067(10) 
C9 0.0358(12) 0.0440(13) 0.0285(11) 0.0139(9) 0.0164(9) 0.0254(10) 
C10 0.0338(12) 0.0444(13) 0.0251(10) 0.0161(9) 0.0124(9) 0.0245(10) 
C11 0.0314(11) 0.0423(12) 0.0237(10) 0.0131(9) 0.0128(8) 0.0234(10) 
C12 0.0340(12) 0.0387(12) 0.0249(11) 0.0112(9) 0.0106(9) 0.0206(10) 
C13 0.0298(11) 0.0256(10) 0.0260(10) 0.0062(8) 0.0073(8) 0.0097(8) 
C14 0.0310(11) 0.0279(11) 0.0244(10) 0.0077(8) 0.0072(8) 0.0128(9) 
C15 0.0333(11) 0.0219(10) 0.0343(11) 0.0065(8) 0.0082(9) 0.0088(9) 
C16 0.0415(13) 0.0231(11) 0.0385(12) 0.0076(9) 0.0153(10) 0.0110(9) 
C17 0.0433(14) 0.0231(12) 0.0688(18) 0.0021(11) 0.0141(12) 0.0042(10) 
C18 0.0225(10) 0.0194(9) 0.0239(10) 0.0049(7) 0.0018(7) 0.0044(8) 
C19 0.0235(10) 0.0225(10) 0.0230(10) 0.0040(7) 0.0024(7) 0.0044(8) 
C20 0.0280(11) 0.0238(10) 0.0274(10) 0.0042(8) 0.0066(8) 0.0071(8) 
C21 0.0373(12) 0.0391(13) 0.0284(11) 0.0037(9) 0.0104(9) 0.0067(10) 
C22 0.0225(10) 0.0304(11) 0.0275(10) 0.0073(8) 0.0037(8) 0.0071(8) 
C23 0.0230(10) 0.0308(11) 0.0305(11) 0.0036(9) 0.0003(8) 0.0041(9) 
C24 0.0260(11) 0.0374(13) 0.0371(12) 0.0031(10) -0.0004(9) 0.0009(9) 
C25 0.0325(13) 0.0367(13) 0.0563(16) -0.0047(11) 0.0011(11) -0.0032(10) 
 
_geom_special_details 
; 
 All esds (except the esd in the dihedral angle between two l.s. planes) 
 are estimated using the full covariance matrix.  The cell esds are taken 
 into account individually in the estimation of esds in distances, angles 
 and torsion angles; correlations between esds in cell parameters are only 
 used when they are defined by crystal symmetry.  An approximate (isotropic) 
 treatment of cell esds is used for estimating esds involving l.s. planes. 
; 
 
loop_ 
 _geom_bond_atom_site_label_1 
 _geom_bond_atom_site_label_2 
 _geom_bond_distance 
 _geom_bond_site_symmetry_2 
 _geom_bond_publ_flag 
Si1 C13 1.841(2) . ? 
Si1 C14 1.867(2) . ? 
Si1 C22 1.867(2) . ? 
Si1 C18 1.876(2) . ? 
C1 C11 1.415(3) 2_666 ? 
C1 C2 1.417(3) . ? 
C1 C12 1.431(3) . ? 
C2 C3 1.402(3) . ? 
C2 C11 1.444(3) . ? 
C3 C4 1.381(3) . ? 
C3 H3 0.9500 . ? 
C4 C5 1.425(3) . ? 
C4 C9 1.447(3) . ? 
C5 F1 1.337(3) . ? 
C5 C6 1.348(4) . ? 
C5 H5 0.9600 . ? 
C6 F2 1.190(4) . ? 
C6 C7 1.427(3) . ? 
C6 H6 0.9600 . ? 
C7 F3 1.208(3) . ? 
C7 C8 1.348(4) . ? 
C7 H7 0.9600 . ? 
C8 F4 1.364(3) . ? 
C8 C9 1.426(3) . ? 
C8 H8 0.9600 . ? 
C9 C10 1.384(3) . ? 
C10 C11 1.406(3) . ? 
C10 H10 0.9500 . ? 
C11 C1 1.415(3) 2_666 ? 
C12 C13 1.205(3) . ? 
C14 C15 1.536(3) . ? 
C14 H14A 0.9900 . ? 
C14 H14B 0.9900 . ? 
C15 C16 1.518(3) . ? 
C15 H15A 0.9900 . ? 
C15 H15B 0.9900 . ? 
C16 C17 1.517(3) . ? 
C16 H16A 0.9900 . ? 
C16 H16B 0.9900 . ? 
C17 H17A 0.9800 . ? 
C17 H17B 0.9800 . ? 
C17 H17C 0.9800 . ? 
C18 C19 1.530(3) . ? 
C18 H18A 0.9900 . ? 
C18 H18B 0.9900 . ? 
C19 C20 1.518(3) . ? 
C19 H19A 0.9900 . ? 
C19 H19B 0.9900 . ? 
C20 C21 1.521(3) . ? 
C20 H20A 0.9900 . ? 
C20 H20B 0.9900 . ? 
C21 H21A 0.9800 . ? 
C21 H21B 0.9800 . ? 
C21 H21C 0.9800 . ? 
C22 C23 1.529(3) . ? 
C22 H22A 0.9900 . ? 
C22 H22B 0.9900 . ? 
C23 C24 1.520(3) . ? 
C23 H23A 0.9900 . ? 
C23 H23B 0.9900 . ? 
C24 C25 1.515(3) . ? 
C24 H24A 0.9900 . ? 
C24 H24B 0.9900 . ? 
C25 H25A 0.9800 . ? 
C25 H25B 0.9800 . ? 
C25 H25C 0.9800 . ? 
 
loop_ 
 _geom_angle_atom_site_label_1 
 _geom_angle_atom_site_label_2 
 _geom_angle_atom_site_label_3 
 _geom_angle 
 _geom_angle_site_symmetry_1 
 _geom_angle_site_symmetry_3 
 _geom_angle_publ_flag 
C13 Si1 C14 109.13(9) . . ? 
C13 Si1 C22 108.77(9) . . ? 
C14 Si1 C22 111.78(9) . . ? 
C13 Si1 C18 107.37(9) . . ? 
C14 Si1 C18 109.60(9) . . ? 
C22 Si1 C18 110.08(9) . . ? 
C11 C1 C2 121.06(18) 2_666 . ? 
C11 C1 C12 119.4(2) 2_666 . ? 
C2 C1 C12 119.5(2) . . ? 
C3 C2 C1 121.81(19) . . ? 
C3 C2 C11 118.8(2) . . ? 
C1 C2 C11 119.4(2) . . ? 
C4 C3 C2 122.01(19) . . ? 
C4 C3 H3 119.0 . . ? 
C2 C3 H3 119.0 . . ? 
C3 C4 C5 122.8(2) . . ? 
C3 C4 C9 119.3(2) . . ? 
C5 C4 C9 117.9(2) . . ? 
F1 C5 C6 127.1(2) . . ? 
F1 C5 C4 111.1(2) . . ? 
C6 C5 C4 121.8(2) . . ? 
F1 C5 H5 8.2 . . ? 
C6 C5 H5 119.1 . . ? 
C4 C5 H5 119.1 . . ? 
F2 C6 C5 117.9(2) . . ? 
F2 C6 C7 121.8(3) . . ? 
C5 C6 C7 120.2(3) . . ? 
F2 C6 H6 3.1 . . ? 
C5 C6 H6 119.9 . . ? 
C7 C6 H6 119.9 . . ? 
F3 C7 C8 117.9(2) . . ? 
F3 C7 C6 121.8(3) . . ? 
C8 C7 C6 120.3(2) . . ? 
F3 C7 H7 2.0 . . ? 
C8 C7 H7 119.9 . . ? 
C6 C7 H7 119.9 . . ? 
C7 C8 F4 126.8(2) . . ? 
C7 C8 C9 121.7(2) . . ? 
F4 C8 C9 111.5(2) . . ? 
C7 C8 H8 119.2 . . ? 
F4 C8 H8 7.6 . . ? 
C9 C8 H8 119.2 . . ? 
C10 C9 C8 122.72(19) . . ? 
C10 C9 C4 119.2(2) . . ? 
C8 C9 C4 118.1(2) . . ? 
C9 C10 C11 121.83(19) . . ? 
C9 C10 H10 119.1 . . ? 
C11 C10 H10 119.1 . . ? 
C10 C11 C1 121.66(19) . 2_666 ? 
C10 C11 C2 118.9(2) . . ? 
C1 C11 C2 119.5(2) 2_666 . ? 
C13 C12 C1 176.6(2) . . ? 
C12 C13 Si1 174.13(19) . . ? 
C15 C14 Si1 114.50(14) . . ? 
C15 C14 H14A 108.6 . . ? 
Si1 C14 H14A 108.6 . . ? 
C15 C14 H14B 108.6 . . ? 
Si1 C14 H14B 108.6 . . ? 
H14A C14 H14B 107.6 . . ? 
C16 C15 C14 112.88(17) . . ? 
C16 C15 H15A 109.0 . . ? 
C14 C15 H15A 109.0 . . ? 
C16 C15 H15B 109.0 . . ? 
C14 C15 H15B 109.0 . . ? 
H15A C15 H15B 107.8 . . ? 
C17 C16 C15 113.43(19) . . ? 
C17 C16 H16A 108.9 . . ? 
C15 C16 H16A 108.9 . . ? 
C17 C16 H16B 108.9 . . ? 
C15 C16 H16B 108.9 . . ? 
H16A C16 H16B 107.7 . . ? 
C16 C17 H17A 109.5 . . ? 
C16 C17 H17B 109.5 . . ? 
H17A C17 H17B 109.5 . . ? 
C16 C17 H17C 109.5 . . ? 
H17A C17 H17C 109.5 . . ? 
H17B C17 H17C 109.5 . . ? 
C19 C18 Si1 113.65(13) . . ? 
C19 C18 H18A 108.8 . . ? 
Si1 C18 H18A 108.8 . . ? 
C19 C18 H18B 108.8 . . ? 
Si1 C18 H18B 108.8 . . ? 
H18A C18 H18B 107.7 . . ? 
C20 C19 C18 113.72(16) . . ? 
C20 C19 H19A 108.8 . . ? 
C18 C19 H19A 108.8 . . ? 
C20 C19 H19B 108.8 . . ? 
C18 C19 H19B 108.8 . . ? 
H19A C19 H19B 107.7 . . ? 
C19 C20 C21 113.37(17) . . ? 
C19 C20 H20A 108.9 . . ? 
C21 C20 H20A 108.9 . . ? 
C19 C20 H20B 108.9 . . ? 
C21 C20 H20B 108.9 . . ? 
H20A C20 H20B 107.7 . . ? 
C20 C21 H21A 109.5 . . ? 
C20 C21 H21B 109.5 . . ? 
H21A C21 H21B 109.5 . . ? 
C20 C21 H21C 109.5 . . ? 
H21A C21 H21C 109.5 . . ? 
H21B C21 H21C 109.5 . . ? 
C23 C22 Si1 114.32(14) . . ? 
C23 C22 H22A 108.7 . . ? 
Si1 C22 H22A 108.7 . . ? 
C23 C22 H22B 108.7 . . ? 
Si1 C22 H22B 108.7 . . ? 
H22A C22 H22B 107.6 . . ? 
C24 C23 C22 113.46(17) . . ? 
C24 C23 H23A 108.9 . . ? 
C22 C23 H23A 108.9 . . ? 
C24 C23 H23B 108.9 . . ? 
C22 C23 H23B 108.9 . . ? 
H23A C23 H23B 107.7 . . ? 
C25 C24 C23 113.66(19) . . ? 
C25 C24 H24A 108.8 . . ? 
C23 C24 H24A 108.8 . . ? 
C25 C24 H24B 108.8 . . ? 
C23 C24 H24B 108.8 . . ? 
H24A C24 H24B 107.7 . . ? 
C24 C25 H25A 109.5 . . ? 
C24 C25 H25B 109.5 . . ? 
H25A C25 H25B 109.5 . . ? 
C24 C25 H25C 109.5 . . ? 
H25A C25 H25C 109.5 . . ? 
H25B C25 H25C 109.5 . . ? 
 
loop_ 
 _geom_torsion_atom_site_label_1 
 _geom_torsion_atom_site_label_2 
 _geom_torsion_atom_site_label_3 
 _geom_torsion_atom_site_label_4 
 _geom_torsion 
 _geom_torsion_site_symmetry_1 
 _geom_torsion_site_symmetry_2 
 _geom_torsion_site_symmetry_3 
 _geom_torsion_site_symmetry_4 
 _geom_torsion_publ_flag 
C11 C1 C2 C3 178.25(18) 2_666 . . . ? 
C12 C1 C2 C3 -4.7(3) . . . . ? 
C11 C1 C2 C11 -1.9(3) 2_666 . . . ? 
C12 C1 C2 C11 175.13(18) . . . . ? 
C1 C2 C3 C4 178.07(19) . . . . ? 
C11 C2 C3 C4 -1.8(3) . . . . ? 
C2 C3 C4 C5 179.58(19) . . . . ? 
C2 C3 C4 C9 -0.6(3) . . . . ? 
C3 C4 C5 F1 0.2(3) . . . . ? 
C9 C4 C5 F1 -179.6(2) . . . . ? 
C3 C4 C5 C6 178.4(2) . . . . ? 
C9 C4 C5 C6 -1.5(3) . . . . ? 
F1 C5 C6 F2 1.1(4) . . . . ? 
C4 C5 C6 F2 -176.7(2) . . . . ? 
F1 C5 C6 C7 178.4(2) . . . . ? 
C4 C5 C6 C7 0.5(3) . . . . ? 
F2 C6 C7 F3 -2.5(4) . . . . ? 
C5 C6 C7 F3 -179.7(2) . . . . ? 
F2 C6 C7 C8 177.9(2) . . . . ? 
C5 C6 C7 C8 0.8(3) . . . . ? 
F3 C7 C8 F4 -0.6(4) . . . . ? 
C6 C7 C8 F4 179.0(2) . . . . ? 
F3 C7 C8 C9 179.3(2) . . . . ? 
C6 C7 C8 C9 -1.1(3) . . . . ? 
C7 C8 C9 C10 179.0(2) . . . . ? 
F4 C8 C9 C10 -1.1(3) . . . . ? 
C7 C8 C9 C4 0.1(3) . . . . ? 
F4 C8 C9 C4 179.99(19) . . . . ? 
C3 C4 C9 C10 2.4(3) . . . . ? 
C5 C4 C9 C10 -177.76(19) . . . . ? 
C3 C4 C9 C8 -178.70(19) . . . . ? 
C5 C4 C9 C8 1.2(3) . . . . ? 
C8 C9 C10 C11 179.33(19) . . . . ? 
C4 C9 C10 C11 -1.8(3) . . . . ? 
C9 C10 C11 C1 -179.91(19) . . . 2_666 ? 
C9 C10 C11 C2 -0.6(3) . . . . ? 
C3 C2 C11 C10 2.4(3) . . . . ? 
C1 C2 C11 C10 -177.51(18) . . . . ? 
C3 C2 C11 C1 -178.27(18) . . . 2_666 ? 
C1 C2 C11 C1 1.9(3) . . . 2_666 ? 
C11 C1 C12 C13 78(4) 2_666 . . . ? 
C2 C1 C12 C13 -99(4) . . . . ? 
C1 C12 C13 Si1 6(6) . . . . ? 
C14 Si1 C13 C12 -116(2) . . . . ? 
C22 Si1 C13 C12 121(2) . . . . ? 
C18 Si1 C13 C12 2(2) . . . . ? 
C13 Si1 C14 C15 48.19(17) . . . . ? 
C22 Si1 C14 C15 168.55(14) . . . . ? 
C18 Si1 C14 C15 -69.13(16) . . . . ? 
Si1 C14 C15 C16 167.34(14) . . . . ? 
C14 C15 C16 C17 -179.57(18) . . . . ? 
C13 Si1 C18 C19 175.98(14) . . . . ? 
C14 Si1 C18 C19 -65.60(16) . . . . ? 
C22 Si1 C18 C19 57.73(16) . . . . ? 
Si1 C18 C19 C20 174.15(13) . . . . ? 
C18 C19 C20 C21 -175.33(17) . . . . ? 
C13 Si1 C22 C23 -56.45(17) . . . . ? 
C14 Si1 C22 C23 -177.01(14) . . . . ? 
C18 Si1 C22 C23 60.94(17) . . . . ? 
Si1 C22 C23 C24 -171.23(15) . . . . ? 
C22 C23 C24 C25 -176.13(19) . . . . ? 
 
_diffrn_measured_fraction_theta_max    0.977 
_diffrn_reflns_theta_full              68.48 
_diffrn_measured_fraction_theta_full   0.977 
_refine_diff_density_max    0.345 
_refine_diff_density_min   -0.259 
_refine_diff_density_rms    0.045 
