data_x12277 
 
_audit_creation_method            SHELXL-97 
_chemical_name_systematic 
; 
 ? 
; 
_chemical_name_common             ? 
_chemical_melting_point           ? 
_chemical_formula_moiety 
 'C50 H58 F8 Si2' 
_chemical_formula_sum 
 'C50 H58 F8 Si2' 
_chemical_formula_weight          867.14 
 
loop_ 
 _atom_type_symbol 
 _atom_type_description 
 _atom_type_scat_dispersion_real 
 _atom_type_scat_dispersion_imag 
 _atom_type_scat_source 
 'C'  'C'   0.0181   0.0091 
 'International Tables Vol C Tables 4.2.6.8 and 6.1.1.4' 
 'H'  'H'   0.0000   0.0000 
 'International Tables Vol C Tables 4.2.6.8 and 6.1.1.4' 
 'F'  'F'   0.0727   0.0534 
 'International Tables Vol C Tables 4.2.6.8 and 6.1.1.4' 
 'Si'  'Si'   0.2541   0.3302 
 'International Tables Vol C Tables 4.2.6.8 and 6.1.1.4' 
 
_symmetry_cell_setting            triclinic 
_symmetry_space_group_name_H-M    'P -1'
_symmetry_space_group_name_Hall   '-P 1'
 
loop_ 
 _symmetry_equiv_pos_as_xyz 
 'x, y, z' 
 '-x, -y, -z' 
 
_cell_length_a                    8.2269(2) 
_cell_length_b                    15.4454(3) 
_cell_length_c                    18.7415(4) 
_cell_angle_alpha                 107.123(1) 
_cell_angle_beta                  97.001(1) 
_cell_angle_gamma                 90.790(1) 
_cell_volume                      2255.81(9) 
_cell_formula_units_Z             2 
_cell_measurement_temperature     90.0(2) 
_cell_measurement_reflns_used     9981 
_cell_measurement_theta_min       3.00
_cell_measurement_theta_max       68.06 
 
_exptl_crystal_description        needle 
_exptl_crystal_colour             blue
_exptl_crystal_size_max           0.25 
_exptl_crystal_size_mid           0.06 
_exptl_crystal_size_min           0.02 
_exptl_crystal_density_meas       ? 
_exptl_crystal_density_diffrn     1.277 
_exptl_crystal_density_method     'not measured' 
_exptl_crystal_F_000              916 
_exptl_absorpt_coefficient_mu     1.282 
_exptl_absorpt_correction_type    multi-scan 
_exptl_absorpt_correction_T_min   0.733 
_exptl_absorpt_correction_T_max   0.8957 
_exptl_absorpt_process_details    'Sadabs in APEX2 (BrukerAXS, 2006)' 
 
_exptl_special_details 
; 
 ? 
; 
 
_diffrn_ambient_temperature       90.0(2) 
_diffrn_radiation_wavelength      1.54178 
_diffrn_radiation_type            CuK\a 
_diffrn_radiation_source          'fine-focus rotating anode' 
_diffrn_radiation_monochromator   'graded multilayer optics' 
_diffrn_measurement_device_type   'Bruker X8 Proteum diffractometer'
_diffrn_measurement_method        '\f and \w scans'            
_diffrn_detector_area_resol_mean  5.6
_diffrn_standards_number          0 
_diffrn_standards_interval_count  . 
_diffrn_standards_interval_time   . 
_diffrn_standards_decay_%         ? 
_diffrn_reflns_number             31971 
_diffrn_reflns_av_R_equivalents   0.0449 
_diffrn_reflns_av_sigmaI/netI     0.0389 
_diffrn_reflns_limit_h_min        -9 
_diffrn_reflns_limit_h_max        9 
_diffrn_reflns_limit_k_min        -16 
_diffrn_reflns_limit_k_max        18 
_diffrn_reflns_limit_l_min        -22 
_diffrn_reflns_limit_l_max        22 
_diffrn_reflns_theta_min          3.00 
_diffrn_reflns_theta_max          68.36 
_reflns_number_total              8124 
_reflns_number_gt                 6143 
_reflns_threshold_expression      >2\s(I)    
 
_computing_data_collection        'APEX2 (Bruker-AXS, 2006)'            
_computing_cell_refinement        'APEX2'
_computing_data_reduction         'APEX2'
_computing_structure_solution     'SHELXS-97 (Sheldrick, 2008)' 
_computing_structure_refinement   'SHELXL-97 (Sheldrick, 2008)' 
_computing_molecular_graphics     'XP in SHELXTL (Sheldrick, 2008)'
_computing_publication_material
; 
SHELX-97 (Sheldrick, 2008) and local procedures 
; 
 
_publ_section_exptl_refinement
;
H atoms were found in difference Fourier maps and subsequently placed 
in idealized positions with constrained distances of 
0.98 \%A (RCH~3~),
0.99 \%A (R~2~CH~2~),
1.00 \%A (R~3~CH),
0.95 \%A (C~sp2~H),
and with U~iso~(H) values set to either 1.2U~eq~ or 1.5U~eq~ (RCH~3~) 
of the attached atom. 

To ensure satisfactory refinement of the disordered parts of the structure, 
a combination of constraints and restraints were needed.  The constraints 
(SHELXL97 command EADP) were used to make the coordinates displacement 
parameters of closely proximate atoms equal.  The restraints (SHELXL97 
commands SAME, DELU, ISOR) were used to ensure similar geometries and 
displacement parameters of closely proximate, chemically similar groups. 

There is a so-called level B alert in checkCIF for close contacts between 
hydrogens on the minor component of C32 (occupancy about 0.21) and the
hydrogens on C35 and C36.  The sec-butyl group that includes C35 and C36 
was modelled at full occupancy, but it is quite likely that there is a 
minor component, but there was insufficient evidence to model it as such.
The anisotropic thermal parameters are well capable of soaking up the 
evidence.  The apparent close contacts are not considered important.
;

_refine_special_details 
; 
Refinement of F^2^ against all reflections.  The weighted R-value wR and 
goodness of fit S are based on F^2^. Conventional R-values R are based 
on F, with F set to zero for negative F^2^.  The threshold expression of 
F^2^ > 2\s(F^2^) is used only for calculating R-factors(gt) etc. and is 
not relevant to the choice of reflections for refinement.  R-values based 
on F^2^ are statistically about twice as large as those based on F, and  
R-values based on ALL data will be even larger. 
; 
 
_refine_ls_structure_factor_coef  Fsqd  
_refine_ls_matrix_type            full 
_refine_ls_weighting_scheme       calc  
_refine_ls_weighting_details 
 'calc w=1/[\s^2^(Fo^2^)+(0.1625P)^2^+1.5118P] where P=(Fo^2^+2Fc^2^)/3' 
_atom_sites_solution_primary      direct 
_atom_sites_solution_secondary    difmap 
_atom_sites_solution_hydrogens    geom 
_refine_ls_hydrogen_treatment     constr 
_refine_ls_extinction_method      none 
_refine_ls_extinction_coef        ? 
_refine_ls_number_reflns          8124 
_refine_ls_number_parameters      626 
_refine_ls_number_restraints      361 
_refine_ls_R_factor_all           0.0987 
_refine_ls_R_factor_gt            0.0790 
_refine_ls_wR_factor_ref          0.2619 
_refine_ls_wR_factor_gt           0.2322 
_refine_ls_goodness_of_fit_ref    1.048 
_refine_ls_restrained_S_all       1.091 
_refine_ls_shift/su_max           0.004 
_refine_ls_shift/su_mean          0.000 
 
loop_ 
 _atom_site_label 
 _atom_site_type_symbol 
 _atom_site_fract_x 
 _atom_site_fract_y 
 _atom_site_fract_z 
 _atom_site_U_iso_or_equiv 
 _atom_site_adp_type 
 _atom_site_occupancy 
 _atom_site_symmetry_multiplicity 
 _atom_site_calc_flag 
 _atom_site_refinement_flags 
 _atom_site_disorder_assembly 
 _atom_site_disorder_group 
Si1 Si 0.91207(13) 0.40013(7) 0.80268(6) 0.0557(3) Uani 1 1 d . . . 
Si2 Si 0.21146(13) 0.07192(7) 0.19366(5) 0.0565(3) Uani 1 1 d . . . 
F1 F 0.4403(3) 0.58472(13) 0.65820(12) 0.0595(5) Uani 1 1 d . . . 
F2 F 0.2269(3) 0.68107(14) 0.59326(14) 0.0671(6) Uani 1 1 d . . . 
F3 F 0.0614(3) 0.60522(15) 0.45637(14) 0.0651(6) Uani 1 1 d . . . 
F4 F 0.1009(2) 0.42919(14) 0.37843(13) 0.0579(5) Uani 1 1 d . . . 
F5 F 0.6450(3) -0.14283(12) 0.35021(11) 0.0533(5) Uani 1 1 d . . . 
F6 F 0.8518(3) -0.24068(13) 0.41641(12) 0.0586(5) Uani 1 1 d . . . 
F7 F 1.0081(2) -0.16732(14) 0.55542(12) 0.0566(5) Uani 1 1 d . . . 
F8 F 0.9642(2) 0.00817(13) 0.63453(11) 0.0505(5) Uani 1 1 d . . . 
C1 C 0.6264(4) 0.2603(2) 0.57832(17) 0.0383(6) Uani 1 1 d . A . 
C2 C 0.5160(4) 0.3123(2) 0.54596(17) 0.0382(6) Uani 1 1 d . . . 
C3 C 0.4893(4) 0.4024(2) 0.58400(18) 0.0412(7) Uani 1 1 d . . . 
H3 H 0.5462 0.4292 0.6331 0.049 Uiso 1 1 calc R . . 
C4 C 0.3830(4) 0.4537(2) 0.55256(19) 0.0443(7) Uani 1 1 d . . . 
C5 C 0.3568(4) 0.5457(2) 0.5900(2) 0.0502(8) Uani 1 1 d . . . 
C6 C 0.2515(4) 0.5941(2) 0.5580(2) 0.0543(9) Uani 1 1 d . . . 
C7 C 0.1643(4) 0.5534(2) 0.4854(2) 0.0548(9) Uani 1 1 d . . . 
C8 C 0.1845(4) 0.4668(2) 0.4475(2) 0.0496(8) Uani 1 1 d . . . 
C9 C 0.2948(4) 0.4126(2) 0.47839(19) 0.0429(7) Uani 1 1 d . . . 
C10 C 0.3188(4) 0.3240(2) 0.43987(18) 0.0400(7) Uani 1 1 d . . . 
H10 H 0.2600 0.2975 0.3911 0.048 Uiso 1 1 calc R . . 
C11 C 0.4292(3) 0.27182(19) 0.47141(17) 0.0367(6) Uani 1 1 d . . . 
C12 C 0.4577(3) 0.1813(2) 0.43093(17) 0.0366(6) Uani 1 1 d . A . 
C13 C 0.5655(3) 0.12914(19) 0.46416(16) 0.0361(6) Uani 1 1 d . . . 
C14 C 0.5916(4) 0.0384(2) 0.42523(17) 0.0382(6) Uani 1 1 d . . . 
H14 H 0.5367 0.0121 0.3757 0.046 Uiso 1 1 calc R . . 
C15 C 0.6953(4) -0.0133(2) 0.45771(17) 0.0395(7) Uani 1 1 d . . . 
C16 C 0.7232(4) -0.1049(2) 0.41954(18) 0.0437(7) Uani 1 1 d . . . 
C17 C 0.8248(4) -0.1544(2) 0.4524(2) 0.0473(8) Uani 1 1 d . . . 
C18 C 0.9067(4) -0.1153(2) 0.5260(2) 0.0463(8) Uani 1 1 d . . . 
C19 C 0.8842(4) -0.0287(2) 0.56469(19) 0.0443(7) Uani 1 1 d . . . 
C20 C 0.7783(3) 0.0266(2) 0.53313(18) 0.0388(6) Uani 1 1 d . . . 
C21 C 0.7551(4) 0.1157(2) 0.57132(17) 0.0385(6) Uani 1 1 d . . . 
H21 H 0.8113 0.1416 0.6207 0.046 Uiso 1 1 calc R . . 
C22 C 0.6503(3) 0.1690(2) 0.53884(17) 0.0370(6) Uani 1 1 d . . . 
C23 C 0.7157(4) 0.3014(2) 0.65109(18) 0.0446(7) Uani 1 1 d . . . 
C24 C 0.7933(4) 0.3369(2) 0.71110(19) 0.0516(8) Uani 1 1 d . A . 
C25 C 1.019(5) 0.310(2) 0.8398(15) 0.081(5) Uani 0.529(5) 1 d PDU A 1 
H25 H 0.9318 0.2662 0.8430 0.097 Uiso 0.529(5) 1 calc PR A 1 
C26 C 1.096(6) 0.363(2) 0.9227(15) 0.122(7) Uani 0.529(5) 1 d PDU A 1 
H26A H 1.1534 0.3206 0.9458 0.184 Uiso 0.529(5) 1 calc PR A 1 
H26B H 1.0090 0.3898 0.9521 0.184 Uiso 0.529(5) 1 calc PR A 1 
H26C H 1.1740 0.4110 0.9217 0.184 Uiso 0.529(5) 1 calc PR A 1 
C27 C 1.128(6) 0.260(2) 0.7878(17) 0.099(8) Uani 0.529(5) 1 d PDU A 1 
H27A H 1.2078 0.3031 0.7796 0.119 Uiso 0.529(5) 1 calc PR A 1 
H27B H 1.0619 0.2293 0.7386 0.119 Uiso 0.529(5) 1 calc PR A 1 
C28 C 1.2217(13) 0.1885(6) 0.8145(5) 0.082(3) Uani 0.529(5) 1 d PDU A 1 
H28A H 1.1591 0.1300 0.7951 0.122 Uiso 0.529(5) 1 calc PR A 1 
H28B H 1.2379 0.2068 0.8697 0.122 Uiso 0.529(5) 1 calc PR A 1 
H28C H 1.3285 0.1826 0.7959 0.122 Uiso 0.529(5) 1 calc PR A 1 
C25' C 1.042(6) 0.325(3) 0.8435(17) 0.081(5) Uani 0.471(5) 1 d PDU A 2 
H25' H 0.9495 0.2928 0.8573 0.097 Uiso 0.471(5) 1 calc PR A 2 
C26' C 1.103(7) 0.238(2) 0.7873(19) 0.099(8) Uani 0.471(5) 1 d PDU A 2 
H26D H 1.2216 0.2464 0.7869 0.149 Uiso 0.471(5) 1 calc PR A 2 
H26E H 1.0459 0.2299 0.7365 0.149 Uiso 0.471(5) 1 calc PR A 2 
H26F H 1.0809 0.1850 0.8034 0.149 Uiso 0.471(5) 1 calc PR A 2 
C27' C 1.133(8) 0.357(2) 0.9195(18) 0.122(7) Uani 0.471(5) 1 d PDU A 2 
H27C H 1.0751 0.4083 0.9495 0.147 Uiso 0.471(5) 1 calc PR A 2 
H27D H 1.2423 0.3809 0.9157 0.147 Uiso 0.471(5) 1 calc PR A 2 
C28' C 1.156(3) 0.2882(12) 0.9627(9) 0.168(9) Uani 0.471(5) 1 d PDU A 2 
H28D H 1.1963 0.3195 1.0155 0.252 Uiso 0.471(5) 1 calc PR A 2 
H28E H 1.2352 0.2448 0.9409 0.252 Uiso 0.471(5) 1 calc PR A 2 
H28F H 1.0505 0.2558 0.9595 0.252 Uiso 0.471(5) 1 calc PR A 2 
C29 C 0.7586(12) 0.4537(8) 0.8686(9) 0.081(2) Uani 0.790(14) 1 d PDU A 1 
H29 H 0.8200 0.4945 0.9162 0.097 Uiso 0.790(14) 1 calc PR A 1 
C30 C 0.6392(17) 0.5120(11) 0.8318(9) 0.112(4) Uani 0.790(14) 1 d PDU A 1 
H30A H 0.5691 0.4718 0.7882 0.169 Uiso 0.790(14) 1 calc PR A 1 
H30B H 0.7034 0.5547 0.8153 0.169 Uiso 0.790(14) 1 calc PR A 1 
H30C H 0.5707 0.5456 0.8688 0.169 Uiso 0.790(14) 1 calc PR A 1 
C31 C 0.6650(13) 0.3816(10) 0.8871(8) 0.120(3) Uani 0.790(14) 1 d PDU A 1 
H31A H 0.5883 0.3500 0.8415 0.144 Uiso 0.790(14) 1 calc PR A 1 
H31B H 0.7443 0.3369 0.8956 0.144 Uiso 0.790(14) 1 calc PR A 1 
C32 C 0.5698(18) 0.4042(15) 0.9507(6) 0.250(11) Uani 0.790(14) 1 d PDU A 1 
H32A H 0.6446 0.4238 0.9980 0.375 Uiso 0.790(14) 1 calc PR A 1 
H32B H 0.5030 0.3507 0.9495 0.375 Uiso 0.790(14) 1 calc PR A 1 
H32C H 0.4981 0.4534 0.9472 0.375 Uiso 0.790(14) 1 calc PR A 1 
C29' C 0.742(5) 0.441(3) 0.860(5) 0.081(2) Uani 0.210(14) 1 d PDU A 2 
H29' H 0.8041 0.4720 0.9107 0.097 Uiso 0.210(14) 1 calc PR A 2 
C30' C 0.606(6) 0.381(4) 0.880(4) 0.120(3) Uani 0.210(14) 1 d PDU A 2 
H30D H 0.6385 0.3181 0.8681 0.180 Uiso 0.210(14) 1 calc PR A 2 
H30E H 0.5007 0.3839 0.8508 0.180 Uiso 0.210(14) 1 calc PR A 2 
H30F H 0.5968 0.4042 0.9340 0.180 Uiso 0.210(14) 1 calc PR A 2 
C31' C 0.671(9) 0.520(4) 0.839(4) 0.112(4) Uani 0.210(14) 1 d PDU A 2 
H31C H 0.6142 0.4979 0.7867 0.135 Uiso 0.210(14) 1 calc PR A 2 
H31D H 0.7604 0.5635 0.8403 0.135 Uiso 0.210(14) 1 calc PR A 2 
C32' C 0.550(5) 0.568(3) 0.890(3) 0.19(3) Uani 0.210(14) 1 d PDU A 2 
H32D H 0.5119 0.6207 0.8755 0.286 Uiso 0.210(14) 1 calc PR A 2 
H32E H 0.6033 0.5877 0.9426 0.286 Uiso 0.210(14) 1 calc PR A 2 
H32F H 0.4555 0.5262 0.8862 0.286 Uiso 0.210(14) 1 calc PR A 2 
C33 C 1.0378(6) 0.4903(3) 0.7824(3) 0.0876(14) Uani 1 1 d D A . 
H33 H 0.9572 0.5228 0.7566 0.105 Uiso 1 1 calc R . . 
C34 C 1.1583(7) 0.4489(4) 0.7228(3) 0.0984(17) Uani 1 1 d D . . 
H34A H 1.2129 0.4980 0.7100 0.148 Uiso 1 1 calc R A . 
H34B H 1.0958 0.4078 0.6773 0.148 Uiso 1 1 calc R . . 
H34C H 1.2407 0.4152 0.7443 0.148 Uiso 1 1 calc R . . 
C35 C 1.1180(10) 0.5621(4) 0.8512(4) 0.129(3) Uani 1 1 d D . . 
H35A H 1.2039 0.5349 0.8783 0.154 Uiso 1 1 calc R A . 
H35B H 1.0351 0.5851 0.8854 0.154 Uiso 1 1 calc R . . 
C36 C 1.1960(13) 0.6422(5) 0.8312(6) 0.180(4) Uani 1 1 d D A . 
H36A H 1.2955 0.6230 0.8082 0.269 Uiso 1 1 calc R . . 
H36B H 1.2242 0.6931 0.8770 0.269 Uiso 1 1 calc R . . 
H36C H 1.1177 0.6611 0.7956 0.269 Uiso 1 1 calc R . . 
C37 C 0.3763(4) 0.1434(2) 0.35588(18) 0.0405(7) Uani 1 1 d . . . 
C38 C 0.3103(4) 0.1138(2) 0.29240(18) 0.0464(7) Uani 1 1 d . A . 
C39 C -0.0119(5) 0.0499(3) 0.1994(2) 0.0723(11) Uani 1 1 d D A . 
H39 H -0.0159 -0.0008 0.2224 0.087 Uiso 1 1 calc R . . 
C40 C -0.1150(7) 0.0152(6) 0.1214(3) 0.124(3) Uani 1 1 d D . . 
H40A H -0.2239 -0.0065 0.1268 0.186 Uiso 1 1 calc R A . 
H40B H -0.0606 -0.0346 0.0891 0.186 Uiso 1 1 calc R . . 
H40C H -0.1261 0.0647 0.0986 0.186 Uiso 1 1 calc R . . 
C41 C -0.0861(5) 0.1292(4) 0.2518(3) 0.0770(12) Uani 1 1 d D . . 
H41A H -0.0057 0.1557 0.2973 0.092 Uiso 1 1 calc R A . 
H41B H -0.1072 0.1764 0.2263 0.092 Uiso 1 1 calc R . . 
C42 C -0.2433(6) 0.1039(5) 0.2757(3) 0.1054(19) Uani 1 1 d D A . 
H42A H -0.3223 0.0754 0.2310 0.158 Uiso 1 1 calc R . . 
H42B H -0.2885 0.1585 0.3067 0.158 Uiso 1 1 calc R . . 
H42C H -0.2217 0.0612 0.3050 0.158 Uiso 1 1 calc R . . 
C43 C 0.319(2) -0.0269(8) 0.1450(6) 0.081(3) Uani 0.529(5) 1 d PDU A 1 
H43 H 0.4355 -0.0028 0.1523 0.097 Uiso 0.529(5) 1 calc PR A 1 
C44 C 0.327(2) -0.0967(9) 0.1922(8) 0.099(3) Uani 0.529(5) 1 d PDU A 1 
H44A H 0.2430 -0.1460 0.1687 0.149 Uiso 0.529(5) 1 calc PR A 1 
H44B H 0.3062 -0.0657 0.2437 0.149 Uiso 0.529(5) 1 calc PR A 1 
H44C H 0.4354 -0.1218 0.1933 0.149 Uiso 0.529(5) 1 calc PR A 1 
C45 C 0.283(2) -0.0667(11) 0.0636(7) 0.132(4) Uani 0.529(5) 1 d PDU A 1 
H45A H 0.2770 -0.0172 0.0399 0.159 Uiso 0.529(5) 1 calc PR A 1 
H45B H 0.1739 -0.0991 0.0518 0.159 Uiso 0.529(5) 1 calc PR A 1 
C46 C 0.408(3) -0.1326(15) 0.0286(12) 0.185(6) Uani 0.529(5) 1 d PDU A 1 
H46A H 0.5027 -0.0984 0.0212 0.277 Uiso 0.529(5) 1 calc PR A 1 
H46B H 0.3578 -0.1730 -0.0201 0.277 Uiso 0.529(5) 1 calc PR A 1 
H46C H 0.4445 -0.1686 0.0622 0.277 Uiso 0.529(5) 1 calc PR A 1 
C43' C 0.307(3) -0.0507(9) 0.1598(7) 0.081(3) Uani 0.471(5) 1 d PDU A 2 
H43' H 0.4243 -0.0387 0.1555 0.097 Uiso 0.471(5) 1 calc PR A 2 
C44' C 0.308(3) -0.1104(11) 0.2201(8) 0.099(3) Uani 0.471(5) 1 d PDU A 2 
H44D H 0.1950 -0.1290 0.2229 0.149 Uiso 0.471(5) 1 calc PR A 2 
H44E H 0.3584 -0.0732 0.2701 0.149 Uiso 0.471(5) 1 calc PR A 2 
H44F H 0.3708 -0.1644 0.2032 0.149 Uiso 0.471(5) 1 calc PR A 2 
C45' C 0.230(2) -0.1018(12) 0.0829(8) 0.132(4) Uani 0.471(5) 1 d PDU A 2 
H45C H 0.2156 -0.0596 0.0520 0.159 Uiso 0.471(5) 1 calc PR A 2 
H45D H 0.1195 -0.1259 0.0858 0.159 Uiso 0.471(5) 1 calc PR A 2 
C46' C 0.330(3) -0.1804(15) 0.0438(14) 0.185(6) Uani 0.471(5) 1 d PDU A 2 
H46D H 0.4434 -0.1585 0.0468 0.277 Uiso 0.471(5) 1 calc PR A 2 
H46E H 0.2826 -0.2053 -0.0091 0.277 Uiso 0.471(5) 1 calc PR A 2 
H46F H 0.3272 -0.2279 0.0688 0.277 Uiso 0.471(5) 1 calc PR A 2 
C47 C 0.239(2) 0.1713(12) 0.1533(8) 0.099(3) Uani 0.529(5) 1 d PDU A 1 
H47 H 0.1707 0.2190 0.1818 0.119 Uiso 0.529(5) 1 calc PR A 1 
C48 C 0.4199(18) 0.2154(11) 0.1765(9) 0.138(5) Uani 0.529(5) 1 d PDU A 1 
H48A H 0.4983 0.1681 0.1625 0.207 Uiso 0.529(5) 1 calc PR A 1 
H48B H 0.4388 0.2445 0.2311 0.207 Uiso 0.529(5) 1 calc PR A 1 
H48C H 0.4343 0.2608 0.1504 0.207 Uiso 0.529(5) 1 calc PR A 1 
C49 C 0.168(2) 0.1534(10) 0.0760(7) 0.132(3) Uani 0.529(5) 1 d PDU A 1 
H49A H 0.0511 0.1340 0.0725 0.158 Uiso 0.529(5) 1 calc PR A 1 
H49B H 0.2220 0.1010 0.0456 0.158 Uiso 0.529(5) 1 calc PR A 1 
C50 C 0.174(3) 0.2272(12) 0.0393(10) 0.164(4) Uani 0.529(5) 1 d PDU A 1 
H50A H 0.1149 0.2788 0.0664 0.247 Uiso 0.529(5) 1 calc PR A 1 
H50B H 0.1222 0.2045 -0.0131 0.247 Uiso 0.529(5) 1 calc PR A 1 
H50C H 0.2883 0.2467 0.0406 0.247 Uiso 0.529(5) 1 calc PR A 1 
C47' C 0.267(2) 0.1520(12) 0.1447(10) 0.099(3) Uani 0.471(5) 1 d PDU A 2 
H47' H 0.1869 0.1400 0.0979 0.119 Uiso 0.471(5) 1 calc PR A 2 
C48' C 0.242(2) 0.2542(9) 0.1958(9) 0.137(5) Uani 0.471(5) 1 d PDU A 2 
H48D H 0.2685 0.2972 0.1689 0.205 Uiso 0.471(5) 1 calc PR A 2 
H48E H 0.3153 0.2677 0.2435 0.205 Uiso 0.471(5) 1 calc PR A 2 
H48F H 0.1282 0.2596 0.2058 0.205 Uiso 0.471(5) 1 calc PR A 2 
C49' C 0.433(2) 0.1427(13) 0.1205(9) 0.132(3) Uani 0.471(5) 1 d PDU A 2 
H49C H 0.4583 0.0778 0.1064 0.158 Uiso 0.471(5) 1 calc PR A 2 
H49D H 0.5150 0.1755 0.1637 0.158 Uiso 0.471(5) 1 calc PR A 2 
C50' C 0.453(3) 0.1792(15) 0.0536(11) 0.164(4) Uani 0.471(5) 1 d PDU A 2 
H50D H 0.3942 0.2351 0.0592 0.247 Uiso 0.471(5) 1 calc PR A 2 
H50E H 0.4075 0.1337 0.0065 0.247 Uiso 0.471(5) 1 calc PR A 2 
H50F H 0.5695 0.1919 0.0526 0.247 Uiso 0.471(5) 1 calc PR A 2 
 
loop_ 
 _atom_site_aniso_label 
 _atom_site_aniso_U_11 
 _atom_site_aniso_U_22 
 _atom_site_aniso_U_33 
 _atom_site_aniso_U_23 
 _atom_site_aniso_U_13 
 _atom_site_aniso_U_12 
Si1 0.0559(6) 0.0540(6) 0.0462(5) 0.0040(4) -0.0075(4) -0.0010(4) 
Si2 0.0582(6) 0.0669(6) 0.0383(5) 0.0102(4) -0.0025(4) -0.0039(4) 
F1 0.0670(13) 0.0431(10) 0.0611(13) 0.0020(9) 0.0144(10) 0.0033(9) 
F2 0.0704(14) 0.0415(10) 0.0938(17) 0.0180(10) 0.0315(12) 0.0140(9) 
F3 0.0541(12) 0.0578(12) 0.0985(17) 0.0419(12) 0.0196(11) 0.0175(9) 
F4 0.0479(11) 0.0585(12) 0.0715(14) 0.0288(10) -0.0003(10) 0.0071(9) 
F5 0.0633(12) 0.0460(10) 0.0461(11) 0.0049(8) 0.0121(9) 0.0082(8) 
F6 0.0702(13) 0.0435(10) 0.0674(13) 0.0167(9) 0.0269(10) 0.0179(9) 
F7 0.0542(12) 0.0583(11) 0.0692(13) 0.0336(10) 0.0162(10) 0.0201(9) 
F8 0.0454(10) 0.0568(11) 0.0535(11) 0.0243(9) 0.0022(8) 0.0057(8) 
C1 0.0359(15) 0.0412(15) 0.0362(15) 0.0088(12) 0.0054(12) -0.0021(11) 
C2 0.0341(15) 0.0390(15) 0.0412(16) 0.0104(12) 0.0081(12) -0.0015(11) 
C3 0.0383(16) 0.0424(16) 0.0412(16) 0.0083(12) 0.0090(12) -0.0019(12) 
C4 0.0397(16) 0.0398(16) 0.0549(19) 0.0126(13) 0.0161(14) 0.0004(12) 
C5 0.0469(18) 0.0422(17) 0.062(2) 0.0122(15) 0.0183(16) 0.0005(14) 
C6 0.0515(19) 0.0393(17) 0.078(3) 0.0191(16) 0.0274(18) 0.0080(14) 
C7 0.0424(18) 0.0517(19) 0.084(3) 0.0352(18) 0.0219(17) 0.0117(14) 
C8 0.0393(17) 0.0477(18) 0.069(2) 0.0263(16) 0.0129(15) 0.0047(13) 
C9 0.0331(15) 0.0442(17) 0.0558(19) 0.0201(14) 0.0100(13) 0.0002(12) 
C10 0.0333(15) 0.0420(16) 0.0468(17) 0.0162(13) 0.0060(12) -0.0009(12) 
C11 0.0309(14) 0.0400(15) 0.0401(15) 0.0131(12) 0.0056(11) -0.0023(11) 
C12 0.0307(14) 0.0401(15) 0.0392(15) 0.0119(12) 0.0056(11) -0.0026(11) 
C13 0.0316(14) 0.0403(15) 0.0365(15) 0.0106(11) 0.0082(11) -0.0030(11) 
C14 0.0364(15) 0.0403(15) 0.0382(15) 0.0101(12) 0.0098(12) -0.0002(12) 
C15 0.0364(15) 0.0421(16) 0.0436(16) 0.0143(12) 0.0156(12) 0.0014(12) 
C16 0.0438(17) 0.0460(17) 0.0436(17) 0.0128(13) 0.0158(13) 0.0057(13) 
C17 0.0490(18) 0.0424(16) 0.056(2) 0.0166(14) 0.0237(15) 0.0088(13) 
C18 0.0390(16) 0.0497(18) 0.063(2) 0.0302(15) 0.0197(14) 0.0128(13) 
C19 0.0385(16) 0.0526(18) 0.0483(18) 0.0226(14) 0.0122(13) 0.0029(13) 
C20 0.0313(14) 0.0444(16) 0.0462(17) 0.0183(13) 0.0133(12) 0.0030(11) 
C21 0.0338(15) 0.0457(16) 0.0365(15) 0.0127(12) 0.0059(11) -0.0009(12) 
C22 0.0324(14) 0.0410(15) 0.0392(15) 0.0126(12) 0.0094(12) -0.0010(11) 
C23 0.0418(17) 0.0450(17) 0.0444(18) 0.0090(13) 0.0065(14) 0.0045(13) 
C24 0.0529(19) 0.0488(18) 0.0461(19) 0.0064(14) -0.0015(15) 0.0039(14) 
C25 0.099(9) 0.072(9) 0.060(3) 0.011(4) -0.016(4) 0.008(8) 
C26 0.132(19) 0.112(5) 0.093(4) 0.011(4) -0.056(6) 0.032(7) 
C27 0.127(13) 0.093(13) 0.087(4) 0.039(6) 0.015(5) 0.051(13) 
C28 0.096(7) 0.075(5) 0.078(6) 0.029(4) 0.011(5) 0.025(4) 
C25' 0.099(9) 0.072(9) 0.060(3) 0.011(4) -0.016(4) 0.008(8) 
C26' 0.127(13) 0.093(13) 0.087(4) 0.039(6) 0.015(5) 0.051(13) 
C27' 0.132(19) 0.112(5) 0.093(4) 0.011(4) -0.056(6) 0.032(7) 
C28' 0.24(2) 0.130(12) 0.107(11) 0.031(9) -0.078(13) 0.027(13) 
C29 0.070(4) 0.090(5) 0.055(5) -0.018(4) -0.002(3) -0.012(3) 
C30 0.068(7) 0.108(5) 0.129(7) -0.011(4) 0.007(6) 0.019(5) 
C31 0.079(7) 0.168(7) 0.113(6) 0.032(5) 0.040(7) -0.010(7) 
C32 0.193(14) 0.42(3) 0.108(9) 0.035(12) 0.045(8) -0.114(16) 
C29' 0.070(4) 0.090(5) 0.055(5) -0.018(4) -0.002(3) -0.012(3) 
C30' 0.079(7) 0.168(7) 0.113(6) 0.032(5) 0.040(7) -0.010(7) 
C31' 0.068(7) 0.108(5) 0.129(7) -0.011(4) 0.007(6) 0.019(5) 
C32' 0.08(2) 0.19(4) 0.25(5) -0.03(4) 0.04(3) 0.04(2) 
C33 0.081(3) 0.077(3) 0.094(4) 0.015(3) -0.003(3) -0.016(2) 
C34 0.085(3) 0.117(4) 0.085(4) 0.016(3) 0.016(3) -0.022(3) 
C35 0.134(6) 0.086(4) 0.138(6) 0.001(4) -0.003(5) -0.042(4) 
C36 0.172(8) 0.091(5) 0.252(12) 0.022(6) 0.015(8) -0.052(5) 
C37 0.0379(15) 0.0389(15) 0.0436(17) 0.0110(12) 0.0046(13) -0.0005(12) 
C38 0.0472(17) 0.0457(17) 0.0442(18) 0.0120(13) 0.0015(14) -0.0016(13) 
C39 0.067(3) 0.084(3) 0.058(2) 0.014(2) -0.0066(19) -0.005(2) 
C40 0.080(4) 0.184(7) 0.077(4) 0.003(4) -0.012(3) -0.008(4) 
C41 0.059(2) 0.105(4) 0.063(3) 0.022(2) 0.0015(19) 0.009(2) 
C42 0.067(3) 0.141(5) 0.091(4) 0.012(4) 0.003(3) 0.004(3) 
C43 0.089(4) 0.072(5) 0.080(4) 0.018(3) 0.013(4) 0.007(5) 
C44 0.120(5) 0.063(4) 0.113(6) 0.018(4) 0.033(5) 0.015(4) 
C45 0.146(7) 0.134(7) 0.097(5) 0.003(4) 0.015(5) 0.012(5) 
C46 0.190(8) 0.177(8) 0.166(7) 0.005(5) 0.055(6) 0.026(6) 
C43' 0.089(4) 0.072(5) 0.080(4) 0.018(3) 0.013(4) 0.007(5) 
C44' 0.120(5) 0.063(4) 0.113(6) 0.018(4) 0.033(5) 0.015(4) 
C45' 0.146(7) 0.134(7) 0.097(5) 0.003(4) 0.015(5) 0.012(5) 
C46' 0.190(8) 0.177(8) 0.166(7) 0.005(5) 0.055(6) 0.026(6) 
C47 0.119(5) 0.112(6) 0.075(4) 0.044(4) 0.006(3) -0.015(4) 
C48 0.150(8) 0.132(8) 0.144(8) 0.064(7) 0.012(6) -0.038(7) 
C49 0.152(6) 0.139(6) 0.109(5) 0.050(4) 0.004(4) -0.009(5) 
C50 0.190(8) 0.183(7) 0.147(6) 0.086(6) 0.034(5) -0.003(6) 
C47' 0.119(5) 0.112(6) 0.075(4) 0.044(4) 0.006(3) -0.015(4) 
C48' 0.184(10) 0.096(6) 0.160(9) 0.078(6) 0.039(8) 0.000(6) 
C49' 0.152(6) 0.139(6) 0.109(5) 0.050(4) 0.004(4) -0.009(5) 
C50' 0.190(8) 0.183(7) 0.147(6) 0.086(6) 0.034(5) -0.003(6) 
 
_geom_special_details 
; 
 All esds (except the esd in the dihedral angle between two l.s. planes) 
 are estimated using the full covariance matrix.  The cell esds are taken 
 into account individually in the estimation of esds in distances, angles 
 and torsion angles; correlations between esds in cell parameters are only 
 used when they are defined by crystal symmetry.  An approximate (isotropic) 
 treatment of cell esds is used for estimating esds involving l.s. planes. 
; 
 
loop_ 
 _geom_bond_atom_site_label_1 
 _geom_bond_atom_site_label_2 
 _geom_bond_distance 
 _geom_bond_site_symmetry_2 
 _geom_bond_publ_flag 
Si1 C25' 1.85(3) . ? 
Si1 C24 1.852(3) . ? 
Si1 C29' 1.87(5) . ? 
Si1 C33 1.877(5) . ? 
Si1 C29 1.900(13) . ? 
Si1 C25 1.91(3) . ? 
Si2 C47' 1.827(19) . ? 
Si2 C43 1.834(15) . ? 
Si2 C38 1.849(3) . ? 
Si2 C39 1.886(5) . ? 
Si2 C47 1.923(18) . ? 
Si2 C43' 2.015(17) . ? 
F1 C5 1.338(4) . ? 
F2 C6 1.341(4) . ? 
F3 C7 1.347(4) . ? 
F4 C8 1.347(4) . ? 
F5 C16 1.335(4) . ? 
F6 C17 1.340(4) . ? 
F7 C18 1.346(4) . ? 
F8 C19 1.346(4) . ? 
C1 C22 1.415(4) . ? 
C1 C2 1.419(4) . ? 
C1 C23 1.427(4) . ? 
C2 C3 1.397(4) . ? 
C2 C11 1.443(4) . ? 
C3 C4 1.381(5) . ? 
C3 H3 0.9500 . ? 
C4 C5 1.420(5) . ? 
C4 C9 1.444(5) . ? 
C5 C6 1.350(5) . ? 
C6 C7 1.418(6) . ? 
C7 C8 1.341(5) . ? 
C8 C9 1.428(5) . ? 
C9 C10 1.375(5) . ? 
C10 C11 1.412(4) . ? 
C10 H10 0.9500 . ? 
C11 C12 1.419(4) . ? 
C12 C13 1.416(4) . ? 
C12 C37 1.430(4) . ? 
C13 C14 1.410(4) . ? 
C13 C22 1.438(4) . ? 
C14 C15 1.383(4) . ? 
C14 H14 0.9500 . ? 
C15 C16 1.421(4) . ? 
C15 C20 1.444(4) . ? 
C16 C17 1.354(5) . ? 
C17 C18 1.412(5) . ? 
C18 C19 1.349(5) . ? 
C19 C20 1.425(4) . ? 
C20 C21 1.379(4) . ? 
C21 C22 1.407(4) . ? 
C21 H21 0.9500 . ? 
C23 C24 1.194(5) . ? 
C25 C27 1.468(16) . ? 
C25 C26 1.575(13) . ? 
C25 H25 1.0000 . ? 
C26 H26A 0.9800 . ? 
C26 H26B 0.9800 . ? 
C26 H26C 0.9800 . ? 
C27 C28 1.518(16) . ? 
C27 H27A 0.9900 . ? 
C27 H27B 0.9900 . ? 
C28 H28A 0.9800 . ? 
C28 H28B 0.9800 . ? 
C28 H28C 0.9800 . ? 
C25' C27' 1.465(15) . ? 
C25' C26' 1.574(15) . ? 
C25' H25' 1.0000 . ? 
C26' H26D 0.9800 . ? 
C26' H26E 0.9800 . ? 
C26' H26F 0.9800 . ? 
C27' C28' 1.514(17) . ? 
C27' H27C 0.9900 . ? 
C27' H27D 0.9900 . ? 
C28' H28D 0.9800 . ? 
C28' H28E 0.9800 . ? 
C28' H28F 0.9800 . ? 
C29 C31 1.491(10) . ? 
C29 C30 1.573(10) . ? 
C29 H29 1.0000 . ? 
C30 H30A 0.9800 . ? 
C30 H30B 0.9800 . ? 
C30 H30C 0.9800 . ? 
C31 C32 1.465(12) . ? 
C31 H31A 0.9900 . ? 
C31 H31B 0.9900 . ? 
C32 H32A 0.9800 . ? 
C32 H32B 0.9800 . ? 
C32 H32C 0.9800 . ? 
C29' C31' 1.482(17) . ? 
C29' C30' 1.593(17) . ? 
C29' H29' 1.0000 . ? 
C30' H30D 0.9800 . ? 
C30' H30E 0.9800 . ? 
C30' H30F 0.9800 . ? 
C31' C32' 1.518(17) . ? 
C31' H31C 0.9900 . ? 
C31' H31D 0.9900 . ? 
C32' H32D 0.9800 . ? 
C32' H32E 0.9800 . ? 
C32' H32F 0.9800 . ? 
C33 C35 1.502(7) . ? 
C33 C34 1.583(7) . ? 
C33 H33 1.0000 . ? 
C34 H34A 0.9800 . ? 
C34 H34B 0.9800 . ? 
C34 H34C 0.9800 . ? 
C35 C36 1.548(9) . ? 
C35 H35A 0.9900 . ? 
C35 H35B 0.9900 . ? 
C36 H36A 0.9800 . ? 
C36 H36B 0.9800 . ? 
C36 H36C 0.9800 . ? 
C37 C38 1.198(5) . ? 
C39 C41 1.515(6) . ? 
C39 C40 1.539(6) . ? 
C39 H39 1.0000 . ? 
C40 H40A 0.9800 . ? 
C40 H40B 0.9800 . ? 
C40 H40C 0.9800 . ? 
C41 C42 1.502(7) . ? 
C41 H41A 0.9900 . ? 
C41 H41B 0.9900 . ? 
C42 H42A 0.9800 . ? 
C42 H42B 0.9800 . ? 
C42 H42C 0.9800 . ? 
C43 C45 1.458(12) . ? 
C43 C44 1.581(11) . ? 
C43 H43 1.0000 . ? 
C44 H44A 0.9800 . ? 
C44 H44B 0.9800 . ? 
C44 H44C 0.9800 . ? 
C45 C46 1.525(13) . ? 
C45 H45A 0.9900 . ? 
C45 H45B 0.9900 . ? 
C46 H46A 0.9800 . ? 
C46 H46B 0.9800 . ? 
C46 H46C 0.9800 . ? 
C43' C45' 1.481(13) . ? 
C43' C44' 1.656(12) . ? 
C43' H43' 1.0000 . ? 
C44' H44D 0.9800 . ? 
C44' H44E 0.9800 . ? 
C44' H44F 0.9800 . ? 
C45' C46' 1.529(14) . ? 
C45' H45C 0.9900 . ? 
C45' H45D 0.9900 . ? 
C46' H46D 0.9800 . ? 
C46' H46E 0.9800 . ? 
C46' H46F 0.9800 . ? 
C47 C49 1.439(14) . ? 
C47 C48 1.582(14) . ? 
C47 H47 1.0000 . ? 
C48 H48A 0.9800 . ? 
C48 H48B 0.9800 . ? 
C48 H48C 0.9800 . ? 
C49 C50 1.499(13) . ? 
C49 H49A 0.9900 . ? 
C49 H49B 0.9900 . ? 
C50 H50A 0.9800 . ? 
C50 H50B 0.9800 . ? 
C50 H50C 0.9800 . ? 
C47' C49' 1.487(14) . ? 
C47' C48' 1.618(14) . ? 
C47' H47' 1.0000 . ? 
C48' H48D 0.9800 . ? 
C48' H48E 0.9800 . ? 
C48' H48F 0.9800 . ? 
C49' C50' 1.541(14) . ? 
C49' H49C 0.9900 . ? 
C49' H49D 0.9900 . ? 
C50' H50D 0.9800 . ? 
C50' H50E 0.9800 . ? 
C50' H50F 0.9800 . ? 
 
loop_ 
 _geom_angle_atom_site_label_1 
 _geom_angle_atom_site_label_2 
 _geom_angle_atom_site_label_3 
 _geom_angle 
 _geom_angle_site_symmetry_1 
 _geom_angle_site_symmetry_3 
 _geom_angle_publ_flag 
C25' Si1 C24 111.8(11) . . ? 
C25' Si1 C29' 111(2) . . ? 
C24 Si1 C29' 101(2) . . ? 
C25' Si1 C33 112.0(18) . . ? 
C24 Si1 C33 105.3(2) . . ? 
C29' Si1 C33 115.6(15) . . ? 
C25' Si1 C29 110.0(14) . . ? 
C24 Si1 C29 107.3(4) . . ? 
C29' Si1 C29 7(2) . . ? 
C33 Si1 C29 110.3(4) . . ? 
C25' Si1 C25 8(3) . . ? 
C24 Si1 C25 105.4(10) . . ? 
C29' Si1 C25 108(2) . . ? 
C33 Si1 C25 119.7(15) . . ? 
C29 Si1 C25 108.0(12) . . ? 
C47' Si2 C43 99.9(6) . . ? 
C47' Si2 C38 108.2(6) . . ? 
C43 Si2 C38 108.1(4) . . ? 
C47' Si2 C39 119.0(6) . . ? 
C43 Si2 C39 115.8(5) . . ? 
C38 Si2 C39 105.37(17) . . ? 
C47' Si2 C47 11.5(9) . . ? 
C43 Si2 C47 111.4(6) . . ? 
C38 Si2 C47 104.8(4) . . ? 
C39 Si2 C47 110.7(5) . . ? 
C47' Si2 C43' 115.0(7) . . ? 
C43 Si2 C43' 15.1(6) . . ? 
C38 Si2 C43' 101.0(4) . . ? 
C39 Si2 C43' 106.3(6) . . ? 
C47 Si2 C43' 126.5(7) . . ? 
C22 C1 C2 120.8(3) . . ? 
C22 C1 C23 120.0(3) . . ? 
C2 C1 C23 119.2(3) . . ? 
C3 C2 C1 121.9(3) . . ? 
C3 C2 C11 118.7(3) . . ? 
C1 C2 C11 119.4(3) . . ? 
C4 C3 C2 122.2(3) . . ? 
C4 C3 H3 118.9 . . ? 
C2 C3 H3 118.9 . . ? 
C3 C4 C5 122.8(3) . . ? 
C3 C4 C9 119.0(3) . . ? 
C5 C4 C9 118.2(3) . . ? 
F1 C5 C6 119.9(3) . . ? 
F1 C5 C4 118.6(3) . . ? 
C6 C5 C4 121.6(3) . . ? 
F2 C6 C5 121.6(4) . . ? 
F2 C6 C7 118.3(3) . . ? 
C5 C6 C7 120.1(3) . . ? 
C8 C7 F3 121.8(4) . . ? 
C8 C7 C6 120.8(3) . . ? 
F3 C7 C6 117.3(3) . . ? 
C7 C8 F4 120.1(3) . . ? 
C7 C8 C9 121.4(4) . . ? 
F4 C8 C9 118.5(3) . . ? 
C10 C9 C8 122.2(3) . . ? 
C10 C9 C4 119.9(3) . . ? 
C8 C9 C4 117.8(3) . . ? 
C9 C10 C11 121.2(3) . . ? 
C9 C10 H10 119.4 . . ? 
C11 C10 H10 119.4 . . ? 
C10 C11 C12 121.3(3) . . ? 
C10 C11 C2 119.0(3) . . ? 
C12 C11 C2 119.7(3) . . ? 
C13 C12 C11 120.6(3) . . ? 
C13 C12 C37 120.3(3) . . ? 
C11 C12 C37 119.1(3) . . ? 
C14 C13 C12 121.1(3) . . ? 
C14 C13 C22 119.2(3) . . ? 
C12 C13 C22 119.7(3) . . ? 
C15 C14 C13 121.4(3) . . ? 
C15 C14 H14 119.3 . . ? 
C13 C14 H14 119.3 . . ? 
C14 C15 C16 122.3(3) . . ? 
C14 C15 C20 119.2(3) . . ? 
C16 C15 C20 118.4(3) . . ? 
F5 C16 C17 119.7(3) . . ? 
F5 C16 C15 118.8(3) . . ? 
C17 C16 C15 121.4(3) . . ? 
F6 C17 C16 121.5(3) . . ? 
F6 C17 C18 118.3(3) . . ? 
C16 C17 C18 120.2(3) . . ? 
F7 C18 C19 121.7(3) . . ? 
F7 C18 C17 117.6(3) . . ? 
C19 C18 C17 120.7(3) . . ? 
F8 C19 C18 120.1(3) . . ? 
F8 C19 C20 118.2(3) . . ? 
C18 C19 C20 121.6(3) . . ? 
C21 C20 C19 122.6(3) . . ? 
C21 C20 C15 119.8(3) . . ? 
C19 C20 C15 117.6(3) . . ? 
C20 C21 C22 121.5(3) . . ? 
C20 C21 H21 119.2 . . ? 
C22 C21 H21 119.2 . . ? 
C21 C22 C1 121.3(3) . . ? 
C21 C22 C13 118.9(3) . . ? 
C1 C22 C13 119.8(3) . . ? 
C24 C23 C1 178.2(4) . . ? 
C23 C24 Si1 175.8(3) . . ? 
C27 C25 C26 118.0(18) . . ? 
C27 C25 Si1 111.3(19) . . ? 
C26 C25 Si1 104.7(18) . . ? 
C27 C25 H25 107.5 . . ? 
C26 C25 H25 107.5 . . ? 
Si1 C25 H25 107.5 . . ? 
C25 C27 C28 114.5(19) . . ? 
C25 C27 H27A 108.6 . . ? 
C28 C27 H27A 108.6 . . ? 
C25 C27 H27B 108.6 . . ? 
C28 C27 H27B 108.6 . . ? 
H27A C27 H27B 107.6 . . ? 
C27' C25' C26' 117.1(17) . . ? 
C27' C25' Si1 122(2) . . ? 
C26' C25' Si1 117.5(17) . . ? 
C27' C25' H25' 96.1 . . ? 
C26' C25' H25' 96.1 . . ? 
Si1 C25' H25' 96.1 . . ? 
C25' C26' H26D 109.5 . . ? 
C25' C26' H26E 109.5 . . ? 
H26D C26' H26E 109.5 . . ? 
C25' C26' H26F 109.5 . . ? 
H26D C26' H26F 109.5 . . ? 
H26E C26' H26F 109.5 . . ? 
C25' C27' C28' 117(2) . . ? 
C25' C27' H27C 108.1 . . ? 
C28' C27' H27C 108.1 . . ? 
C25' C27' H27D 108.1 . . ? 
C28' C27' H27D 108.1 . . ? 
H27C C27' H27D 107.3 . . ? 
C27' C28' H28D 109.5 . . ? 
C27' C28' H28E 109.5 . . ? 
H28D C28' H28E 109.5 . . ? 
C27' C28' H28F 109.5 . . ? 
H28D C28' H28F 109.5 . . ? 
H28E C28' H28F 109.5 . . ? 
C31 C29 C30 110.8(8) . . ? 
C31 C29 Si1 109.8(8) . . ? 
C30 C29 Si1 110.4(9) . . ? 
C31 C29 H29 108.6 . . ? 
C30 C29 H29 108.6 . . ? 
Si1 C29 H29 108.6 . . ? 
C32 C31 C29 120.8(13) . . ? 
C32 C31 H31A 107.1 . . ? 
C29 C31 H31A 107.1 . . ? 
C32 C31 H31B 107.1 . . ? 
C29 C31 H31B 107.1 . . ? 
H31A C31 H31B 106.8 . . ? 
C31' C29' C30' 112(2) . . ? 
C31' C29' Si1 109(3) . . ? 
C30' C29' Si1 127(3) . . ? 
C31' C29' H29' 101.7 . . ? 
C30' C29' H29' 101.7 . . ? 
Si1 C29' H29' 101.7 . . ? 
C29' C30' H30D 109.5 . . ? 
C29' C30' H30E 109.5 . . ? 
H30D C30' H30E 109.5 . . ? 
C29' C30' H30F 109.5 . . ? 
H30D C30' H30F 109.5 . . ? 
H30E C30' H30F 109.5 . . ? 
C29' C31' C32' 113(2) . . ? 
C29' C31' H31C 108.9 . . ? 
C32' C31' H31C 108.9 . . ? 
C29' C31' H31D 108.9 . . ? 
C32' C31' H31D 108.9 . . ? 
H31C C31' H31D 107.7 . . ? 
C31' C32' H32D 109.5 . . ? 
C31' C32' H32E 109.5 . . ? 
H32D C32' H32E 109.5 . . ? 
C31' C32' H32F 109.5 . . ? 
H32D C32' H32F 109.5 . . ? 
H32E C32' H32F 109.5 . . ? 
C35 C33 C34 113.9(5) . . ? 
C35 C33 Si1 114.5(4) . . ? 
C34 C33 Si1 112.2(4) . . ? 
C35 C33 H33 105.0 . . ? 
C34 C33 H33 105.0 . . ? 
Si1 C33 H33 105.0 . . ? 
C33 C34 H34A 109.5 . . ? 
C33 C34 H34B 109.5 . . ? 
H34A C34 H34B 109.5 . . ? 
C33 C34 H34C 109.5 . . ? 
H34A C34 H34C 109.5 . . ? 
H34B C34 H34C 109.5 . . ? 
C33 C35 C36 112.0(7) . . ? 
C33 C35 H35A 109.2 . . ? 
C36 C35 H35A 109.2 . . ? 
C33 C35 H35B 109.2 . . ? 
C36 C35 H35B 109.2 . . ? 
H35A C35 H35B 107.9 . . ? 
C35 C36 H36A 109.5 . . ? 
C35 C36 H36B 109.5 . . ? 
H36A C36 H36B 109.5 . . ? 
C35 C36 H36C 109.5 . . ? 
H36A C36 H36C 109.5 . . ? 
H36B C36 H36C 109.5 . . ? 
C38 C37 C12 178.0(3) . . ? 
C37 C38 Si2 177.8(3) . . ? 
C41 C39 C40 112.4(4) . . ? 
C41 C39 Si2 113.2(3) . . ? 
C40 C39 Si2 112.7(4) . . ? 
C41 C39 H39 105.9 . . ? 
C40 C39 H39 105.9 . . ? 
Si2 C39 H39 105.9 . . ? 
C39 C40 H40A 109.5 . . ? 
C39 C40 H40B 109.5 . . ? 
H40A C40 H40B 109.5 . . ? 
C39 C40 H40C 109.5 . . ? 
H40A C40 H40C 109.5 . . ? 
H40B C40 H40C 109.5 . . ? 
C42 C41 C39 113.5(5) . . ? 
C42 C41 H41A 108.9 . . ? 
C39 C41 H41A 108.9 . . ? 
C42 C41 H41B 108.9 . . ? 
C39 C41 H41B 108.9 . . ? 
H41A C41 H41B 107.7 . . ? 
C41 C42 H42A 109.5 . . ? 
C41 C42 H42B 109.5 . . ? 
H42A C42 H42B 109.5 . . ? 
C41 C42 H42C 109.5 . . ? 
H42A C42 H42C 109.5 . . ? 
H42B C42 H42C 109.5 . . ? 
C45 C43 C44 115.4(11) . . ? 
C45 C43 Si2 120.3(11) . . ? 
C44 C43 Si2 108.6(9) . . ? 
C45 C43 H43 103.4 . . ? 
C44 C43 H43 103.4 . . ? 
Si2 C43 H43 103.4 . . ? 
C43 C45 C46 114.4(13) . . ? 
C43 C45 H45A 108.7 . . ? 
C46 C45 H45A 108.7 . . ? 
C43 C45 H45B 108.7 . . ? 
C46 C45 H45B 108.7 . . ? 
H45A C45 H45B 107.6 . . ? 
C45' C43' C44' 112.9(12) . . ? 
C45' C43' Si2 110.5(11) . . ? 
C44' C43' Si2 114.7(10) . . ? 
C45' C43' H43' 106.0 . . ? 
C44' C43' H43' 106.0 . . ? 
Si2 C43' H43' 106.0 . . ? 
C43' C44' H44D 109.5 . . ? 
C43' C44' H44E 109.5 . . ? 
H44D C44' H44E 109.5 . . ? 
C43' C44' H44F 109.5 . . ? 
H44D C44' H44F 109.5 . . ? 
H44E C44' H44F 109.5 . . ? 
C43' C45' C46' 113.3(14) . . ? 
C43' C45' H45C 108.9 . . ? 
C46' C45' H45C 108.9 . . ? 
C43' C45' H45D 108.9 . . ? 
C46' C45' H45D 108.9 . . ? 
H45C C45' H45D 107.7 . . ? 
C45' C46' H46D 109.5 . . ? 
C45' C46' H46E 109.5 . . ? 
H46D C46' H46E 109.5 . . ? 
C45' C46' H46F 109.5 . . ? 
H46D C46' H46F 109.5 . . ? 
H46E C46' H46F 109.5 . . ? 
C49 C47 C48 117.8(12) . . ? 
C49 C47 Si2 114.1(10) . . ? 
C48 C47 Si2 111.2(11) . . ? 
C49 C47 H47 104.0 . . ? 
C48 C47 H47 104.0 . . ? 
Si2 C47 H47 104.0 . . ? 
C47 C49 C50 119.2(13) . . ? 
C47 C49 H49A 107.5 . . ? 
C50 C49 H49A 107.5 . . ? 
C47 C49 H49B 107.5 . . ? 
C50 C49 H49B 107.5 . . ? 
H49A C49 H49B 107.0 . . ? 
C49' C47' C48' 111.7(14) . . ? 
C49' C47' Si2 115.0(13) . . ? 
C48' C47' Si2 109.2(10) . . ? 
C49' C47' H47' 106.8 . . ? 
C48' C47' H47' 106.8 . . ? 
Si2 C47' H47' 106.8 . . ? 
C47' C48' H48D 109.5 . . ? 
C47' C48' H48E 109.5 . . ? 
H48D C48' H48E 109.5 . . ? 
C47' C48' H48F 109.5 . . ? 
H48D C48' H48F 109.5 . . ? 
H48E C48' H48F 109.5 . . ? 
C47' C49' C50' 114.1(14) . . ? 
C47' C49' H49C 108.7 . . ? 
C50' C49' H49C 108.7 . . ? 
C47' C49' H49D 108.7 . . ? 
C50' C49' H49D 108.7 . . ? 
H49C C49' H49D 107.6 . . ? 
C49' C50' H50D 109.5 . . ? 
C49' C50' H50E 109.5 . . ? 
H50D C50' H50E 109.5 . . ? 
C49' C50' H50F 109.5 . . ? 
H50D C50' H50F 109.5 . . ? 
H50E C50' H50F 109.5 . . ? 
 
loop_ 
 _geom_torsion_atom_site_label_1 
 _geom_torsion_atom_site_label_2 
 _geom_torsion_atom_site_label_3 
 _geom_torsion_atom_site_label_4 
 _geom_torsion 
 _geom_torsion_site_symmetry_1 
 _geom_torsion_site_symmetry_2 
 _geom_torsion_site_symmetry_3 
 _geom_torsion_site_symmetry_4 
 _geom_torsion_publ_flag 
C22 C1 C2 C3 179.5(3) . . . . ? 
C23 C1 C2 C3 -1.4(4) . . . . ? 
C22 C1 C2 C11 -1.0(4) . . . . ? 
C23 C1 C2 C11 178.1(3) . . . . ? 
C1 C2 C3 C4 179.4(3) . . . . ? 
C11 C2 C3 C4 -0.1(5) . . . . ? 
C2 C3 C4 C5 -178.9(3) . . . . ? 
C2 C3 C4 C9 0.9(5) . . . . ? 
C3 C4 C5 F1 0.9(5) . . . . ? 
C9 C4 C5 F1 -178.9(3) . . . . ? 
C3 C4 C5 C6 -179.7(3) . . . . ? 
C9 C4 C5 C6 0.5(5) . . . . ? 
F1 C5 C6 F2 -0.5(5) . . . . ? 
C4 C5 C6 F2 -179.9(3) . . . . ? 
F1 C5 C6 C7 179.2(3) . . . . ? 
C4 C5 C6 C7 -0.2(5) . . . . ? 
F2 C6 C7 C8 179.8(3) . . . . ? 
C5 C6 C7 C8 0.1(5) . . . . ? 
F2 C6 C7 F3 -0.1(5) . . . . ? 
C5 C6 C7 F3 -179.8(3) . . . . ? 
F3 C7 C8 F4 0.1(5) . . . . ? 
C6 C7 C8 F4 -179.9(3) . . . . ? 
F3 C7 C8 C9 179.5(3) . . . . ? 
C6 C7 C8 C9 -0.5(5) . . . . ? 
C7 C8 C9 C10 -179.0(3) . . . . ? 
F4 C8 C9 C10 0.4(5) . . . . ? 
C7 C8 C9 C4 0.8(5) . . . . ? 
F4 C8 C9 C4 -179.8(3) . . . . ? 
C3 C4 C9 C10 -0.8(5) . . . . ? 
C5 C4 C9 C10 179.0(3) . . . . ? 
C3 C4 C9 C8 179.4(3) . . . . ? 
C5 C4 C9 C8 -0.8(4) . . . . ? 
C8 C9 C10 C11 179.7(3) . . . . ? 
C4 C9 C10 C11 -0.1(5) . . . . ? 
C9 C10 C11 C12 -178.2(3) . . . . ? 
C9 C10 C11 C2 0.9(4) . . . . ? 
C3 C2 C11 C10 -0.8(4) . . . . ? 
C1 C2 C11 C10 179.6(3) . . . . ? 
C3 C2 C11 C12 178.3(3) . . . . ? 
C1 C2 C11 C12 -1.2(4) . . . . ? 
C10 C11 C12 C13 -178.3(3) . . . . ? 
C2 C11 C12 C13 2.5(4) . . . . ? 
C10 C11 C12 C37 1.9(4) . . . . ? 
C2 C11 C12 C37 -177.3(3) . . . . ? 
C11 C12 C13 C14 178.3(3) . . . . ? 
C37 C12 C13 C14 -1.9(4) . . . . ? 
C11 C12 C13 C22 -1.6(4) . . . . ? 
C37 C12 C13 C22 178.2(3) . . . . ? 
C12 C13 C14 C15 -179.2(3) . . . . ? 
C22 C13 C14 C15 0.7(4) . . . . ? 
C13 C14 C15 C16 180.0(3) . . . . ? 
C13 C14 C15 C20 0.1(4) . . . . ? 
C14 C15 C16 F5 -0.9(4) . . . . ? 
C20 C15 C16 F5 179.0(2) . . . . ? 
C14 C15 C16 C17 -179.7(3) . . . . ? 
C20 C15 C16 C17 0.1(5) . . . . ? 
F5 C16 C17 F6 1.4(5) . . . . ? 
C15 C16 C17 F6 -179.7(3) . . . . ? 
F5 C16 C17 C18 -179.3(3) . . . . ? 
C15 C16 C17 C18 -0.4(5) . . . . ? 
F6 C17 C18 F7 0.3(4) . . . . ? 
C16 C17 C18 F7 -179.0(3) . . . . ? 
F6 C17 C18 C19 179.8(3) . . . . ? 
C16 C17 C18 C19 0.5(5) . . . . ? 
F7 C18 C19 F8 0.1(4) . . . . ? 
C17 C18 C19 F8 -179.4(3) . . . . ? 
F7 C18 C19 C20 179.2(3) . . . . ? 
C17 C18 C19 C20 -0.2(5) . . . . ? 
F8 C19 C20 C21 0.0(4) . . . . ? 
C18 C19 C20 C21 -179.2(3) . . . . ? 
F8 C19 C20 C15 179.0(2) . . . . ? 
C18 C19 C20 C15 -0.1(4) . . . . ? 
C14 C15 C20 C21 -0.9(4) . . . . ? 
C16 C15 C20 C21 179.3(3) . . . . ? 
C14 C15 C20 C19 -180.0(3) . . . . ? 
C16 C15 C20 C19 0.2(4) . . . . ? 
C19 C20 C21 C22 179.8(3) . . . . ? 
C15 C20 C21 C22 0.8(4) . . . . ? 
C20 C21 C22 C1 179.8(3) . . . . ? 
C20 C21 C22 C13 0.1(4) . . . . ? 
C2 C1 C22 C21 -177.8(3) . . . . ? 
C23 C1 C22 C21 3.1(4) . . . . ? 
C2 C1 C22 C13 1.9(4) . . . . ? 
C23 C1 C22 C13 -177.2(3) . . . . ? 
C14 C13 C22 C21 -0.8(4) . . . . ? 
C12 C13 C22 C21 179.1(2) . . . . ? 
C14 C13 C22 C1 179.4(2) . . . . ? 
C12 C13 C22 C1 -0.6(4) . . . . ? 
C22 C1 C23 C24 100(11) . . . . ? 
C2 C1 C23 C24 -79(11) . . . . ? 
C1 C23 C24 Si1 53(14) . . . . ? 
C25' Si1 C24 C23 -160(5) . . . . ? 
C29' Si1 C24 C23 82(5) . . . . ? 
C33 Si1 C24 C23 -38(5) . . . . ? 
C29 Si1 C24 C23 79(5) . . . . ? 
C25 Si1 C24 C23 -166(5) . . . . ? 
C25' Si1 C25 C27 -81(14) . . . . ? 
C24 Si1 C25 C27 60(2) . . . . ? 
C29' Si1 C25 C27 167(3) . . . . ? 
C33 Si1 C25 C27 -58(2) . . . . ? 
C29 Si1 C25 C27 174(2) . . . . ? 
C25' Si1 C25 C26 48(13) . . . . ? 
C24 Si1 C25 C26 -171(2) . . . . ? 
C29' Si1 C25 C26 -65(3) . . . . ? 
C33 Si1 C25 C26 70(3) . . . . ? 
C29 Si1 C25 C26 -57(3) . . . . ? 
C26 C25 C27 C28 57(4) . . . . ? 
Si1 C25 C27 C28 178(3) . . . . ? 
C24 Si1 C25' C27' -173(3) . . . . ? 
C29' Si1 C25' C27' -61(5) . . . . ? 
C33 Si1 C25' C27' 69(4) . . . . ? 
C29 Si1 C25' C27' -54(4) . . . . ? 
C25 Si1 C25' C27' -132(16) . . . . ? 
C24 Si1 C25' C26' 28(3) . . . . ? 
C29' Si1 C25' C26' 140(3) . . . . ? 
C33 Si1 C25' C26' -90(3) . . . . ? 
C29 Si1 C25' C26' 148(3) . . . . ? 
C25 Si1 C25' C26' 69(13) . . . . ? 
C26' C25' C27' C28' -53(5) . . . . ? 
Si1 C25' C27' C28' 148(4) . . . . ? 
C25' Si1 C29 C31 -53.4(19) . . . . ? 
C24 Si1 C29 C31 68.4(9) . . . . ? 
C29' Si1 C29 C31 44(19) . . . . ? 
C33 Si1 C29 C31 -177.4(8) . . . . ? 
C25 Si1 C29 C31 -44.8(16) . . . . ? 
C25' Si1 C29 C30 -175.8(17) . . . . ? 
C24 Si1 C29 C30 -54.0(8) . . . . ? 
C29' Si1 C29 C30 -78(20) . . . . ? 
C33 Si1 C29 C30 60.3(9) . . . . ? 
C25 Si1 C29 C30 -167.1(15) . . . . ? 
C30 C29 C31 C32 -73.5(16) . . . . ? 
Si1 C29 C31 C32 164.4(12) . . . . ? 
C25' Si1 C29' C31' 164(4) . . . . ? 
C24 Si1 C29' C31' -77(4) . . . . ? 
C33 Si1 C29' C31' 36(5) . . . . ? 
C29 Si1 C29' C31' 80(19) . . . . ? 
C25 Si1 C29' C31' 173(4) . . . . ? 
C25' Si1 C29' C30' -57(6) . . . . ? 
C24 Si1 C29' C30' 62(5) . . . . ? 
C33 Si1 C29' C30' 174(4) . . . . ? 
C29 Si1 C29' C30' -142(24) . . . . ? 
C25 Si1 C29' C30' -49(6) . . . . ? 
C30' C29' C31' C32' 44(8) . . . . ? 
Si1 C29' C31' C32' -171(5) . . . . ? 
C25' Si1 C33 C35 -70.3(11) . . . . ? 
C24 Si1 C33 C35 167.9(5) . . . . ? 
C29' Si1 C33 C35 58(3) . . . . ? 
C29 Si1 C33 C35 52.5(7) . . . . ? 
C25 Si1 C33 C35 -73.8(11) . . . . ? 
C25' Si1 C33 C34 61.6(11) . . . . ? 
C24 Si1 C33 C34 -60.2(4) . . . . ? 
C29' Si1 C33 C34 -170(3) . . . . ? 
C29 Si1 C33 C34 -175.7(6) . . . . ? 
C25 Si1 C33 C34 58.1(10) . . . . ? 
C34 C33 C35 C36 58.2(9) . . . . ? 
Si1 C33 C35 C36 -170.8(6) . . . . ? 
C13 C12 C37 C38 -122(10) . . . . ? 
C11 C12 C37 C38 57(10) . . . . ? 
C12 C37 C38 Si2 -4(17) . . . . ? 
C47' Si2 C38 C37 2(8) . . . . ? 
C43 Si2 C38 C37 109(8) . . . . ? 
C39 Si2 C38 C37 -126(8) . . . . ? 
C47 Si2 C38 C37 -10(8) . . . . ? 
C43' Si2 C38 C37 123(8) . . . . ? 
C47' Si2 C39 C41 -71.2(7) . . . . ? 
C43 Si2 C39 C41 169.6(5) . . . . ? 
C38 Si2 C39 C41 50.3(4) . . . . ? 
C47 Si2 C39 C41 -62.4(6) . . . . ? 
C43' Si2 C39 C41 157.0(5) . . . . ? 
C47' Si2 C39 C40 57.8(8) . . . . ? 
C43 Si2 C39 C40 -61.4(6) . . . . ? 
C38 Si2 C39 C40 179.3(4) . . . . ? 
C47 Si2 C39 C40 66.5(7) . . . . ? 
C43' Si2 C39 C40 -74.0(6) . . . . ? 
C40 C39 C41 C42 68.9(6) . . . . ? 
Si2 C39 C41 C42 -162.0(4) . . . . ? 
C47' Si2 C43 C45 -58.5(14) . . . . ? 
C38 Si2 C43 C45 -171.4(11) . . . . ? 
C39 Si2 C43 C45 70.7(12) . . . . ? 
C47 Si2 C43 C45 -56.8(14) . . . . ? 
C43' Si2 C43 C45 124(4) . . . . ? 
C47' Si2 C43 C44 165.4(11) . . . . ? 
C38 Si2 C43 C44 52.4(11) . . . . ? 
C39 Si2 C43 C44 -65.4(11) . . . . ? 
C47 Si2 C43 C44 167.0(10) . . . . ? 
C43' Si2 C43 C44 -12(3) . . . . ? 
C44 C43 C45 C46 -61(2) . . . . ? 
Si2 C43 C45 C46 166.0(14) . . . . ? 
C47' Si2 C43' C45' -69.8(15) . . . . ? 
C43 Si2 C43' C45' -67(3) . . . . ? 
C38 Si2 C43' C45' 174.0(11) . . . . ? 
C39 Si2 C43' C45' 64.2(12) . . . . ? 
C47 Si2 C43' C45' -68.1(15) . . . . ? 
C47' Si2 C43' C44' 161.2(12) . . . . ? 
C43 Si2 C43' C44' 164(4) . . . . ? 
C38 Si2 C43' C44' 44.9(13) . . . . ? 
C39 Si2 C43' C44' -64.8(12) . . . . ? 
C47 Si2 C43' C44' 162.8(11) . . . . ? 
C44' C43' C45' C46' -68(2) . . . . ? 
Si2 C43' C45' C46' 161.7(16) . . . . ? 
C47' Si2 C47 C49 72(5) . . . . ? 
C43 Si2 C47 C49 64.3(14) . . . . ? 
C38 Si2 C47 C49 -179.1(11) . . . . ? 
C39 Si2 C47 C49 -65.9(13) . . . . ? 
C43' Si2 C47 C49 64.7(15) . . . . ? 
C47' Si2 C47 C48 -64(5) . . . . ? 
C43 Si2 C47 C48 -71.9(13) . . . . ? 
C38 Si2 C47 C48 44.7(12) . . . . ? 
C39 Si2 C47 C48 157.9(10) . . . . ? 
C43' Si2 C47 C48 -71.5(14) . . . . ? 
C48 C47 C49 C50 -50(2) . . . . ? 
Si2 C47 C49 C50 177.0(13) . . . . ? 
C43 Si2 C47' C49' -33.4(14) . . . . ? 
C38 Si2 C47' C49' 79.5(12) . . . . ? 
C39 Si2 C47' C49' -160.4(11) . . . . ? 
C47 Si2 C47' C49' 154(6) . . . . ? 
C43' Si2 C47' C49' -32.6(15) . . . . ? 
C43 Si2 C47' C48' -159.9(12) . . . . ? 
C38 Si2 C47' C48' -47.0(13) . . . . ? 
C39 Si2 C47' C48' 73.1(13) . . . . ? 
C47 Si2 C47' C48' 28(4) . . . . ? 
C43' Si2 C47' C48' -159.1(12) . . . . ? 
C48' C47' C49' C50' -79(2) . . . . ? 
Si2 C47' C49' C50' 155.8(15) . . . . ? 
 
_diffrn_measured_fraction_theta_max    0.982 
_diffrn_reflns_theta_full              68.36 
_diffrn_measured_fraction_theta_full   0.982 
_refine_diff_density_max    0.791 
_refine_diff_density_min   -0.635 
_refine_diff_density_rms    0.075 
