 
data_k12063xs 
 
_audit_creation_method            SHELXL-97 
_chemical_name_systematic 
; 
 ? 
; 
_chemical_name_common             ? 
_chemical_melting_point           ? 
_chemical_formula_moiety 
 'C46 H62 S2 Si2' 
_chemical_formula_sum 
 'C46 H62 S2 Si2' 
_chemical_formula_weight          735.26 
 
loop_ 
 _atom_type_symbol 
 _atom_type_description 
 _atom_type_scat_dispersion_real 
 _atom_type_scat_dispersion_imag 
 _atom_type_scat_source 
 'C'  'C'   0.0033   0.0016 
 'International Tables Vol C Tables 4.2.6.8 and 6.1.1.4' 
 'H'  'H'   0.0000   0.0000 
 'International Tables Vol C Tables 4.2.6.8 and 6.1.1.4' 
 'S'  'S'   0.1246   0.1234 
 'International Tables Vol C Tables 4.2.6.8 and 6.1.1.4' 
 'Si'  'Si'   0.0817   0.0704 
 'International Tables Vol C Tables 4.2.6.8 and 6.1.1.4' 
 
_symmetry_cell_setting            monoclinic 
_symmetry_space_group_name_H-M    'C 2/c'
_symmetry_space_group_name_Hall   '-C 2yc' 
 
loop_ 
 _symmetry_equiv_pos_as_xyz 
 'x, y, z' 
 '-x, y, -z+1/2' 
 'x+1/2, y+1/2, z' 
 '-x+1/2, y+1/2, -z+1/2' 
 '-x, -y, -z' 
 'x, -y, z-1/2' 
 '-x+1/2, -y+1/2, -z' 
 'x+1/2, -y+1/2, z-1/2' 
 
_cell_length_a                    29.4088(3) 
_cell_length_b                    8.5722(1) 
_cell_length_c                    20.0692(2) 
_cell_angle_alpha                 90.00 
_cell_angle_beta                  121.4773(5) 
_cell_angle_gamma                 90.00 
_cell_volume                      4314.90(8) 
_cell_formula_units_Z             4 
_cell_measurement_temperature     90.0(2) 
_cell_measurement_reflns_used     5271 
_cell_measurement_theta_min       1.00 
_cell_measurement_theta_max       27.48 
 
_exptl_crystal_description        block 
_exptl_crystal_colour             red 
_exptl_crystal_size_max           0.22 
_exptl_crystal_size_mid           0.20 
_exptl_crystal_size_min           0.12 
_exptl_crystal_density_meas       ? 
_exptl_crystal_density_diffrn     1.132 
_exptl_crystal_density_method     'not measured' 
_exptl_crystal_F_000              1592 
_exptl_absorpt_coefficient_mu     0.209 
_exptl_absorpt_correction_type    multi-scan 
_exptl_absorpt_correction_T_min   0.955 
_exptl_absorpt_correction_T_max   0.975 
_exptl_absorpt_process_details    'XABS2 (Parkin <i>et al.</i>, 1995)' 
 
_exptl_special_details 
; 
 ? 
; 
 
_diffrn_ambient_temperature       90.0(2) 
_diffrn_radiation_wavelength      0.71073 
_diffrn_radiation_type            MoK\a 
_diffrn_radiation_source          'fine-focus sealed tube'    
_diffrn_radiation_monochromator   'graphite'                 
_diffrn_measurement_device_type   'Nonius KappaCCD diffractometer'  
_diffrn_measurement_method        '\w scans at fixed \c = 55\%'
_diffrn_detector_area_resol_mean  9.1
_diffrn_standards_number          0 
_diffrn_standards_interval_count  . 
_diffrn_standards_interval_time   . 
_diffrn_standards_decay_%         ? 
_diffrn_reflns_number             50496 
_diffrn_reflns_av_R_equivalents   0.026 
_diffrn_reflns_av_sigmaI/netI     0.054 
_diffrn_reflns_limit_h_min        -34 
_diffrn_reflns_limit_h_max        34 
_diffrn_reflns_limit_k_min        -10 
_diffrn_reflns_limit_k_max        10 
_diffrn_reflns_limit_l_min        -23 
_diffrn_reflns_limit_l_max        23 
_diffrn_reflns_theta_min          1.62 
_diffrn_reflns_theta_max          25.00 
_reflns_number_total              3796 
_reflns_number_gt                 2329 
_reflns_threshold_expression      >2\s(I)    
 
_computing_data_collection        'COLLECT (Nonius, 1998)'
_computing_cell_refinement        'SCALEPACK (Otwinowski & Minor, 1997)'
_computing_data_reduction         'DENZO-SMN (Otwinowski & Minor, 1997)'
_computing_structure_solution     'SHELXS-97 (Sheldrick, 2008)' 
_computing_structure_refinement   'SHELXL-97 (Sheldrick, 2008)' 
_computing_molecular_graphics     'XP in SHELXTL (Sheldrick, 2008)'
_computing_publication_material
; 
SHELX-97 (Sheldrick, 2008) and local procedures 
; 
 
_publ_section_exptl_refinement
;
H atoms were found in difference Fourier maps and subsequently placed 
in idealized positions with constrained distances of 0.98 \%A (RCH~3~), 
0.99 \%A (R~2~CH~2~), 1.00 \%A (R~3~CH), 0.95 \%A (C~sp2~H), and with 
U~iso~(H) values set to either 1.2U~eq~ or 1.5U~eq~ (RCH~3~) of the 
attached atom. 

To ensure satisfactory refinement of the disordered parts of the structure, 
a combination of constraints and restraints were needed.  The constraints 
(SHELXL97 commands EXYZ and EADP) were used to make the coordinates and/or 
displacement parameters of closely proximate atoms equal.  The restraints 
(SHELXL97 commands SAME, SADI, DELU, ISOR) were used to ensure similar 
geometries and displacement parameters of closely proximate, chemically 
similar groups. 

The structure is extensively disordered, partly due to ene-over-end flip 
of the anthradithiophene ring system, but also because of the unresolved 
sec-butyl groups.  The resulting structure is not of especially high 
quality, but the present model makes chemical sense.  The ratio of
high:low R-values was 1.51, as determined by an R-tensor (Parkin, 2000), 
which is in the normal range.
;

_refine_special_details 
; 
Refinement of F^2^ against all reflections.  The weighted R-value wR and 
goodness of fit S are based on F^2^. Conventional R-values R are based 
on F, with F set to zero for negative F^2^.  The threshold expression of 
F^2^ > 2\s(F^2^) is used only for calculating R-factors(gt) etc. and is 
not relevant to the choice of reflections for refinement.  R-values based 
on F^2^ are statistically about twice as large as those based on F, and  
R-values based on ALL data will be even larger. 
; 
 
_refine_ls_structure_factor_coef  Fsqd  
_refine_ls_matrix_type            full 
_refine_ls_weighting_scheme       calc  
_refine_ls_weighting_details 
 'calc w=1/[\s^2^(Fo^2^)+(0.1840P)^2^] where P=(Fo^2^+2Fc^2^)/3'         
_atom_sites_solution_primary      direct 
_atom_sites_solution_secondary    difmap 
_atom_sites_solution_hydrogens    geom 
_refine_ls_hydrogen_treatment     constr 
_refine_ls_extinction_method      none 
_refine_ls_extinction_coef        ? 
_refine_ls_number_reflns          3796 
_refine_ls_number_parameters      283 
_refine_ls_number_restraints      139 
_refine_ls_R_factor_all           0.1214 
_refine_ls_R_factor_gt            0.0851 
_refine_ls_wR_factor_ref          0.3001 
_refine_ls_wR_factor_gt           0.2582 
_refine_ls_goodness_of_fit_ref    1.172 
_refine_ls_restrained_S_all       1.227 
_refine_ls_shift/su_max           0.000 
_refine_ls_shift/su_mean          0.000 
 
loop_ 
 _atom_site_label 
 _atom_site_type_symbol 
 _atom_site_fract_x 
 _atom_site_fract_y 
 _atom_site_fract_z 
 _atom_site_U_iso_or_equiv 
 _atom_site_adp_type 
 _atom_site_occupancy 
 _atom_site_symmetry_multiplicity 
 _atom_site_calc_flag 
 _atom_site_refinement_flags 
 _atom_site_disorder_assembly 
 _atom_site_disorder_group 
Si1 Si 0.14297(4) 0.16884(15) 0.33081(6) 0.0777(5) Uani 1 1 d D . . 
C1 C 0.03425(14) 0.0364(4) 0.07989(18) 0.0588(9) Uani 1 1 d . . . 
C2 C -0.00422(14) 0.1468(4) 0.0300(2) 0.0606(9) Uani 1 1 d . B . 
C3 C -0.00972(16) 0.2934(4) 0.0579(2) 0.0665(10) Uani 1 1 d U . . 
H3 H 0.0130 0.3199 0.1114 0.080 Uiso 1 1 calc R A 1 
C4 C -0.04843(16) 0.3981(4) 0.0069(2) 0.0728(10) Uani 0.50 1 d PDU B 1 
S5 S -0.0650(3) 0.5818(5) 0.0256(3) 0.0914(9) Uani 0.50 1 d PDU B 1 
C6 C -0.1151(6) 0.5986(13) -0.0702(9) 0.097(3) Uani 0.50 1 d PDU B 1 
H6 H -0.1415 0.6777 -0.0885 0.116 Uiso 0.50 1 calc PR B 1 
C7 C -0.1137(8) 0.491(2) -0.1168(14) 0.0954(10) Uani 0.50 1 d PDU B 1 
H7 H -0.1317 0.5007 -0.1720 0.114 Uiso 0.50 1 calc PR B 1 
C8 C -0.08154(16) 0.3590(4) -0.0734(2) 0.0746(10) Uani 0.50 1 d PDU B 1 
C4' C -0.04843(16) 0.3981(4) 0.0069(2) 0.0728(10) Uani 0.50 1 d PDU B 2 
C5' C -0.0586(11) 0.5566(15) 0.0211(15) 0.0914(9) Uani 0.50 1 d PDU B 2 
H5' H -0.0401 0.6058 0.0708 0.110 Uiso 0.50 1 calc PR B 2 
C6' C -0.0971(5) 0.6255(13) -0.0443(10) 0.097(3) Uani 0.50 1 d PDU B 2 
H6' H -0.1074 0.7311 -0.0459 0.116 Uiso 0.50 1 calc PR B 2 
S7' S -0.12544(18) 0.5078(6) -0.1232(3) 0.0954(10) Uani 0.50 1 d PDU B 2 
C8' C -0.08154(16) 0.3590(4) -0.0734(2) 0.0746(10) Uani 0.50 1 d PDU B 2 
C9 C -0.07769(15) 0.2197(5) -0.1020(2) 0.0699(10) Uani 1 1 d U . . 
H9 H -0.1009 0.1965 -0.1558 0.084 Uiso 1 1 calc R B 1 
C10 C -0.03946(14) 0.1089(4) -0.05237(19) 0.0613(10) Uani 1 1 d . . . 
C11 C 0.06932(15) 0.0752(5) 0.1609(2) 0.0697(11) Uani 1 1 d . . . 
C12 C 0.09915(16) 0.1086(5) 0.2287(2) 0.0796(12) Uani 1 1 d . C . 
C13 C 0.1267(2) 0.0430(7) 0.3925(3) 0.0751(18) Uani 0.842(7) 1 d PDU C 1 
H13 H 0.1425 -0.0616 0.3947 0.090 Uiso 0.842(7) 1 calc PR C 1 
C14 C 0.0677(3) 0.0152(11) 0.3570(4) 0.0916(17) Uani 0.842(7) 1 d PDU C 1 
H14A H 0.0624 -0.0642 0.3874 0.137 Uiso 0.842(7) 1 calc PR C 1 
H14B H 0.0519 -0.0207 0.3030 0.137 Uiso 0.842(7) 1 calc PR C 1 
H14C H 0.0505 0.1127 0.3576 0.137 Uiso 0.842(7) 1 calc PR C 1 
C15 C 0.1558(2) 0.1026(9) 0.4761(3) 0.0911(19) Uani 0.842(7) 1 d PDU C 1 
H15A H 0.1933 0.1245 0.4926 0.109 Uiso 0.842(7) 1 calc PR C 1 
H15B H 0.1394 0.2024 0.4774 0.109 Uiso 0.842(7) 1 calc PR C 1 
C16 C 0.1554(3) -0.0081(9) 0.5347(3) 0.119(2) Uani 0.842(7) 1 d PDU C 1 
H16A H 0.1185 -0.0333 0.5183 0.178 Uiso 0.842(7) 1 calc PR C 1 
H16B H 0.1731 0.0416 0.5863 0.178 Uiso 0.842(7) 1 calc PR C 1 
H16C H 0.1745 -0.1040 0.5374 0.178 Uiso 0.842(7) 1 calc PR C 1 
C13' C 0.1153(13) 0.092(5) 0.3896(16) 0.0751(18) Uani 0.158(7) 1 d PDU C 2 
H13' H 0.1024 0.1992 0.3917 0.090 Uiso 0.158(7) 1 calc PR C 2 
C14' C 0.1395(15) 0.076(7) 0.4760(16) 0.0911(19) Uani 0.158(7) 1 d PDU C 2 
H14D H 0.1380 0.1760 0.4982 0.137 Uiso 0.158(7) 1 calc PR C 2 
H14E H 0.1767 0.0424 0.5002 0.137 Uiso 0.158(7) 1 calc PR C 2 
H14F H 0.1196 -0.0027 0.4863 0.137 Uiso 0.158(7) 1 calc PR C 2 
C15' C 0.0582(14) 0.036(6) 0.341(2) 0.0916(17) Uani 0.158(7) 1 d PDU C 2 
H15C H 0.0342 0.1201 0.3384 0.110 Uiso 0.158(7) 1 calc PR C 2 
H15D H 0.0497 0.0167 0.2868 0.110 Uiso 0.158(7) 1 calc PR C 2 
C16' C 0.0475(12) -0.110(4) 0.3721(19) 0.119(2) Uani 0.158(7) 1 d PDU C 2 
H16D H 0.0535 -0.2013 0.3484 0.178 Uiso 0.158(7) 1 calc PR C 2 
H16E H 0.0105 -0.1095 0.3594 0.178 Uiso 0.158(7) 1 calc PR C 2 
H16F H 0.0716 -0.1140 0.4290 0.178 Uiso 0.158(7) 1 calc PR C 2 
C17 C 0.1298(6) 0.3830(7) 0.3322(10) 0.086(4) Uani 0.648(8) 1 d PDU C 1 
H17 H 0.1396 0.4266 0.2951 0.104 Uiso 0.648(8) 1 calc PR C 1 
C18 C 0.1669(10) 0.4743(14) 0.4078(11) 0.105(5) Uani 0.648(8) 1 d PDU C 1 
H18A H 0.1547 0.5827 0.4017 0.157 Uiso 0.648(8) 1 calc PR C 1 
H18B H 0.2034 0.4720 0.4183 0.157 Uiso 0.648(8) 1 calc PR C 1 
H18C H 0.1662 0.4263 0.4516 0.157 Uiso 0.648(8) 1 calc PR C 1 
C19 C 0.0731(6) 0.4368(18) 0.2968(19) 0.113(3) Uani 0.648(8) 1 d PDU C 1 
H19A H 0.0626 0.4226 0.3359 0.136 Uiso 0.648(8) 1 calc PR C 1 
H19B H 0.0499 0.3686 0.2517 0.136 Uiso 0.648(8) 1 calc PR C 1 
C20 C 0.0624(4) 0.6067(10) 0.2689(6) 0.146(3) Uani 0.648(8) 1 d PDU C 1 
H20A H 0.0914 0.6729 0.3077 0.219 Uiso 0.648(8) 1 calc PR C 1 
H20B H 0.0285 0.6409 0.2626 0.219 Uiso 0.648(8) 1 calc PR C 1 
H20C H 0.0604 0.6149 0.2188 0.219 Uiso 0.648(8) 1 calc PR C 1 
C17' C 0.1404(13) 0.3840(10) 0.328(2) 0.086(4) Uani 0.352(8) 1 d PDU C 2 
H17' H 0.1486 0.4265 0.2889 0.104 Uiso 0.352(8) 1 calc PR C 2 
C18' C 0.0827(14) 0.414(4) 0.303(4) 0.113(3) Uani 0.352(8) 1 d PDU C 2 
H18D H 0.0800 0.4237 0.3494 0.170 Uiso 0.352(8) 1 calc PR C 2 
H18E H 0.0605 0.3264 0.2710 0.170 Uiso 0.352(8) 1 calc PR C 2 
H18F H 0.0703 0.5104 0.2725 0.170 Uiso 0.352(8) 1 calc PR C 2 
C19' C 0.178(2) 0.449(2) 0.409(2) 0.105(5) Uani 0.352(8) 1 d PDU C 2 
H19C H 0.2148 0.4109 0.4284 0.126 Uiso 0.352(8) 1 calc PR C 2 
H19D H 0.1673 0.4126 0.4455 0.126 Uiso 0.352(8) 1 calc PR C 2 
C20' C 0.1774(8) 0.6276(18) 0.4064(11) 0.146(3) Uani 0.352(8) 1 d PDU C 2 
H20D H 0.1904 0.6635 0.3729 0.219 Uiso 0.352(8) 1 calc PR C 2 
H20E H 0.2005 0.6688 0.4594 0.219 Uiso 0.352(8) 1 calc PR C 2 
H20F H 0.1409 0.6648 0.3853 0.219 Uiso 0.352(8) 1 calc PR C 2 
C21 C 0.2152(3) 0.1198(19) 0.3684(5) 0.1111(19) Uani 0.50 1 d PDU C 1 
H21 H 0.2365 0.1476 0.4251 0.133 Uiso 0.50 1 calc PR C 1 
C22 C 0.2256(12) -0.0496(18) 0.3606(12) 0.152(3) Uani 0.50 1 d PDU C 1 
H22A H 0.2083 -0.1155 0.3810 0.228 Uiso 0.50 1 calc PR C 1 
H22B H 0.2641 -0.0691 0.3903 0.228 Uiso 0.50 1 calc PR C 1 
H22C H 0.2110 -0.0743 0.3054 0.228 Uiso 0.50 1 calc PR C 1 
C23 C 0.2327(11) 0.2285(19) 0.3245(11) 0.139(3) Uani 0.50 1 d PDU C 1 
H23A H 0.2119 0.3267 0.3107 0.166 Uiso 0.50 1 calc PR C 1 
H23B H 0.2709 0.2549 0.3590 0.166 Uiso 0.50 1 calc PR C 1 
C24 C 0.2241(6) 0.1518(16) 0.2517(5) 0.165(4) Uani 0.50 1 d PDU C 1 
H24A H 0.1872 0.1682 0.2091 0.248 Uiso 0.50 1 calc PR C 1 
H24B H 0.2311 0.0398 0.2609 0.248 Uiso 0.50 1 calc PR C 1 
H24C H 0.2484 0.1975 0.2374 0.248 Uiso 0.50 1 calc PR C 1 
C21' C 0.2129(3) 0.1343(15) 0.3524(4) 0.1111(19) Uani 0.50 1 d PRDU C 2 
H21' H 0.2340 0.1937 0.4023 0.133 Uiso 0.50 1 calc PR C 2 
C22' C 0.2326(10) 0.206(2) 0.3050(11) 0.139(3) Uani 0.50 1 d PDU C 2 
H22D H 0.2093 0.1764 0.2501 0.208 Uiso 0.50 1 calc PR C 2 
H22E H 0.2690 0.1697 0.3239 0.208 Uiso 0.50 1 calc PR C 2 
H22F H 0.2327 0.3200 0.3098 0.208 Uiso 0.50 1 calc PR C 2 
C23' C 0.2343(11) -0.0323(16) 0.3806(11) 0.152(3) Uani 0.50 1 d PDU C 2 
H23C H 0.2731 -0.0350 0.4014 0.182 Uiso 0.50 1 calc PR C 2 
H23D H 0.2284 -0.0626 0.4231 0.182 Uiso 0.50 1 calc PR C 2 
C24' C 0.2063(6) -0.1455(16) 0.3141(8) 0.165(4) Uani 0.50 1 d PDU C 2 
H24D H 0.1805 -0.2062 0.3201 0.248 Uiso 0.50 1 calc PR C 2 
H24E H 0.2326 -0.2161 0.3141 0.248 Uiso 0.50 1 calc PR C 2 
H24F H 0.1877 -0.0881 0.2646 0.248 Uiso 0.50 1 calc PR C 2 
 
loop_ 
 _atom_site_aniso_label 
 _atom_site_aniso_U_11 
 _atom_site_aniso_U_22 
 _atom_site_aniso_U_33 
 _atom_site_aniso_U_23 
 _atom_site_aniso_U_13 
 _atom_site_aniso_U_12 
Si1 0.0662(8) 0.1086(10) 0.0476(7) -0.0170(5) 0.0222(6) -0.0112(6) 
C1 0.065(2) 0.068(2) 0.0427(18) -0.0078(16) 0.0279(17) -0.0193(18) 
C2 0.071(2) 0.067(2) 0.052(2) -0.0082(17) 0.0373(18) -0.0173(18) 
C3 0.086(3) 0.068(2) 0.061(2) -0.0120(18) 0.049(2) -0.023(2) 
C4 0.091(3) 0.068(2) 0.084(2) -0.0051(19) 0.063(2) -0.017(2) 
S5 0.127(3) 0.0782(17) 0.1146(17) -0.0058(15) 0.0949(16) -0.0077(16) 
C6 0.077(10) 0.082(4) 0.150(8) 0.011(4) 0.072(6) -0.008(6) 
C7 0.080(3) 0.0916(18) 0.1254(19) 0.0276(13) 0.0606(19) 0.0136(13) 
C8 0.080(2) 0.077(2) 0.078(2) 0.0097(19) 0.049(2) -0.0071(19) 
C4' 0.091(3) 0.068(2) 0.084(2) -0.0051(19) 0.063(2) -0.017(2) 
C5' 0.127(3) 0.0782(17) 0.1146(17) -0.0058(15) 0.0949(16) -0.0077(16) 
C6' 0.077(10) 0.082(4) 0.150(8) 0.011(4) 0.072(6) -0.008(6) 
S7' 0.080(3) 0.0916(18) 0.1254(19) 0.0276(13) 0.0606(19) 0.0136(13) 
C8' 0.080(2) 0.077(2) 0.078(2) 0.0097(19) 0.049(2) -0.0071(19) 
C9 0.076(2) 0.073(2) 0.061(2) 0.0031(19) 0.036(2) -0.014(2) 
C10 0.068(2) 0.070(2) 0.0485(19) -0.0039(17) 0.0324(18) -0.0207(18) 
C11 0.073(2) 0.086(3) 0.050(2) -0.0105(19) 0.0326(19) -0.019(2) 
C12 0.076(3) 0.103(3) 0.054(2) -0.013(2) 0.030(2) -0.011(2) 
C13 0.060(3) 0.100(4) 0.057(2) -0.007(3) 0.025(2) 0.004(3) 
C14 0.082(4) 0.121(5) 0.077(4) 0.000(3) 0.046(3) 0.001(3) 
C15 0.084(4) 0.128(6) 0.063(2) 0.005(3) 0.040(3) -0.019(4) 
C16 0.112(5) 0.155(6) 0.088(4) 0.027(4) 0.050(4) 0.010(4) 
C13' 0.060(3) 0.100(4) 0.057(2) -0.007(3) 0.025(2) 0.004(3) 
C14' 0.084(4) 0.128(6) 0.063(2) 0.005(3) 0.040(3) -0.019(4) 
C15' 0.082(4) 0.121(5) 0.077(4) 0.000(3) 0.046(3) 0.001(3) 
C16' 0.112(5) 0.155(6) 0.088(4) 0.027(4) 0.050(4) 0.010(4) 
C17 0.079(7) 0.110(4) 0.063(3) -0.010(2) 0.032(4) -0.014(3) 
C18 0.101(11) 0.096(5) 0.088(4) -0.031(4) 0.028(5) -0.022(6) 
C19 0.094(7) 0.116(5) 0.101(6) -0.032(5) 0.031(6) 0.025(5) 
C20 0.174(8) 0.116(5) 0.122(6) 0.007(5) 0.058(6) 0.007(5) 
C17' 0.079(7) 0.110(4) 0.063(3) -0.010(2) 0.032(4) -0.014(3) 
C18' 0.094(7) 0.116(5) 0.101(6) -0.032(5) 0.031(6) 0.025(5) 
C19' 0.101(11) 0.096(5) 0.088(4) -0.031(4) 0.028(5) -0.022(6) 
C20' 0.174(8) 0.116(5) 0.122(6) 0.007(5) 0.058(6) 0.007(5) 
C21 0.084(3) 0.177(5) 0.075(4) -0.014(4) 0.043(3) -0.007(3) 
C22 0.146(9) 0.185(6) 0.148(10) -0.029(5) 0.093(8) 0.024(6) 
C23 0.134(4) 0.205(6) 0.124(6) -0.025(4) 0.099(5) -0.011(4) 
C24 0.145(9) 0.220(9) 0.116(7) -0.029(7) 0.058(7) 0.004(8) 
C21' 0.084(3) 0.177(5) 0.075(4) -0.014(4) 0.043(3) -0.007(3) 
C22' 0.134(4) 0.205(6) 0.124(6) -0.025(4) 0.099(5) -0.011(4) 
C23' 0.146(9) 0.185(6) 0.148(10) -0.029(5) 0.093(8) 0.024(6) 
C24' 0.145(9) 0.220(9) 0.116(7) -0.029(7) 0.058(7) 0.004(8) 
 
_geom_special_details 
; 
 All esds (except the esd in the dihedral angle between two l.s. planes) 
 are estimated using the full covariance matrix.  The cell esds are taken 
 into account individually in the estimation of esds in distances, angles 
 and torsion angles; correlations between esds in cell parameters are only 
 used when they are defined by crystal symmetry.  An approximate (isotropic) 
 treatment of cell esds is used for estimating esds involving l.s. planes. 
; 
 
loop_ 
 _geom_bond_atom_site_label_1 
 _geom_bond_atom_site_label_2 
 _geom_bond_distance 
 _geom_bond_site_symmetry_2 
 _geom_bond_publ_flag 
Si1 C12 1.835(4) . ? 
Si1 C17' 1.846(9) . ? 
Si1 C13' 1.869(10) . ? 
Si1 C17 1.879(6) . ? 
Si1 C13 1.881(4) . ? 
Si1 C21' 1.889(7) . ? 
Si1 C21 1.893(8) . ? 
C1 C10 1.403(5) 5 ? 
C1 C2 1.413(5) . ? 
C1 C11 1.438(5) . ? 
C2 C3 1.419(5) . ? 
C2 C10 1.456(5) . ? 
C3 C4 1.390(5) . ? 
C3 H3 0.9500 . ? 
C4 C8 1.422(6) . ? 
C4 S5 1.746(5) . ? 
S5 C6 1.711(14) . ? 
C6 C7 1.33(3) . ? 
C6 H6 0.9500 . ? 
C7 C8 1.442(9) . ? 
C7 H7 0.9500 . ? 
C8 C9 1.354(5) . ? 
C5' C6' 1.34(3) . ? 
C5' H5' 0.9500 . ? 
C6' S7' 1.686(14) . ? 
C6' H6' 0.9500 . ? 
C9 C10 1.410(5) . ? 
C9 H9 0.9500 . ? 
C10 C1 1.403(5) 5 ? 
C11 C12 1.206(5) . ? 
C13 C14 1.513(6) . ? 
C13 C15 1.520(6) . ? 
C13 H13 1.0000 . ? 
C14 H14A 0.9800 . ? 
C14 H14B 0.9800 . ? 
C14 H14C 0.9800 . ? 
C15 C16 1.515(7) . ? 
C15 H15A 0.9900 . ? 
C15 H15B 0.9900 . ? 
C16 H16A 0.9800 . ? 
C16 H16B 0.9800 . ? 
C16 H16C 0.9800 . ? 
C13' C14' 1.498(12) . ? 
C13' C15' 1.513(12) . ? 
C13' H13' 1.0000 . ? 
C14' H14D 0.9800 . ? 
C14' H14E 0.9800 . ? 
C14' H14F 0.9800 . ? 
C15' C16' 1.508(13) . ? 
C15' H15C 0.9900 . ? 
C15' H15D 0.9900 . ? 
C16' H16D 0.9800 . ? 
C16' H16E 0.9800 . ? 
C16' H16F 0.9800 . ? 
C17 C19 1.504(8) . ? 
C17 C18 1.542(8) . ? 
C17 H17 1.0000 . ? 
C18 H18A 0.9800 . ? 
C18 H18B 0.9800 . ? 
C18 H18C 0.9800 . ? 
C19 C20 1.533(10) . ? 
C19 H19A 0.9900 . ? 
C19 H19B 0.9900 . ? 
C20 H20A 0.9800 . ? 
C20 H20B 0.9800 . ? 
C20 H20C 0.9800 . ? 
C17' C18' 1.519(12) . ? 
C17' C19' 1.519(13) . ? 
C17' H17' 1.0000 . ? 
C18' H18D 0.9800 . ? 
C18' H18E 0.9800 . ? 
C18' H18F 0.9800 . ? 
C19' C20' 1.531(15) . ? 
C19' H19C 0.9900 . ? 
C19' H19D 0.9900 . ? 
C20' H20D 0.9800 . ? 
C20' H20E 0.9800 . ? 
C20' H20F 0.9800 . ? 
C21 C22 1.509(9) . ? 
C21 C23 1.544(9) . ? 
C21 H21 1.0000 . ? 
C22 H22A 0.9800 . ? 
C22 H22B 0.9800 . ? 
C22 H22C 0.9800 . ? 
C23 C24 1.500(9) . ? 
C23 H23A 0.9900 . ? 
C23 H23B 0.9900 . ? 
C24 H24A 0.9800 . ? 
C24 H24B 0.9800 . ? 
C24 H24C 0.9800 . ? 
C21' C22' 1.483(11) . ? 
C21' C23' 1.544(12) . ? 
C21' H21' 1.0000 . ? 
C22' H22D 0.9800 . ? 
C22' H22E 0.9800 . ? 
C22' H22F 0.9800 . ? 
C23' C24' 1.501(13) . ? 
C23' H23C 0.9900 . ? 
C23' H23D 0.9900 . ? 
C24' H24D 0.9800 . ? 
C24' H24E 0.9800 . ? 
C24' H24F 0.9800 . ? 
 
loop_ 
 _geom_angle_atom_site_label_1 
 _geom_angle_atom_site_label_2 
 _geom_angle_atom_site_label_3 
 _geom_angle 
 _geom_angle_site_symmetry_1 
 _geom_angle_site_symmetry_3 
 _geom_angle_publ_flag 
C12 Si1 C17' 104.6(11) . . ? 
C12 Si1 C13' 108.8(10) . . ? 
C17' Si1 C13' 110.2(18) . . ? 
C12 Si1 C17 105.2(5) . . ? 
C17' Si1 C17 11.1(18) . . ? 
C13' Si1 C17 99.9(14) . . ? 
C12 Si1 C13 107.6(2) . . ? 
C17' Si1 C13 124.9(13) . . ? 
C13' Si1 C13 16.1(13) . . ? 
C17 Si1 C13 115.2(6) . . ? 
C12 Si1 C21' 104.9(3) . . ? 
C17' Si1 C21' 100.7(12) . . ? 
C13' Si1 C21' 125.5(12) . . ? 
C17 Si1 C21' 110.9(6) . . ? 
C13 Si1 C21' 112.2(4) . . ? 
C12 Si1 C21 111.7(3) . . ? 
C17' Si1 C21 104.7(12) . . ? 
C13' Si1 C21 116.0(12) . . ? 
C17 Si1 C21 114.1(7) . . ? 
C13 Si1 C21 103.1(4) . . ? 
C21' Si1 C21 9.6(4) . . ? 
C10 C1 C2 121.8(3) 5 . ? 
C10 C1 C11 119.3(3) 5 . ? 
C2 C1 C11 118.9(3) . . ? 
C1 C2 C3 121.8(3) . . ? 
C1 C2 C10 119.1(3) . . ? 
C3 C2 C10 119.1(3) . . ? 
C4 C3 C2 120.0(3) . . ? 
C4 C3 H3 120.0 . . ? 
C2 C3 H3 120.0 . . ? 
C3 C4 C8 119.7(3) . . ? 
C3 C4 S5 129.6(4) . . ? 
C8 C4 S5 110.7(3) . . ? 
C6 S5 C4 90.4(4) . . ? 
C7 C6 S5 114.1(9) . . ? 
C7 C6 H6 122.9 . . ? 
S5 C6 H6 122.9 . . ? 
C6 C7 C8 111.8(16) . . ? 
C6 C7 H7 124.1 . . ? 
C8 C7 H7 124.1 . . ? 
C9 C8 C4 121.9(3) . . ? 
C9 C8 C7 127.7(11) . . ? 
C4 C8 C7 110.2(11) . . ? 
C6' C5' H5' 123.9 . . ? 
C5' C6' S7' 113.9(8) . . ? 
C5' C6' H6' 123.0 . . ? 
S7' C6' H6' 123.0 . . ? 
C8 C9 C10 120.5(4) . . ? 
C8 C9 H9 119.8 . . ? 
C10 C9 H9 119.8 . . ? 
C1 C10 C9 122.1(3) 5 . ? 
C1 C10 C2 119.0(3) 5 . ? 
C9 C10 C2 118.9(3) . . ? 
C12 C11 C1 179.2(4) . . ? 
C11 C12 Si1 177.2(4) . . ? 
C14 C13 C15 114.7(5) . . ? 
C14 C13 Si1 113.8(4) . . ? 
C15 C13 Si1 110.1(4) . . ? 
C14 C13 H13 105.8 . . ? 
C15 C13 H13 105.8 . . ? 
Si1 C13 H13 105.8 . . ? 
C16 C15 C13 114.7(5) . . ? 
C16 C15 H15A 108.6 . . ? 
C13 C15 H15A 108.6 . . ? 
C16 C15 H15B 108.6 . . ? 
C13 C15 H15B 108.6 . . ? 
H15A C15 H15B 107.6 . . ? 
C14' C13' C15' 114.6(10) . . ? 
C14' C13' Si1 132(2) . . ? 
C15' C13' Si1 114(2) . . ? 
C14' C13' H13' 90.1 . . ? 
C15' C13' H13' 90.1 . . ? 
Si1 C13' H13' 90.1 . . ? 
C13' C14' H14D 109.5 . . ? 
C13' C14' H14E 109.5 . . ? 
H14D C14' H14E 109.5 . . ? 
C13' C14' H14F 109.5 . . ? 
H14D C14' H14F 109.5 . . ? 
H14E C14' H14F 109.5 . . ? 
C16' C15' C13' 113.2(12) . . ? 
C16' C15' H15C 108.9 . . ? 
C13' C15' H15C 108.9 . . ? 
C16' C15' H15D 108.9 . . ? 
C13' C15' H15D 108.9 . . ? 
H15C C15' H15D 107.7 . . ? 
C15' C16' H16D 109.5 . . ? 
C15' C16' H16E 109.5 . . ? 
H16D C16' H16E 109.5 . . ? 
C15' C16' H16F 109.5 . . ? 
H16D C16' H16F 109.5 . . ? 
H16E C16' H16F 109.5 . . ? 
C19 C17 C18 110.5(6) . . ? 
C19 C17 Si1 118.6(9) . . ? 
C18 C17 Si1 117.7(9) . . ? 
C19 C17 H17 102.3 . . ? 
C18 C17 H17 102.3 . . ? 
Si1 C17 H17 102.3 . . ? 
C17 C19 C20 115.5(9) . . ? 
C17 C19 H19A 108.4 . . ? 
C20 C19 H19A 108.4 . . ? 
C17 C19 H19B 108.4 . . ? 
C20 C19 H19B 108.4 . . ? 
H19A C19 H19B 107.5 . . ? 
C18' C17' C19' 111.0(9) . . ? 
C18' C17' Si1 101(2) . . ? 
C19' C17' Si1 109.8(17) . . ? 
C18' C17' H17' 111.4 . . ? 
C19' C17' H17' 111.4 . . ? 
Si1 C17' H17' 111.4 . . ? 
C17' C18' H18D 109.5 . . ? 
C17' C18' H18E 109.5 . . ? 
H18D C18' H18E 109.5 . . ? 
C17' C18' H18F 109.5 . . ? 
H18D C18' H18F 109.5 . . ? 
H18E C18' H18F 109.5 . . ? 
C17' C19' C20' 109.9(12) . . ? 
C17' C19' H19C 109.7 . . ? 
C20' C19' H19C 109.7 . . ? 
C17' C19' H19D 109.7 . . ? 
C20' C19' H19D 109.7 . . ? 
H19C C19' H19D 108.2 . . ? 
C19' C20' H20D 109.5 . . ? 
C19' C20' H20E 109.5 . . ? 
H20D C20' H20E 109.5 . . ? 
C19' C20' H20F 109.5 . . ? 
H20D C20' H20F 109.5 . . ? 
H20E C20' H20F 109.5 . . ? 
C22 C21 C23 112.1(7) . . ? 
C22 C21 Si1 114.7(15) . . ? 
C23 C21 Si1 106.1(12) . . ? 
C22 C21 H21 107.9 . . ? 
C23 C21 H21 107.9 . . ? 
Si1 C21 H21 107.9 . . ? 
C24 C23 C21 110.8(8) . . ? 
C24 C23 H23A 109.5 . . ? 
C21 C23 H23A 109.5 . . ? 
C24 C23 H23B 109.5 . . ? 
C21 C23 H23B 109.5 . . ? 
H23A C23 H23B 108.1 . . ? 
C22' C21' C23' 113.4(8) . . ? 
C22' C21' Si1 122.1(12) . . ? 
C23' C21' Si1 114.6(14) . . ? 
C22' C21' H21' 100.6 . . ? 
C23' C21' H21' 100.6 . . ? 
Si1 C21' H21' 100.6 . . ? 
C21' C22' H22D 109.5 . . ? 
C21' C22' H22E 109.5 . . ? 
H22D C22' H22E 109.5 . . ? 
C21' C22' H22F 109.5 . . ? 
H22D C22' H22F 109.5 . . ? 
H22E C22' H22F 109.5 . . ? 
C24' C23' C21' 110.1(11) . . ? 
C24' C23' H23C 109.6 . . ? 
C21' C23' H23C 109.6 . . ? 
C24' C23' H23D 109.6 . . ? 
C21' C23' H23D 109.6 . . ? 
H23C C23' H23D 108.2 . . ? 
C23' C24' H24D 109.5 . . ? 
C23' C24' H24E 109.5 . . ? 
H24D C24' H24E 109.5 . . ? 
C23' C24' H24F 109.5 . . ? 
H24D C24' H24F 109.5 . . ? 
H24E C24' H24F 109.5 . . ? 
 
_diffrn_measured_fraction_theta_max    0.999 
_diffrn_reflns_theta_full              25.00 
_diffrn_measured_fraction_theta_full   0.999 
_refine_diff_density_max    0.506 
_refine_diff_density_min   -0.312 
_refine_diff_density_rms    0.059 
