 
data_x10026 
 
_audit_creation_method            SHELXL-97 
_chemical_name_systematic 
; 
 ? 
; 
_chemical_name_common             ? 
_chemical_melting_point           ? 
_chemical_formula_moiety 
 'C28 H44 F2 S2 Si2' 
_chemical_formula_sum 
 'C28 H44 F2 S2 Si2' 
_chemical_formula_weight          538.93 
 
loop_ 
 _atom_type_symbol 
 _atom_type_description 
 _atom_type_scat_dispersion_real 
 _atom_type_scat_dispersion_imag 
 _atom_type_scat_source 
 'C'  'C'   0.0181   0.0091 
 'International Tables Vol C Tables 4.2.6.8 and 6.1.1.4' 
 'H'  'H'   0.0000   0.0000 
 'International Tables Vol C Tables 4.2.6.8 and 6.1.1.4' 
 'F'  'F'   0.0727   0.0534 
 'International Tables Vol C Tables 4.2.6.8 and 6.1.1.4' 
 'Si'  'Si'   0.2541   0.3302 
 'International Tables Vol C Tables 4.2.6.8 and 6.1.1.4' 
 'S'  'S'   0.3331   0.5567 
 'International Tables Vol C Tables 4.2.6.8 and 6.1.1.4' 
 
_symmetry_cell_setting            ? 
_symmetry_space_group_name_H-M    ? 
_symmetry_space_group_name_Hall   ? 
 
loop_ 
 _symmetry_equiv_pos_as_xyz 
 'x, y, z' 
 '-x, -y, -z' 
 
_cell_length_a                    7.2816(2) 
_cell_length_b                    11.3308(3) 
_cell_length_c                    11.8578(3) 
_cell_angle_alpha                 105.3920(10) 
_cell_angle_beta                  93.4550(10) 
_cell_angle_gamma                 108.2650(10) 
_cell_volume                      884.67(4) 
_cell_formula_units_Z             1 
_cell_measurement_temperature     90.0(2) 
_cell_measurement_reflns_used     ? 
_cell_measurement_theta_min       ? 
_cell_measurement_theta_max       ? 
 
_exptl_crystal_description        ? 
_exptl_crystal_colour             ? 
_exptl_crystal_size_max           0.30 
_exptl_crystal_size_mid           0.10 
_exptl_crystal_size_min           0.08 
_exptl_crystal_density_meas       ? 
_exptl_crystal_density_diffrn     1.012 
_exptl_crystal_density_method     'not measured' 
_exptl_crystal_F_000              290 
_exptl_absorpt_coefficient_mu     2.195 
_exptl_absorpt_correction_type    multi-scan 
_exptl_absorpt_correction_T_min   0.5588 
_exptl_absorpt_correction_T_max   0.8439 
_exptl_absorpt_process_details    'Sadabs in APEX2 (BrukerAXS, 2006)' 
 
_exptl_special_details 
; 
 ? 
; 
 
_diffrn_ambient_temperature       90.0(2) 
_diffrn_radiation_wavelength      1.54178 
_diffrn_radiation_type            CuK\a 
_diffrn_radiation_source          'fine-focus rotating anode' 
_diffrn_radiation_monochromator   'graded multilayer optics' 
_diffrn_measurement_device_type   'Bruker X8 Proteum diffractometer'
_diffrn_measurement_method        '\f and \w scans'            
_diffrn_detector_area_resol_mean  5.6
_diffrn_standards_number          0 
_diffrn_standards_interval_count  . 
_diffrn_standards_interval_time   . 
_diffrn_standards_decay_%         ? 
_diffrn_reflns_number             9887 
_diffrn_reflns_av_R_equivalents   0.0685 
_diffrn_reflns_av_sigmaI/netI     0.0747 
_diffrn_reflns_limit_h_min        -8 
_diffrn_reflns_limit_h_max        8 
_diffrn_reflns_limit_k_min        -13 
_diffrn_reflns_limit_k_max        13 
_diffrn_reflns_limit_l_min        -14 
_diffrn_reflns_limit_l_max        12 
_diffrn_reflns_theta_min          3.91 
_diffrn_reflns_theta_max          68.47 
_reflns_number_total              3185 
_reflns_number_gt                 2757 
_reflns_threshold_expression      >2\s(I)    
 
_computing_data_collection        'APEX2 (Bruker-AXS, 2006)'            
_computing_cell_refinement        'APEX2'
_computing_data_reduction         'APEX2'
_computing_structure_solution     'SHELXS-97 (Sheldrick, 2008)' 
_computing_structure_refinement   'SHELXL-97 (Sheldrick, 2008)' 
_computing_molecular_graphics     'XP in SHELXTL (Sheldrick, 2008)'
_computing_publication_material
; 
SHELX-97 (Sheldrick, 2008) and local procedures 
; 
 
_publ_section_exptl_refinement
;
H atoms were found in difference Fourier maps and subsequently placed in
idealized positions with constrained distances of 
0.98 \%A (RCH~3~),
0.99 \%A (R~2~CH~2~),
1.00 \%A (R~3~CH),
0.95 \%A (C~Ar~H),
0.84 \%A (O-H),
0.88 \%A (N-H),
and with U~iso~(H) values set to either 1.2U~eq~ or 1.5U~eq~ (RCH~3~, OH) 
of the attached atom. 
;

_refine_special_details 
; 
 Refinement of F^2^ against ALL reflections.  The weighted R-factor wR and 
 goodness of fit S are based on F^2^, conventional R-factors R are based 
 on F, with F set to zero for negative F^2^. The threshold expression of 
 F^2^ > 2\s(F^2^) is used only for calculating R-factors(gt) etc. and is 
 not relevant to the choice of reflections for refinement.  R-factors based 
 on F^2^ are statistically about twice as large as those based on F, and R- 
 factors based on ALL data will be even larger. 
; 
 
_refine_ls_structure_factor_coef  Fsqd  
_refine_ls_matrix_type            full 
_refine_ls_weighting_scheme       calc  
_refine_ls_weighting_details 
 'calc w=1/[\s^2^(Fo^2^)+(0.1000P)^2^] where P=(Fo^2^+2Fc^2^)/3'         
_atom_sites_solution_primary      direct 
_atom_sites_solution_secondary    difmap 
_atom_sites_solution_hydrogens    geom 
_refine_ls_hydrogen_treatment     constr 
_refine_ls_extinction_method      none 
_refine_ls_extinction_coef        ? 
_refine_ls_number_reflns          3185 
_refine_ls_number_parameters      306 
_refine_ls_number_restraints      94 
_refine_ls_R_factor_all           0.1184 
_refine_ls_R_factor_gt            0.1120 
_refine_ls_wR_factor_ref          0.2917 
_refine_ls_wR_factor_gt           0.2828 
_refine_ls_goodness_of_fit_ref    2.105 
_refine_ls_restrained_S_all       2.107 
_refine_ls_shift/su_max           0.743 
_refine_ls_shift/su_mean          0.007 
 
loop_ 
 _atom_site_label 
 _atom_site_type_symbol 
 _atom_site_fract_x 
 _atom_site_fract_y 
 _atom_site_fract_z 
 _atom_site_U_iso_or_equiv 
 _atom_site_adp_type 
 _atom_site_occupancy 
 _atom_site_symmetry_multiplicity 
 _atom_site_calc_flag 
 _atom_site_refinement_flags 
 _atom_site_disorder_assembly 
 _atom_site_disorder_group 
C1 C 0.5538(5) 0.5612(3) 0.4116(2) 0.0409(8) Uani 1 1 d . . . 
C2 C 0.3554(5) 0.4866(3) 0.4058(2) 0.0425(8) Uani 1 1 d . B . 
C3 C 0.2093(5) 0.4720(3) 0.3131(2) 0.0449(8) Uani 1 1 d . . . 
H3 H 0.2446 0.5115 0.2525 0.054 Uiso 1 1 calc R A 1 
C4 C 0.0183(6) 0.4014(3) 0.3110(2) 0.0452(8) Uani 0.646(5) 1 d PDU B 1 
S5 S -0.1751(4) 0.3718(3) 0.2037(2) 0.0482(8) Uani 0.646(5) 1 d PU B 1 
C6 C -0.3312(11) 0.2841(12) 0.2825(11) 0.0498(18) Uani 0.646(5) 1 d PDU B 1 
F1 F -0.5202(7) 0.2408(5) 0.2406(5) 0.0586(12) Uani 0.646(5) 1 d PDU B 1 
C7 C -0.242(2) 0.279(2) 0.3852(17) 0.048(3) Uani 0.646(5) 1 d PDU B 1 
H7 H -0.3098 0.2386 0.4384 0.058 Uiso 0.646(5) 1 calc PR B 1 
C8 C -0.0376(5) 0.3417(3) 0.4026(2) 0.0432(8) Uani 0.646(5) 1 d PDU B 1 
C4' C 0.0183(6) 0.4014(3) 0.3110(2) 0.0452(8) Uani 0.354(5) 1 d PDU B 2 
C5' C -0.155(3) 0.389(2) 0.2351(13) 0.048(4) Uani 0.354(5) 1 d PDU B 2 
H5' H -0.1540 0.4306 0.1749 0.058 Uiso 0.354(5) 1 calc PR B 2 
F1' F -0.5054(16) 0.2640(12) 0.2007(9) 0.068(3) Uani 0.354(5) 1 d PDU B 2 
C6' C -0.322(2) 0.309(3) 0.263(2) 0.0498(18) Uani 0.354(5) 1 d PDU B 2 
S7' S -0.2921(9) 0.2540(10) 0.3840(9) 0.0474(13) Uani 0.354(5) 1 d PU B 2 
C8' C -0.0376(5) 0.3417(3) 0.4026(2) 0.0432(8) Uani 0.354(5) 1 d PDU B 2 
C9 C 0.1020(5) 0.3536(3) 0.4918(2) 0.0424(8) Uani 1 1 d . . . 
H9 H 0.0640 0.3130 0.5513 0.051 Uiso 1 1 calc R B 1 
C10 C 0.3013(5) 0.4253(3) 0.4969(2) 0.0404(8) Uani 1 1 d . . . 
C11 C 0.6108(5) 0.6241(3) 0.3222(3) 0.0456(8) Uani 1 1 d . C . 
C12 C 0.6625(5) 0.6746(4) 0.2485(2) 0.0473(8) Uani 1 1 d . . . 
Si1 Si 0.7728(14) 0.7450(11) 0.1359(12) 0.0490(10) Uani 0.556(9) 1 d PDU C 1 
C13 C 0.5772(17) 0.783(2) 0.0605(15) 0.130(6) Uani 0.556(9) 1 d PDU C 1 
H13A H 0.6280 0.8220 -0.0007 0.195 Uiso 0.556(9) 1 calc PR C 1 
H13B H 0.5346 0.8443 0.1185 0.195 Uiso 0.556(9) 1 calc PR C 1 
H13C H 0.4659 0.7026 0.0239 0.195 Uiso 0.556(9) 1 calc PR C 1 
C14 C 0.840(3) 0.6186(11) 0.0249(10) 0.102(5) Uani 0.556(9) 1 d PDU C 1 
H14A H 0.8986 0.6555 -0.0358 0.153 Uiso 0.556(9) 1 calc PR C 1 
H14B H 0.7216 0.5430 -0.0125 0.153 Uiso 0.556(9) 1 calc PR C 1 
H14C H 0.9337 0.5915 0.0651 0.153 Uiso 0.556(9) 1 calc PR C 1 
C15 C 0.9866(11) 0.8968(7) 0.2079(5) 0.0547(18) Uani 0.556(9) 1 d PDU C 1 
C16 C 0.909(2) 1.0088(10) 0.2515(10) 0.100(4) Uani 0.556(9) 1 d PDU C 1 
H16A H 0.8301 1.0153 0.1850 0.150 Uiso 0.556(9) 1 calc PR C 1 
H16B H 1.0195 1.0906 0.2849 0.150 Uiso 0.556(9) 1 calc PR C 1 
H16C H 0.8281 0.9925 0.3125 0.150 Uiso 0.556(9) 1 calc PR C 1 
C17 C 1.125(2) 0.9227(11) 0.1123(8) 0.055(3) Uani 0.556(9) 1 d PDU C 1 
H17A H 1.1776 0.8516 0.0881 0.082 Uiso 0.556(9) 1 calc PR C 1 
H17B H 1.2332 1.0053 0.1466 0.082 Uiso 0.556(9) 1 calc PR C 1 
H17C H 1.0497 0.9270 0.0431 0.082 Uiso 0.556(9) 1 calc PR C 1 
C18 C 1.1081(12) 0.8884(9) 0.3156(7) 0.053(2) Uani 0.556(9) 1 d PDU C 1 
H18 H 1.0247 0.8822 0.3792 0.063 Uiso 0.556(9) 1 calc PR C 1 
C19 C 1.1750(12) 0.7710(10) 0.2872(9) 0.078(3) Uani 0.556(9) 1 d PDU C 1 
H19A H 1.0619 0.6918 0.2501 0.118 Uiso 0.556(9) 1 calc PR C 1 
H19B H 1.2354 0.7647 0.3604 0.118 Uiso 0.556(9) 1 calc PR C 1 
H19C H 1.2707 0.7810 0.2326 0.118 Uiso 0.556(9) 1 calc PR C 1 
C20 C 1.298(2) 0.985(2) 0.3686(15) 0.142(7) Uani 0.556(9) 1 d PDU C 1 
H20A H 1.2858 1.0715 0.3941 0.212 Uiso 0.556(9) 1 calc PR C 1 
H20B H 1.3880 0.9836 0.3104 0.212 Uiso 0.556(9) 1 calc PR C 1 
H20C H 1.3493 0.9657 0.4373 0.212 Uiso 0.556(9) 1 calc PR C 1 
Si1' Si 0.7644(18) 0.7575(14) 0.1350(16) 0.0490(10) Uani 0.444(9) 1 d PDU C 2 
C13' C 0.633(3) 0.864(2) 0.100(2) 0.121(8) Uani 0.444(9) 1 d PDU C 2 
H13D H 0.6416 0.9333 0.1728 0.182 Uiso 0.444(9) 1 calc PR C 2 
H13E H 0.4950 0.8119 0.0694 0.182 Uiso 0.444(9) 1 calc PR C 2 
H13F H 0.6929 0.9027 0.0411 0.182 Uiso 0.444(9) 1 calc PR C 2 
C14' C 0.737(3) 0.6243(18) -0.0055(12) 0.104(6) Uani 0.444(9) 1 d PDU C 2 
H14D H 0.7887 0.6629 -0.0669 0.156 Uiso 0.444(9) 1 calc PR C 2 
H14E H 0.5983 0.5716 -0.0319 0.156 Uiso 0.444(9) 1 calc PR C 2 
H14F H 0.8100 0.5690 0.0090 0.156 Uiso 0.444(9) 1 calc PR C 2 
C15' C 1.0359(13) 0.8383(9) 0.1922(7) 0.056(2) Uani 0.444(9) 1 d PDU C 2 
C16' C 1.1167(16) 0.7262(12) 0.1791(14) 0.086(4) Uani 0.444(9) 1 d PDU C 2 
H16D H 1.0949 0.6759 0.0953 0.129 Uiso 0.444(9) 1 calc PR C 2 
H16E H 1.0494 0.6693 0.2243 0.129 Uiso 0.444(9) 1 calc PR C 2 
H16F H 1.2574 0.7618 0.2092 0.129 Uiso 0.444(9) 1 calc PR C 2 
C17' C 1.112(3) 0.925(2) 0.108(2) 0.104(8) Uani 0.444(9) 1 d PDU C 2 
H17D H 1.0556 0.9941 0.1211 0.157 Uiso 0.444(9) 1 calc PR C 2 
H17E H 1.0729 0.8700 0.0254 0.157 Uiso 0.444(9) 1 calc PR C 2 
H17F H 1.2553 0.9631 0.1260 0.157 Uiso 0.444(9) 1 calc PR C 2 
C18' C 1.075(3) 0.9226(15) 0.3237(12) 0.122(7) Uani 0.444(9) 1 d PDU C 2 
H18' H 1.0344 0.8640 0.3743 0.147 Uiso 0.444(9) 1 calc PR C 2 
C19' C 0.964(4) 1.0188(15) 0.3447(12) 0.203(12) Uani 0.444(9) 1 d PDU C 2 
H19D H 0.8249 0.9720 0.3120 0.304 Uiso 0.444(9) 1 calc PR C 2 
H19E H 1.0179 1.0854 0.3058 0.304 Uiso 0.444(9) 1 calc PR C 2 
H19F H 0.9769 1.0604 0.4300 0.304 Uiso 0.444(9) 1 calc PR C 2 
C20' C 1.256(5) 1.029(2) 0.384(3) 0.221(16) Uani 0.444(9) 1 d PDU C 2 
H20D H 1.3642 0.9959 0.3853 0.331 Uiso 0.444(9) 1 calc PR C 2 
H20E H 1.2401 1.0684 0.4660 0.331 Uiso 0.444(9) 1 calc PR C 2 
H20F H 1.2833 1.0957 0.3429 0.331 Uiso 0.444(9) 1 calc PR C 2 
 
loop_ 
 _atom_site_aniso_label 
 _atom_site_aniso_U_11 
 _atom_site_aniso_U_22 
 _atom_site_aniso_U_33 
 _atom_site_aniso_U_23 
 _atom_site_aniso_U_13 
 _atom_site_aniso_U_12 
C1 0.066(2) 0.0402(17) 0.0199(13) 0.0033(11) 0.0240(13) 0.0243(15) 
C2 0.073(2) 0.0365(16) 0.0178(13) 0.0000(11) 0.0222(13) 0.0229(15) 
C3 0.073(2) 0.0426(17) 0.0195(13) 0.0030(11) 0.0189(13) 0.0243(16) 
C4 0.073(2) 0.0404(17) 0.0223(13) 0.0012(11) 0.0207(13) 0.0232(16) 
S5 0.0637(12) 0.0500(14) 0.0235(16) -0.0018(13) 0.0150(9) 0.0185(9) 
C6 0.063(2) 0.037(6) 0.044(5) 0.001(2) 0.018(2) 0.016(2) 
F1 0.058(2) 0.059(3) 0.045(3) 0.002(2) 0.014(2) 0.0123(18) 
C7 0.072(7) 0.041(8) 0.025(3) -0.008(4) 0.015(5) 0.024(6) 
C8 0.067(2) 0.0348(15) 0.0255(13) -0.0027(11) 0.0223(13) 0.0207(15) 
C4' 0.073(2) 0.0404(17) 0.0223(13) 0.0012(11) 0.0207(13) 0.0232(16) 
C5' 0.078(6) 0.045(7) 0.000(6) -0.024(5) -0.007(4) 0.020(5) 
F1' 0.070(5) 0.087(6) 0.044(5) 0.016(4) 0.007(4) 0.027(4) 
C6' 0.063(2) 0.037(6) 0.044(5) 0.001(2) 0.018(2) 0.016(2) 
S7' 0.057(2) 0.044(3) 0.0342(17) 0.0009(18) 0.0117(19) 0.016(2) 
C8' 0.067(2) 0.0348(15) 0.0255(13) -0.0027(11) 0.0223(13) 0.0207(15) 
C9 0.068(2) 0.0347(16) 0.0226(13) 0.0022(11) 0.0194(13) 0.0179(15) 
C10 0.071(2) 0.0343(15) 0.0166(12) -0.0002(10) 0.0223(12) 0.0228(15) 
C11 0.063(2) 0.0512(19) 0.0249(14) 0.0055(13) 0.0194(13) 0.0248(16) 
C12 0.056(2) 0.063(2) 0.0253(14) 0.0141(14) 0.0200(13) 0.0197(16) 
Si1 0.0512(9) 0.0687(19) 0.0242(6) 0.0177(11) 0.0119(6) 0.0123(9) 
C13 0.064(6) 0.220(17) 0.135(11) 0.151(13) 0.003(5) 0.008(7) 
C14 0.157(13) 0.066(5) 0.031(6) -0.013(4) 0.051(6) -0.015(7) 
C15 0.069(4) 0.062(4) 0.038(3) 0.004(3) 0.006(3) 0.038(3) 
C16 0.175(12) 0.068(5) 0.092(7) 0.030(5) 0.054(7) 0.076(7) 
C17 0.069(7) 0.045(5) 0.034(4) 0.008(3) 0.005(4) 0.002(4) 
C18 0.054(4) 0.056(5) 0.034(3) 0.016(3) 0.003(3) -0.001(3) 
C19 0.058(4) 0.124(7) 0.088(6) 0.074(5) 0.021(4) 0.041(4) 
C20 0.093(8) 0.176(12) 0.060(7) 0.030(9) -0.031(6) -0.070(9) 
Si1' 0.0512(9) 0.0687(19) 0.0242(6) 0.0177(11) 0.0119(6) 0.0123(9) 
C13' 0.090(10) 0.182(16) 0.191(19) 0.164(16) 0.092(12) 0.078(12) 
C14' 0.136(15) 0.099(9) 0.023(5) -0.001(5) 0.023(6) -0.020(8) 
C15' 0.052(5) 0.060(5) 0.049(4) 0.022(4) 0.004(3) 0.003(4) 
C16' 0.056(5) 0.099(8) 0.135(11) 0.071(7) 0.043(7) 0.033(6) 
C17' 0.061(10) 0.135(16) 0.131(14) 0.101(14) 0.005(10) 0.002(10) 
C18' 0.208(18) 0.045(7) 0.061(6) 0.009(5) -0.039(8) -0.010(7) 
C19' 0.49(4) 0.080(10) 0.052(8) 0.009(7) 0.036(13) 0.134(17) 
C20' 0.35(3) 0.092(14) 0.080(14) 0.034(11) -0.05(2) -0.105(16) 
 
_geom_special_details 
; 
 All esds (except the esd in the dihedral angle between two l.s. planes) 
 are estimated using the full covariance matrix.  The cell esds are taken 
 into account individually in the estimation of esds in distances, angles 
 and torsion angles; correlations between esds in cell parameters are only 
 used when they are defined by crystal symmetry.  An approximate (isotropic) 
 treatment of cell esds is used for estimating esds involving l.s. planes. 
; 
 
loop_ 
 _geom_bond_atom_site_label_1 
 _geom_bond_atom_site_label_2 
 _geom_bond_distance 
 _geom_bond_site_symmetry_2 
 _geom_bond_publ_flag 
C1 C10 1.410(5) 2_666 ? 
C1 C2 1.414(5) . ? 
C1 C11 1.439(4) . ? 
C2 C3 1.421(5) . ? 
C2 C10 1.443(4) . ? 
C3 C4 1.365(5) . ? 
C3 H3 0.9500 . ? 
C4 C8 1.441(4) . ? 
C4 S5 1.725(4) . ? 
S5 C6 1.752(9) . ? 
C6 F1 1.322(7) . ? 
C6 C7 1.367(19) . ? 
C7 C8 1.409(14) . ? 
C7 H7 0.9500 . ? 
C8 C9 1.370(5) . ? 
C5' C6' 1.39(2) . ? 
C5' H5' 0.9500 . ? 
F1' C6' 1.358(13) . ? 
C6' S7' 1.74(2) . ? 
C9 C10 1.412(5) . ? 
C9 H9 0.9500 . ? 
C10 C1 1.410(5) 2_666 ? 
C11 C12 1.184(5) . ? 
C12 Si1 1.832(17) . ? 
C12 Si1' 1.90(2) . ? 
Si1 C13 1.857(11) . ? 
Si1 C15 1.869(10) . ? 
Si1 C14 1.881(11) . ? 
C13 H13A 0.9800 . ? 
C13 H13B 0.9800 . ? 
C13 H13C 0.9800 . ? 
C14 H14A 0.9800 . ? 
C14 H14B 0.9800 . ? 
C14 H14C 0.9800 . ? 
C15 C16 1.528(10) . ? 
C15 C18 1.550(9) . ? 
C15 C17 1.586(10) . ? 
C16 H16A 0.9800 . ? 
C16 H16B 0.9800 . ? 
C16 H16C 0.9800 . ? 
C17 H17A 0.9800 . ? 
C17 H17B 0.9800 . ? 
C17 H17C 0.9800 . ? 
C18 C20 1.445(10) . ? 
C18 C19 1.518(13) . ? 
C18 H18 1.0000 . ? 
C19 H19A 0.9800 . ? 
C19 H19B 0.9800 . ? 
C19 H19C 0.9800 . ? 
C20 H20A 0.9800 . ? 
C20 H20B 0.9800 . ? 
C20 H20C 0.9800 . ? 
Si1' C13' 1.865(14) . ? 
Si1' C14' 1.879(13) . ? 
Si1' C15' 1.893(12) . ? 
C13' H13D 0.9800 . ? 
C13' H13E 0.9800 . ? 
C13' H13F 0.9800 . ? 
C14' H14D 0.9800 . ? 
C14' H14E 0.9800 . ? 
C14' H14F 0.9800 . ? 
C15' C16' 1.536(13) . ? 
C15' C18' 1.553(13) . ? 
C15' C17' 1.580(13) . ? 
C16' H16D 0.9800 . ? 
C16' H16E 0.9800 . ? 
C16' H16F 0.9800 . ? 
C17' H17D 0.9800 . ? 
C17' H17E 0.9800 . ? 
C17' H17F 0.9800 . ? 
C18' C20' 1.462(16) . ? 
C18' C19' 1.530(19) . ? 
C18' H18' 1.0000 . ? 
C19' H19D 0.9800 . ? 
C19' H19E 0.9800 . ? 
C19' H19F 0.9800 . ? 
C20' H20D 0.9800 . ? 
C20' H20E 0.9800 . ? 
C20' H20F 0.9800 . ? 
 
loop_ 
 _geom_angle_atom_site_label_1 
 _geom_angle_atom_site_label_2 
 _geom_angle_atom_site_label_3 
 _geom_angle 
 _geom_angle_site_symmetry_1 
 _geom_angle_site_symmetry_3 
 _geom_angle_publ_flag 
C10 C1 C2 121.2(3) 2_666 . ? 
C10 C1 C11 118.9(3) 2_666 . ? 
C2 C1 C11 119.8(3) . . ? 
C1 C2 C3 121.4(3) . . ? 
C1 C2 C10 118.9(3) . . ? 
C3 C2 C10 119.8(3) . . ? 
C4 C3 C2 120.1(3) . . ? 
C4 C3 H3 119.9 . . ? 
C2 C3 H3 119.9 . . ? 
C3 C4 C8 120.6(3) . . ? 
C3 C4 S5 125.8(2) . . ? 
C8 C4 S5 113.6(3) . . ? 
C4 S5 C6 88.6(3) . . ? 
F1 C6 C7 128.5(9) . . ? 
F1 C6 S5 116.1(5) . . ? 
C7 C6 S5 115.2(7) . . ? 
C6 C7 C8 111.9(11) . . ? 
C6 C7 H7 124.0 . . ? 
C8 C7 H7 124.1 . . ? 
C9 C8 C7 129.4(7) . . ? 
C9 C8 C4 120.0(3) . . ? 
C7 C8 C4 110.6(7) . . ? 
C6' C5' H5' 124.8 . . ? 
F1' C6' C5' 126.0(15) . . ? 
F1' C6' S7' 116.8(11) . . ? 
C5' C6' S7' 117.2(11) . . ? 
C8 C9 C10 121.2(3) . . ? 
C8 C9 H9 119.4 . . ? 
C10 C9 H9 119.4 . . ? 
C1 C10 C9 121.8(3) 2_666 . ? 
C1 C10 C2 119.9(3) 2_666 . ? 
C9 C10 C2 118.4(3) . . ? 
C12 C11 C1 178.0(4) . . ? 
C11 C12 Si1 171.8(5) . . ? 
C11 C12 Si1' 175.8(5) . . ? 
Si1 C12 Si1' 4.9(8) . . ? 
C12 Si1 C13 105.6(7) . . ? 
C12 Si1 C15 110.1(7) . . ? 
C13 Si1 C15 110.5(8) . . ? 
C12 Si1 C14 109.0(8) . . ? 
C13 Si1 C14 108.6(10) . . ? 
C15 Si1 C14 112.9(8) . . ? 
Si1 C13 H13A 109.5 . . ? 
Si1 C13 H13B 109.5 . . ? 
H13A C13 H13B 109.5 . . ? 
Si1 C13 H13C 109.5 . . ? 
H13A C13 H13C 109.5 . . ? 
H13B C13 H13C 109.5 . . ? 
Si1 C14 H14A 109.5 . . ? 
Si1 C14 H14B 109.5 . . ? 
H14A C14 H14B 109.5 . . ? 
Si1 C14 H14C 109.5 . . ? 
H14A C14 H14C 109.5 . . ? 
H14B C14 H14C 109.5 . . ? 
C16 C15 C18 108.0(7) . . ? 
C16 C15 C17 110.8(8) . . ? 
C18 C15 C17 108.5(7) . . ? 
C16 C15 Si1 108.1(7) . . ? 
C18 C15 Si1 113.3(7) . . ? 
C17 C15 Si1 108.2(6) . . ? 
C15 C16 H16A 109.5 . . ? 
C15 C16 H16B 109.5 . . ? 
H16A C16 H16B 109.5 . . ? 
C15 C16 H16C 109.5 . . ? 
H16A C16 H16C 109.5 . . ? 
H16B C16 H16C 109.5 . . ? 
C15 C17 H17A 109.5 . . ? 
C15 C17 H17B 109.5 . . ? 
H17A C17 H17B 109.5 . . ? 
C15 C17 H17C 109.5 . . ? 
H17A C17 H17C 109.5 . . ? 
H17B C17 H17C 109.5 . . ? 
C20 C18 C19 96.7(12) . . ? 
C20 C18 C15 121.3(10) . . ? 
C19 C18 C15 113.3(7) . . ? 
C20 C18 H18 108.2 . . ? 
C19 C18 H18 108.2 . . ? 
C15 C18 H18 108.2 . . ? 
C18 C19 H19A 109.5 . . ? 
C18 C19 H19B 109.5 . . ? 
H19A C19 H19B 109.5 . . ? 
C18 C19 H19C 109.5 . . ? 
H19A C19 H19C 109.5 . . ? 
H19B C19 H19C 109.5 . . ? 
C18 C20 H20A 109.5 . . ? 
C18 C20 H20B 109.5 . . ? 
H20A C20 H20B 109.5 . . ? 
C18 C20 H20C 109.5 . . ? 
H20A C20 H20C 109.5 . . ? 
H20B C20 H20C 109.5 . . ? 
C13' Si1' C14' 107.6(12) . . ? 
C13' Si1' C15' 116.4(11) . . ? 
C14' Si1' C15' 106.8(10) . . ? 
C13' Si1' C12 114.2(9) . . ? 
C14' Si1' C12 106.6(10) . . ? 
C15' Si1' C12 104.7(8) . . ? 
Si1' C13' H13D 109.5 . . ? 
Si1' C13' H13E 109.5 . . ? 
H13D C13' H13E 109.5 . . ? 
Si1' C13' H13F 109.5 . . ? 
H13D C13' H13F 109.5 . . ? 
H13E C13' H13F 109.5 . . ? 
Si1' C14' H14D 109.5 . . ? 
Si1' C14' H14E 109.5 . . ? 
H14D C14' H14E 109.5 . . ? 
Si1' C14' H14F 109.5 . . ? 
H14D C14' H14F 109.5 . . ? 
H14E C14' H14F 109.5 . . ? 
C16' C15' C18' 110.6(10) . . ? 
C16' C15' C17' 113.7(13) . . ? 
C18' C15' C17' 111.6(12) . . ? 
C16' C15' Si1' 105.4(8) . . ? 
C18' C15' Si1' 111.4(11) . . ? 
C17' C15' Si1' 103.8(10) . . ? 
C15' C16' H16D 109.5 . . ? 
C15' C16' H16E 109.5 . . ? 
H16D C16' H16E 109.5 . . ? 
C15' C16' H16F 109.5 . . ? 
H16D C16' H16F 109.5 . . ? 
H16E C16' H16F 109.5 . . ? 
C15' C17' H17D 109.5 . . ? 
C15' C17' H17E 109.5 . . ? 
H17D C17' H17E 109.5 . . ? 
C15' C17' H17F 109.5 . . ? 
H17D C17' H17F 109.5 . . ? 
H17E C17' H17F 109.5 . . ? 
C20' C18' C19' 89.5(17) . . ? 
C20' C18' C15' 126.0(18) . . ? 
C19' C18' C15' 112.3(11) . . ? 
C20' C18' H18' 109.0 . . ? 
C19' C18' H18' 109.0 . . ? 
C15' C18' H18' 109.0 . . ? 
C18' C19' H19D 109.5 . . ? 
C18' C19' H19E 109.5 . . ? 
H19D C19' H19E 109.5 . . ? 
C18' C19' H19F 109.5 . . ? 
H19D C19' H19F 109.5 . . ? 
H19E C19' H19F 109.5 . . ? 
C18' C20' H20D 109.5 . . ? 
C18' C20' H20E 109.5 . . ? 
H20D C20' H20E 109.5 . . ? 
C18' C20' H20F 109.5 . . ? 
H20D C20' H20F 109.5 . . ? 
H20E C20' H20F 109.5 . . ? 
 
_diffrn_measured_fraction_theta_max    0.978 
_diffrn_reflns_theta_full              68.47 
_diffrn_measured_fraction_theta_full   0.978 
_refine_diff_density_max    0.833 
_refine_diff_density_min   -0.585 
_refine_diff_density_rms    0.126 
