 
data_x08120 
 
_audit_creation_method            SHELXL-97 
_chemical_name_systematic 
; 
 ? 
; 
_chemical_name_common             ? 
_chemical_melting_point           ? 
_chemical_formula_moiety 
 'C45 H53 N Si2' 
_chemical_formula_sum 
 'C45 H53 N Si2' 
_chemical_formula_weight          664.06 
 
loop_ 
 _atom_type_symbol 
 _atom_type_description 
 _atom_type_scat_dispersion_real 
 _atom_type_scat_dispersion_imag 
 _atom_type_scat_source 
 'C'  'C'   0.0181   0.0091 
 'International Tables Vol C Tables 4.2.6.8 and 6.1.1.4' 
 'H'  'H'   0.0000   0.0000 
 'International Tables Vol C Tables 4.2.6.8 and 6.1.1.4' 
 'N'  'N'   0.0311   0.0180 
 'International Tables Vol C Tables 4.2.6.8 and 6.1.1.4' 
 'Si'  'Si'   0.2541   0.3302 
 'International Tables Vol C Tables 4.2.6.8 and 6.1.1.4' 
 
_symmetry_cell_setting            monoclinic
_symmetry_space_group_name_H-M    'P 21/c'
_symmetry_space_group_name_Hall   '-P 2ybc'
 
loop_ 
 _symmetry_equiv_pos_as_xyz 
 'x, y, z' 
 '-x, y+1/2, -z+1/2' 
 '-x, -y, -z' 
 'x, -y-1/2, z-1/2' 
 
_cell_length_a                    17.5850(10) 
_cell_length_b                    7.2592(4) 
_cell_length_c                    15.3146(10) 
_cell_angle_alpha                 90.00 
_cell_angle_beta                  90.627(3) 
_cell_angle_gamma                 90.00 
_cell_volume                      1954.8(2) 
_cell_formula_units_Z             2 
_cell_measurement_temperature     90.0(2) 
_cell_measurement_reflns_used     9876
_cell_measurement_theta_min       2.89
_cell_measurement_theta_max       68.94
 
_exptl_crystal_description        rod 
_exptl_crystal_colour             blue
_exptl_crystal_size_max           0.25 
_exptl_crystal_size_mid           0.06 
_exptl_crystal_size_min           0.03 
_exptl_crystal_density_meas       ? 
_exptl_crystal_density_diffrn     1.128 
_exptl_crystal_density_method     'not measured' 
_exptl_crystal_F_000              716 
_exptl_absorpt_coefficient_mu     1.043 
_exptl_absorpt_correction_type    multi-scan 
_exptl_absorpt_correction_T_min   0.786
_exptl_absorpt_correction_T_max   0.969 
_exptl_absorpt_process_details    'Sadabs in APEX2 (BrukerAXS, 2006)' 
 
_exptl_special_details 
; 
Some frames of data had to be discarded because of a detector malfunction,
which explains the relatively poor completeness (93.5%).  Nevertheless, 
the object of the exercise was to ascertain the mode of packing of the 
molecules, which is unambiguous.
; 
 
_diffrn_ambient_temperature       90.0(2) 
_diffrn_radiation_wavelength      1.54178 
_diffrn_radiation_type            CuK\a 
_diffrn_radiation_source          'fine-focus rotating anode' 
_diffrn_radiation_monochromator   'graded multilayer optics' 
_diffrn_measurement_device_type   'Bruker X8 Proteum diffractometer'
_diffrn_measurement_method        '\f and \w scans'            
_diffrn_detector_area_resol_mean  18
_diffrn_standards_number          0 
_diffrn_standards_interval_count  . 
_diffrn_standards_interval_time   . 
_diffrn_standards_decay_%         ? 
_diffrn_reflns_number             22232 
_diffrn_reflns_av_R_equivalents   0.0627 
_diffrn_reflns_av_sigmaI/netI     0.0387 
_diffrn_reflns_limit_h_min        -21 
_diffrn_reflns_limit_h_max        21 
_diffrn_reflns_limit_k_min        -8 
_diffrn_reflns_limit_k_max        8 
_diffrn_reflns_limit_l_min        -17 
_diffrn_reflns_limit_l_max        18 
_diffrn_reflns_theta_min          2.51 
_diffrn_reflns_theta_max          68.94 
_reflns_number_total              3401 
_reflns_number_gt                 2830 
_reflns_threshold_expression      >2\s(I)    
 
_computing_data_collection        'APEX2 (Bruker-AXS, 2006)'            
_computing_cell_refinement        'APEX2 (Bruker-AXS, 2006)'            
_computing_data_reduction         'APEX2 (Bruker-AXS, 2006)'            
_computing_structure_solution     'SHELXS-97 (Sheldrick, 2008)' 
_computing_structure_refinement   'SHELXL-97 (Sheldrick, 2008)' 
_computing_molecular_graphics     'XP in SHELXTL (Sheldrick, 2008)'
_computing_publication_material
; 
SHELX97-2 (Sheldrick, 2008) and local procedures 
; 

_publ_section_exptl_refinement
;
H atoms were found in difference Fourier maps and subsequently placed in
idealized positions with constrained C-H distances of 0.98 \%A (C~Me~H),
1.00 \%A (R~3~CH) and 0.95 \%A (C~Ar~H) with U~iso~(H) values set to 
either 1.5U~eq~ or 1.2U~eq~ of the attached atom respectively.

The molecule sits on a crystallographic inversion centre, which forces the
cyano group to be disordered exactly 50:50.
;

 
_refine_special_details 
; 
 Refinement of F^2^ against ALL reflections.  The weighted R-factor wR and 
 goodness of fit S are based on F^2^, conventional R-factors R are based 
 on F, with F set to zero for negative F^2^. The threshold expression of 
 F^2^ > 2\s(F^2^) is used only for calculating R-factors(gt) etc. and is 
 not relevant to the choice of reflections for refinement.  R-factors based 
 on F^2^ are statistically about twice as large as those based on F, and R- 
 factors based on ALL data will be even larger. 
; 
 
_refine_ls_structure_factor_coef  Fsqd  
_refine_ls_matrix_type            full 
_refine_ls_weighting_scheme       calc  
_refine_ls_weighting_details 
 'calc w=1/[\s^2^(Fo^2^)+(0.0525P)^2^+5.1038P] where P=(Fo^2^+2Fc^2^)/3' 
_atom_sites_solution_primary      direct 
_atom_sites_solution_secondary    difmap 
_atom_sites_solution_hydrogens    geom 
_refine_ls_hydrogen_treatment     constr 
_refine_ls_extinction_method      none 
_refine_ls_number_reflns          3401 
_refine_ls_number_parameters      271
_refine_ls_number_restraints      132 
_refine_ls_R_factor_all           0.0829 
_refine_ls_R_factor_gt            0.0698 
_refine_ls_wR_factor_ref          0.1931 
_refine_ls_wR_factor_gt           0.1840 
_refine_ls_goodness_of_fit_ref    1.158 
_refine_ls_restrained_S_all       1.151 
_refine_ls_shift/su_max           0.001 
_refine_ls_shift/su_mean          0.000 
 
loop_ 
 _atom_site_label 
 _atom_site_type_symbol 
 _atom_site_fract_x 
 _atom_site_fract_y 
 _atom_site_fract_z 
 _atom_site_U_iso_or_equiv 
 _atom_site_adp_type 
 _atom_site_occupancy 
 _atom_site_symmetry_multiplicity 
 _atom_site_calc_flag 
 _atom_site_refinement_flags 
 _atom_site_disorder_assembly 
 _atom_site_disorder_group 
Si1 Si 0.82672(5) 0.61125(14) 0.56815(6) 0.0294(3) Uani 1 1 d . . . 
C1 C 0.57961(18) 0.5239(5) 0.51011(19) 0.0225(7) Uani 1 1 d . . . 
C2 C 0.55172(19) 0.3655(4) 0.46717(19) 0.0220(7) Uani 1 1 d . . . 
C3 C 0.60050(19) 0.2297(5) 0.4339(2) 0.0249(7) Uani 1 1 d . . . 
H3 H 0.6539 0.2471 0.4388 0.030 Uiso 1 1 calc R . . 
C4 C 0.57304(19) 0.0715(5) 0.3943(2) 0.0251(7) Uani 1 1 d . . . 
C5 C 0.6224(2) -0.0684(5) 0.3616(2) 0.0292(8) Uani 1 1 d . C . 
H5 H 0.6759 -0.0521 0.3656 0.035 Uiso 1 1 calc R . . 
C6 C 0.5938(2) -0.2241(5) 0.3249(2) 0.0308(8) Uani 1 1 d . . . 
H6 H 0.6276 -0.3153 0.3038 0.037 Uiso 0.50 1 calc PR A 2 
C7 C 0.5135(2) -0.2533(5) 0.3175(2) 0.0291(8) Uani 1 1 d . C . 
H7 H 0.4944 -0.3633 0.2919 0.035 Uiso 1 1 calc R . . 
C8 C 0.4646(2) -0.1230(5) 0.3474(2) 0.0258(7) Uani 1 1 d . . . 
H8 H 0.4113 -0.1430 0.3423 0.031 Uiso 1 1 calc R C . 
C9 C 0.49194(19) 0.0433(5) 0.38628(19) 0.0232(7) Uani 1 1 d . C . 
C10 C 0.44352(19) 0.1793(5) 0.4168(2) 0.0238(7) Uani 1 1 d . . . 
H10 H 0.3902 0.1629 0.4100 0.029 Uiso 1 1 calc R C . 
C11 C 0.47050(18) 0.3398(5) 0.45720(19) 0.0219(7) Uani 1 1 d . . . 
C12 C 0.6599(2) 0.5474(5) 0.5230(2) 0.0250(7) Uani 1 1 d . . . 
C13 C 0.7267(2) 0.5695(5) 0.5362(2) 0.0280(8) Uani 1 1 d . B . 
C14 C 0.833(2) 0.855(5) 0.605(2) 0.0578(14) Uani 0.639(9) 1 d PDU B 1 
H14 H 0.8194 0.8629 0.6682 0.069 Uiso 0.639(9) 1 calc PR B 1 
C15 C 0.7796(4) 0.9842(10) 0.5498(8) 0.077(3) Uani 0.639(9) 1 d PDU B 1 
H15A H 0.7265 0.9495 0.5595 0.116 Uiso 0.639(9) 1 calc PR B 1 
H15B H 0.7913 0.9710 0.4877 0.116 Uiso 0.639(9) 1 calc PR B 1 
H15C H 0.7874 1.1125 0.5677 0.116 Uiso 0.639(9) 1 calc PR B 1 
C16 C 0.9175(5) 0.9253(16) 0.5934(10) 0.075(3) Uani 0.639(9) 1 d PDU B 1 
H16A H 0.9519 0.8522 0.6303 0.113 Uiso 0.639(9) 1 calc PR B 1 
H16B H 0.9207 1.0552 0.6105 0.113 Uiso 0.639(9) 1 calc PR B 1 
H16C H 0.9320 0.9123 0.5321 0.113 Uiso 0.639(9) 1 calc PR B 1 
C14' C 0.832(4) 0.862(10) 0.608(4) 0.0578(14) Uani 0.361(9) 1 d PDU B 2 
H14' H 0.8171 0.9449 0.5590 0.069 Uiso 0.361(9) 1 calc PR B 2 
C15' C 0.9134(8) 0.923(2) 0.6425(10) 0.044(3) Uani 0.361(9) 1 d PDU B 2 
H15D H 0.9511 0.9006 0.5970 0.066 Uiso 0.361(9) 1 calc PR B 2 
H15E H 0.9269 0.8515 0.6947 0.066 Uiso 0.361(9) 1 calc PR B 2 
H15F H 0.9126 1.0543 0.6570 0.066 Uiso 0.361(9) 1 calc PR B 2 
C16' C 0.7810(8) 0.9058(19) 0.6887(11) 0.062(3) Uani 0.361(9) 1 d PDU B 2 
H16D H 0.7285 0.8690 0.6756 0.093 Uiso 0.361(9) 1 calc PR B 2 
H16E H 0.7827 1.0383 0.7010 0.093 Uiso 0.361(9) 1 calc PR B 2 
H16F H 0.7998 0.8377 0.7399 0.093 Uiso 0.361(9) 1 calc PR B 2 
C17 C 0.8882(6) 0.5895(11) 0.4735(5) 0.0307(17) Uani 0.639(9) 1 d PDU B 1 
H17 H 0.9421 0.6050 0.4940 0.037 Uiso 0.639(9) 1 calc PR B 1 
C18 C 0.8714(5) 0.7393(15) 0.4054(6) 0.058(2) Uani 0.639(9) 1 d PDU B 1 
H18A H 0.8767 0.8609 0.4325 0.087 Uiso 0.639(9) 1 calc PR B 1 
H18B H 0.8193 0.7244 0.3829 0.087 Uiso 0.639(9) 1 calc PR B 1 
H18C H 0.9073 0.7282 0.3572 0.087 Uiso 0.639(9) 1 calc PR B 1 
C19 C 0.8803(6) 0.3978(14) 0.4342(7) 0.043(2) Uani 0.639(9) 1 d PDU B 1 
H19A H 0.8911 0.3051 0.4792 0.065 Uiso 0.639(9) 1 calc PR B 1 
H19B H 0.9164 0.3838 0.3864 0.065 Uiso 0.639(9) 1 calc PR B 1 
H19C H 0.8284 0.3810 0.4118 0.065 Uiso 0.639(9) 1 calc PR B 1 
C17' C 0.8862(12) 0.523(2) 0.4625(10) 0.0307(17) Uani 0.361(9) 1 d PDU B 2 
H17' H 0.9406 0.5550 0.4746 0.037 Uiso 0.361(9) 1 calc PR B 2 
C18' C 0.8629(8) 0.631(2) 0.3808(9) 0.045(3) Uani 0.361(9) 1 d PDU B 2 
H18D H 0.8666 0.7638 0.3928 0.068 Uiso 0.361(9) 1 calc PR B 2 
H18E H 0.8104 0.6005 0.3645 0.068 Uiso 0.361(9) 1 calc PR B 2 
H18F H 0.8967 0.5994 0.3327 0.068 Uiso 0.361(9) 1 calc PR B 2 
C19' C 0.8839(13) 0.316(2) 0.4482(12) 0.046(3) Uani 0.361(9) 1 d PDU B 2 
H19D H 0.9005 0.2530 0.5017 0.069 Uiso 0.361(9) 1 calc PR B 2 
H19E H 0.9178 0.2831 0.4004 0.069 Uiso 0.361(9) 1 calc PR B 2 
H19F H 0.8318 0.2782 0.4333 0.069 Uiso 0.361(9) 1 calc PR B 2 
C20 C 0.8485(2) 0.4399(5) 0.6566(2) 0.0306(8) Uani 1 1 d . B . 
H20 H 0.8441 0.3156 0.6288 0.037 Uiso 1 1 calc R . . 
C21 C 0.9297(2) 0.4523(7) 0.6933(3) 0.0462(11) Uani 1 1 d . . . 
H21A H 0.9348 0.5636 0.7291 0.069 Uiso 1 1 calc R B . 
H21B H 0.9657 0.4579 0.6449 0.069 Uiso 1 1 calc R . . 
H21C H 0.9406 0.3436 0.7292 0.069 Uiso 1 1 calc R . . 
C22 C 0.7902(2) 0.4430(8) 0.7297(3) 0.0517(12) Uani 1 1 d . . . 
H22A H 0.8012 0.3431 0.7711 0.078 Uiso 1 1 calc R B . 
H22B H 0.7391 0.4263 0.7048 0.078 Uiso 1 1 calc R . . 
H22C H 0.7929 0.5615 0.7602 0.078 Uiso 1 1 calc R . . 
C23 C 0.6466(4) -0.3568(10) 0.2961(4) 0.0294(15) Uani 0.50 1 d P C 1 
N1 N 0.6890(4) -0.4670(10) 0.2726(5) 0.0421(16) Uani 0.50 1 d P C 1 
 
loop_ 
 _atom_site_aniso_label 
 _atom_site_aniso_U_11 
 _atom_site_aniso_U_22 
 _atom_site_aniso_U_33 
 _atom_site_aniso_U_23 
 _atom_site_aniso_U_13 
 _atom_site_aniso_U_12 
Si1 0.0211(5) 0.0305(5) 0.0366(5) 0.0054(4) -0.0059(4) 0.0008(4) 
C1 0.0230(17) 0.0260(17) 0.0184(14) 0.0044(13) -0.0015(12) 0.0017(13) 
C2 0.0261(17) 0.0224(17) 0.0174(14) 0.0042(12) -0.0006(12) 0.0018(13) 
C3 0.0233(17) 0.0313(18) 0.0200(15) 0.0031(13) -0.0018(12) 0.0020(14) 
C4 0.0289(18) 0.0274(18) 0.0189(15) 0.0048(13) 0.0006(13) 0.0050(14) 
C5 0.0299(18) 0.034(2) 0.0240(16) 0.0020(14) 0.0052(14) 0.0049(15) 
C6 0.039(2) 0.032(2) 0.0214(16) 0.0016(14) 0.0057(14) 0.0058(16) 
C7 0.042(2) 0.0279(19) 0.0178(15) -0.0002(13) 0.0010(14) 0.0010(15) 
C8 0.0315(18) 0.0285(18) 0.0172(15) 0.0017(13) -0.0002(13) -0.0006(14) 
C9 0.0296(18) 0.0237(17) 0.0164(14) 0.0018(12) -0.0015(12) 0.0017(14) 
C10 0.0238(17) 0.0281(18) 0.0193(15) 0.0023(13) -0.0036(12) 0.0012(14) 
C11 0.0233(17) 0.0258(17) 0.0166(14) 0.0049(12) -0.0019(12) 0.0032(13) 
C12 0.0276(19) 0.0268(18) 0.0206(15) 0.0030(13) -0.0006(13) 0.0032(14) 
C13 0.0251(18) 0.0313(19) 0.0277(17) 0.0041(14) -0.0013(14) 0.0029(15) 
C14 0.033(2) 0.030(3) 0.110(4) -0.001(2) -0.023(2) 0.001(2) 
C15 0.034(4) 0.028(4) 0.170(8) 0.017(4) -0.034(5) -0.004(3) 
C16 0.039(4) 0.042(4) 0.145(9) -0.004(7) -0.032(6) -0.001(3) 
C14' 0.033(2) 0.030(3) 0.110(4) -0.001(2) -0.023(2) 0.001(2) 
C15' 0.040(5) 0.027(6) 0.066(8) -0.018(7) -0.021(6) -0.006(5) 
C16' 0.051(6) 0.037(6) 0.098(8) -0.006(6) -0.012(6) -0.001(5) 
C17 0.0200(19) 0.042(5) 0.030(3) 0.002(3) -0.0002(19) 0.001(4) 
C18 0.044(4) 0.076(6) 0.054(5) 0.029(4) 0.011(4) 0.013(5) 
C19 0.035(4) 0.052(5) 0.042(4) -0.020(5) 0.011(3) -0.007(5) 
C17' 0.0200(19) 0.042(5) 0.030(3) 0.002(3) -0.0002(19) 0.001(4) 
C18' 0.031(5) 0.067(8) 0.038(6) 0.011(6) 0.003(5) 0.013(6) 
C19' 0.056(7) 0.051(7) 0.031(6) -0.012(7) 0.004(5) 0.010(8) 
C20 0.0275(19) 0.036(2) 0.0285(17) 0.0000(15) -0.0045(14) 0.0050(15) 
C21 0.031(2) 0.070(3) 0.037(2) 0.008(2) -0.0063(17) 0.008(2) 
C22 0.036(2) 0.085(4) 0.034(2) 0.010(2) -0.0015(17) -0.001(2) 
C23 0.029(4) 0.032(4) 0.028(3) -0.007(3) -0.001(3) -0.002(3) 
N1 0.036(4) 0.043(4) 0.047(4) -0.015(3) -0.004(3) 0.001(3) 
 
_geom_special_details 
; 
 All esds (except the esd in the dihedral angle between two l.s. planes) 
 are estimated using the full covariance matrix.  The cell esds are taken 
 into account individually in the estimation of esds in distances, angles 
 and torsion angles; correlations between esds in cell parameters are only 
 used when they are defined by crystal symmetry.  An approximate (isotropic) 
 treatment of cell esds is used for estimating esds involving l.s. planes. 
; 
 
loop_ 
 _geom_bond_atom_site_label_1 
 _geom_bond_atom_site_label_2 
 _geom_bond_distance 
 _geom_bond_site_symmetry_2 
 _geom_bond_publ_flag 
Si1 C17 1.824(9) . ? 
Si1 C13 1.845(4) . ? 
Si1 C14 1.86(3) . ? 
Si1 C20 1.876(4) . ? 
Si1 C14' 1.92(5) . ? 
Si1 C17' 2.038(19) . ? 
C1 C2 1.410(5) . ? 
C1 C11 1.420(5) 3_666 ? 
C1 C12 1.433(4) . ? 
C2 C3 1.406(5) . ? 
C2 C11 1.447(4) . ? 
C3 C4 1.383(5) . ? 
C3 H3 0.9500 . ? 
C4 C5 1.430(5) . ? 
C4 C9 1.445(5) . ? 
C5 C6 1.356(5) . ? 
C5 H5 0.9500 . ? 
C6 C23 1.412(8) . ? 
C6 C7 1.431(5) . ? 
C6 H6 0.9500 . ? 
C7 C8 1.362(5) . ? 
C7 H7 0.9500 . ? 
C8 C9 1.427(5) . ? 
C8 H8 0.9500 . ? 
C9 C10 1.388(5) . ? 
C10 C11 1.400(5) . ? 
C10 H10 0.9500 . ? 
C11 C1 1.420(5) 3_666 ? 
C12 C13 1.202(5) . ? 
C14 C15 1.57(6) . ? 
C14 C16 1.58(3) . ? 
C14 H14 1.0000 . ? 
C15 H15A 0.9800 . ? 
C15 H15B 0.9800 . ? 
C15 H15C 0.9800 . ? 
C16 H16A 0.9800 . ? 
C16 H16B 0.9800 . ? 
C16 H16C 0.9800 . ? 
C14' C16' 1.57(4) . ? 
C14' C15' 1.58(6) . ? 
C14' H14' 1.0000 . ? 
C15' H15D 0.9800 . ? 
C15' H15E 0.9800 . ? 
C15' H15F 0.9800 . ? 
C16' H16D 0.9800 . ? 
C16' H16E 0.9800 . ? 
C16' H16F 0.9800 . ? 
C17 C19 1.522(10) . ? 
C17 C18 1.534(9) . ? 
C17 H17 1.0000 . ? 
C18 H18A 0.9800 . ? 
C18 H18B 0.9800 . ? 
C18 H18C 0.9800 . ? 
C19 H19A 0.9800 . ? 
C19 H19B 0.9800 . ? 
C19 H19C 0.9800 . ? 
C17' C19' 1.521(15) . ? 
C17' C18' 1.530(14) . ? 
C17' H17' 1.0000 . ? 
C18' H18D 0.9800 . ? 
C18' H18E 0.9800 . ? 
C18' H18F 0.9800 . ? 
C19' H19D 0.9800 . ? 
C19' H19E 0.9800 . ? 
C19' H19F 0.9800 . ? 
C20 C22 1.527(5) . ? 
C20 C21 1.531(5) . ? 
C20 H20 1.0000 . ? 
C21 H21A 0.9800 . ? 
C21 H21B 0.9800 . ? 
C21 H21C 0.9800 . ? 
C22 H22A 0.9800 . ? 
C22 H22B 0.9800 . ? 
C22 H22C 0.9800 . ? 
C23 N1 1.154(10) . ? 
 
loop_ 
 _geom_angle_atom_site_label_1 
 _geom_angle_atom_site_label_2 
 _geom_angle_atom_site_label_3 
 _geom_angle 
 _geom_angle_site_symmetry_1 
 _geom_angle_site_symmetry_3 
 _geom_angle_publ_flag 
C17 Si1 C13 110.3(3) . . ? 
C17 Si1 C14 106.7(8) . . ? 
C13 Si1 C14 107.1(15) . . ? 
C17 Si1 C20 113.5(3) . . ? 
C13 Si1 C20 105.61(16) . . ? 
C14 Si1 C20 113.5(14) . . ? 
C17 Si1 C14' 107.8(11) . . ? 
C13 Si1 C14' 107(3) . . ? 
C20 Si1 C14' 113(2) . . ? 
C13 Si1 C17' 103.5(5) . . ? 
C14 Si1 C17' 120.6(9) . . ? 
C20 Si1 C17' 105.2(4) . . ? 
C14' Si1 C17' 121.7(12) . . ? 
C2 C1 C11 121.2(3) . 3_666 ? 
C2 C1 C12 119.9(3) . . ? 
C11 C1 C12 118.8(3) 3_666 . ? 
C3 C2 C1 122.0(3) . . ? 
C3 C2 C11 118.5(3) . . ? 
C1 C2 C11 119.5(3) . . ? 
C4 C3 C2 122.0(3) . . ? 
C4 C3 H3 119.0 . . ? 
C2 C3 H3 119.0 . . ? 
C3 C4 C5 122.2(3) . . ? 
C3 C4 C9 119.6(3) . . ? 
C5 C4 C9 118.2(3) . . ? 
C6 C5 C4 120.8(3) . . ? 
C6 C5 H5 119.6 . . ? 
C4 C5 H5 119.6 . . ? 
C5 C6 C23 117.1(4) . . ? 
C5 C6 C7 121.2(3) . . ? 
C23 C6 C7 121.7(4) . . ? 
C5 C6 H6 119.4 . . ? 
C7 C6 H6 119.4 . . ? 
C8 C7 C6 119.8(3) . . ? 
C8 C7 H7 120.1 . . ? 
C6 C7 H7 120.1 . . ? 
C7 C8 C9 121.1(3) . . ? 
C7 C8 H8 119.4 . . ? 
C9 C8 H8 119.4 . . ? 
C10 C9 C8 122.4(3) . . ? 
C10 C9 C4 118.7(3) . . ? 
C8 C9 C4 118.9(3) . . ? 
C9 C10 C11 122.3(3) . . ? 
C9 C10 H10 118.8 . . ? 
C11 C10 H10 118.8 . . ? 
C10 C11 C1 121.8(3) . 3_666 ? 
C10 C11 C2 118.9(3) . . ? 
C1 C11 C2 119.3(3) 3_666 . ? 
C13 C12 C1 178.1(4) . . ? 
C12 C13 Si1 174.0(3) . . ? 
C15 C14 C16 108(2) . . ? 
C15 C14 Si1 111.5(18) . . ? 
C16 C14 Si1 109(2) . . ? 
C15 C14 H14 109.4 . . ? 
C16 C14 H14 109.4 . . ? 
Si1 C14 H14 109.4 . . ? 
C14 C15 H15A 109.5 . . ? 
C14 C15 H15B 109.5 . . ? 
H15A C15 H15B 109.5 . . ? 
C14 C15 H15C 109.5 . . ? 
H15A C15 H15C 109.5 . . ? 
H15B C15 H15C 109.5 . . ? 
C14 C16 H16A 109.5 . . ? 
C14 C16 H16B 109.5 . . ? 
H16A C16 H16B 109.5 . . ? 
C14 C16 H16C 109.5 . . ? 
H16A C16 H16C 109.5 . . ? 
H16B C16 H16C 109.5 . . ? 
C16' C14' C15' 102(2) . . ? 
C16' C14' Si1 115(2) . . ? 
C15' C14' Si1 115(5) . . ? 
C16' C14' H14' 108.5 . . ? 
C15' C14' H14' 108.5 . . ? 
Si1 C14' H14' 108.5 . . ? 
C14' C15' H15D 109.5 . . ? 
C14' C15' H15E 109.5 . . ? 
H15D C15' H15E 109.5 . . ? 
C14' C15' H15F 109.5 . . ? 
H15D C15' H15F 109.5 . . ? 
H15E C15' H15F 109.5 . . ? 
C14' C16' H16D 109.5 . . ? 
C14' C16' H16E 109.5 . . ? 
H16D C16' H16E 109.5 . . ? 
C14' C16' H16F 109.5 . . ? 
H16D C16' H16F 109.5 . . ? 
H16E C16' H16F 109.5 . . ? 
C19 C17 C18 111.3(7) . . ? 
C19 C17 Si1 109.9(6) . . ? 
C18 C17 Si1 111.5(6) . . ? 
C19 C17 H17 108.0 . . ? 
C18 C17 H17 108.0 . . ? 
Si1 C17 H17 108.0 . . ? 
C17 C18 H18A 109.5 . . ? 
C17 C18 H18B 109.5 . . ? 
H18A C18 H18B 109.5 . . ? 
C17 C18 H18C 109.5 . . ? 
H18A C18 H18C 109.5 . . ? 
H18B C18 H18C 109.5 . . ? 
C17 C19 H19A 109.5 . . ? 
C17 C19 H19B 109.5 . . ? 
H19A C19 H19B 109.5 . . ? 
C17 C19 H19C 109.5 . . ? 
H19A C19 H19C 109.5 . . ? 
H19B C19 H19C 109.5 . . ? 
C19' C17' C18' 112.6(12) . . ? 
C19' C17' Si1 114.3(12) . . ? 
C18' C17' Si1 110.7(11) . . ? 
C19' C17' H17' 106.2 . . ? 
C18' C17' H17' 106.2 . . ? 
Si1 C17' H17' 106.2 . . ? 
C17' C18' H18D 109.5 . . ? 
C17' C18' H18E 109.5 . . ? 
H18D C18' H18E 109.5 . . ? 
C17' C18' H18F 109.5 . . ? 
H18D C18' H18F 109.5 . . ? 
H18E C18' H18F 109.5 . . ? 
C17' C19' H19D 109.5 . . ? 
C17' C19' H19E 109.5 . . ? 
H19D C19' H19E 109.5 . . ? 
C17' C19' H19F 109.5 . . ? 
H19D C19' H19F 109.5 . . ? 
H19E C19' H19F 109.5 . . ? 
C22 C20 C21 111.2(3) . . ? 
C22 C20 Si1 112.7(3) . . ? 
C21 C20 Si1 114.1(3) . . ? 
C22 C20 H20 106.0 . . ? 
C21 C20 H20 106.0 . . ? 
Si1 C20 H20 106.0 . . ? 
C20 C21 H21A 109.5 . . ? 
C20 C21 H21B 109.5 . . ? 
H21A C21 H21B 109.5 . . ? 
C20 C21 H21C 109.5 . . ? 
H21A C21 H21C 109.5 . . ? 
H21B C21 H21C 109.5 . . ? 
C20 C22 H22A 109.5 . . ? 
C20 C22 H22B 109.5 . . ? 
H22A C22 H22B 109.5 . . ? 
C20 C22 H22C 109.5 . . ? 
H22A C22 H22C 109.5 . . ? 
H22B C22 H22C 109.5 . . ? 
N1 C23 C6 179.0(8) . . ? 
 
loop_ 
 _geom_torsion_atom_site_label_1 
 _geom_torsion_atom_site_label_2 
 _geom_torsion_atom_site_label_3 
 _geom_torsion_atom_site_label_4 
 _geom_torsion 
 _geom_torsion_site_symmetry_1 
 _geom_torsion_site_symmetry_2 
 _geom_torsion_site_symmetry_3 
 _geom_torsion_site_symmetry_4 
 _geom_torsion_publ_flag 
C11 C1 C2 C3 179.6(3) 3_666 . . . ? 
C12 C1 C2 C3 -1.8(4) . . . . ? 
C11 C1 C2 C11 -0.9(5) 3_666 . . . ? 
C12 C1 C2 C11 177.8(3) . . . . ? 
C1 C2 C3 C4 177.9(3) . . . . ? 
C11 C2 C3 C4 -1.7(4) . . . . ? 
C2 C3 C4 C5 -178.9(3) . . . . ? 
C2 C3 C4 C9 0.1(5) . . . . ? 
C3 C4 C5 C6 178.4(3) . . . . ? 
C9 C4 C5 C6 -0.6(5) . . . . ? 
C4 C5 C6 C23 -178.6(4) . . . . ? 
C4 C5 C6 C7 0.1(5) . . . . ? 
C5 C6 C7 C8 0.2(5) . . . . ? 
C23 C6 C7 C8 178.9(4) . . . . ? 
C6 C7 C8 C9 0.0(5) . . . . ? 
C7 C8 C9 C10 179.5(3) . . . . ? 
C7 C8 C9 C4 -0.5(4) . . . . ? 
C3 C4 C9 C10 1.7(4) . . . . ? 
C5 C4 C9 C10 -179.2(3) . . . . ? 
C3 C4 C9 C8 -178.3(3) . . . . ? 
C5 C4 C9 C8 0.8(4) . . . . ? 
C8 C9 C10 C11 178.1(3) . . . . ? 
C4 C9 C10 C11 -1.9(4) . . . . ? 
C9 C10 C11 C1 -178.6(3) . . . 3_666 ? 
C9 C10 C11 C2 0.3(4) . . . . ? 
C3 C2 C11 C10 1.5(4) . . . . ? 
C1 C2 C11 C10 -178.1(3) . . . . ? 
C3 C2 C11 C1 -179.6(3) . . . 3_666 ? 
C1 C2 C11 C1 0.8(5) . . . 3_666 ? 
C17 Si1 C14 C15 82.0(16) . . . . ? 
C13 Si1 C14 C15 -36.1(14) . . . . ? 
C20 Si1 C14 C15 -152.2(10) . . . . ? 
C14' Si1 C14 C15 -102(100) . . . . ? 
C17' Si1 C14 C15 82(2) . . . . ? 
C17 Si1 C14 C16 -37(3) . . . . ? 
C13 Si1 C14 C16 -155(2) . . . . ? 
C20 Si1 C14 C16 89(2) . . . . ? 
C14' Si1 C14 C16 139(100) . . . . ? 
C17' Si1 C14 C16 -37(3) . . . . ? 
C17 Si1 C14' C16' 179(4) . . . . ? 
C13 Si1 C14' C16' 60(6) . . . . ? 
C14 Si1 C14' C16' 175(100) . . . . ? 
C20 Si1 C14' C16' -55(6) . . . . ? 
C17' Si1 C14' C16' 178(4) . . . . ? 
C17 Si1 C14' C15' -64(4) . . . . ? 
C13 Si1 C14' C15' 178(2) . . . . ? 
C14 Si1 C14' C15' -68(100) . . . . ? 
C20 Si1 C14' C15' 62(3) . . . . ? 
C17' Si1 C14' C15' -64(5) . . . . ? 
C13 Si1 C17 C19 -58.9(7) . . . . ? 
C14 Si1 C17 C19 -174.9(18) . . . . ? 
C20 Si1 C17 C19 59.4(7) . . . . ? 
C14' Si1 C17 C19 -175(3) . . . . ? 
C13 Si1 C17 C18 65.1(6) . . . . ? 
C14 Si1 C17 C18 -51.0(18) . . . . ? 
C20 Si1 C17 C18 -176.7(5) . . . . ? 
C14' Si1 C17 C18 -51(3) . . . . ? 
C17' Si1 C17 C18 128(3) . . . . ? 
C17 Si1 C17' C19' 170(4) . . . . ? 
C13 Si1 C17' C19' -68.8(12) . . . . ? 
C14 Si1 C17' C19' 172(2) . . . . ? 
C20 Si1 C17' C19' 41.8(13) . . . . ? 
C14' Si1 C17' C19' 172(4) . . . . ? 
C17 Si1 C17' C18' -62(3) . . . . ? 
C13 Si1 C17' C18' 59.6(12) . . . . ? 
C14 Si1 C17' C18' -60(2) . . . . ? 
C20 Si1 C17' C18' 170.2(10) . . . . ? 
C14' Si1 C17' C18' -60(4) . . . . ? 
C17 Si1 C20 C22 -172.4(4) . . . . ? 
C13 Si1 C20 C22 -51.5(3) . . . . ? 
C14 Si1 C20 C22 65.5(13) . . . . ? 
C14' Si1 C20 C22 65(2) . . . . ? 
C17' Si1 C20 C22 -160.6(6) . . . . ? 
C17 Si1 C20 C21 59.5(4) . . . . ? 
C13 Si1 C20 C21 -179.6(3) . . . . ? 
C14 Si1 C20 C21 -62.5(13) . . . . ? 
C14' Si1 C20 C21 -63(2) . . . . ? 
C17' Si1 C20 C21 71.3(6) . . . . ? 
 
_diffrn_measured_fraction_theta_max    0.936 
_diffrn_reflns_theta_full              68.94 
_diffrn_measured_fraction_theta_full   0.935 
_refine_diff_density_max    0.358 
_refine_diff_density_min   -0.301 
_refine_diff_density_rms    0.066 
