 
data_x10085x 
 
_audit_creation_method            SHELXL-97 
_chemical_name_systematic 
; 
 ? 
; 
_chemical_name_common             ? 
_chemical_melting_point           ? 
_chemical_formula_moiety 
 'C34 H38 O2 Si2' 
_chemical_formula_sum 
 'C34 H38 O2 Si2' 
_chemical_formula_weight          534.82 
 
loop_ 
 _atom_type_symbol 
 _atom_type_description 
 _atom_type_scat_dispersion_real 
 _atom_type_scat_dispersion_imag 
 _atom_type_scat_source 
 'C'  'C'   0.0181   0.0091 
 'International Tables Vol C Tables 4.2.6.8 and 6.1.1.4' 
 'H'  'H'   0.0000   0.0000 
 'International Tables Vol C Tables 4.2.6.8 and 6.1.1.4' 
 'O'  'O'   0.0492   0.0322 
 'International Tables Vol C Tables 4.2.6.8 and 6.1.1.4' 
 'Si'  'Si'   0.2541   0.3302 
 'International Tables Vol C Tables 4.2.6.8 and 6.1.1.4' 
 
_symmetry_cell_setting            triclinic 
_symmetry_space_group_name_H-M    'P -1'
_symmetry_space_group_name_Hall   '-P 1'
 
loop_ 
 _symmetry_equiv_pos_as_xyz 
 'x, y, z' 
 '-x, -y, -z' 
 
_cell_length_a                    6.3736(3) 
_cell_length_b                    6.9883(3) 
_cell_length_c                    17.1653(7) 
_cell_angle_alpha                 80.932(2) 
_cell_angle_beta                  84.469(2) 
_cell_angle_gamma                 78.072(2) 
_cell_volume                      737.08(6) 
_cell_formula_units_Z             1 
_cell_measurement_temperature     90.0(2) 
_cell_measurement_reflns_used     6539 
_cell_measurement_theta_min       5.23
_cell_measurement_theta_max       67.86
 
_exptl_crystal_description        plate
_exptl_crystal_colour             orange
_exptl_crystal_size_max           0.15 
_exptl_crystal_size_mid           0.12 
_exptl_crystal_size_min           0.04 
_exptl_crystal_density_meas       ? 
_exptl_crystal_density_diffrn     1.205 
_exptl_crystal_density_method     'not measured' 
_exptl_crystal_F_000              286 
_exptl_absorpt_coefficient_mu     1.306 
_exptl_absorpt_correction_type    multi-scan 
_exptl_absorpt_correction_T_min   0.730 
_exptl_absorpt_correction_T_max   0.950 
_exptl_absorpt_process_details    'Sadabs in APEX2 (BrukerAXS, 2006)' 
 
_exptl_special_details 
; 
 ? 
; 
 
_diffrn_ambient_temperature       90.0(2) 
_diffrn_radiation_wavelength      1.54178 
_diffrn_radiation_type            CuK\a 
_diffrn_radiation_source          'fine-focus rotating anode' 
_diffrn_radiation_monochromator   'graded multilayer optics' 
_diffrn_measurement_device_type   'Bruker X8 Proteum diffractometer'
_diffrn_measurement_method        '\f and \w scans'            
_diffrn_detector_area_resol_mean  5.6
_diffrn_standards_number          0 
_diffrn_standards_interval_count  . 
_diffrn_standards_interval_time   . 
_diffrn_standards_decay_%         ? 
_diffrn_reflns_number             8134 
_diffrn_reflns_av_R_equivalents   0.0377 
_diffrn_reflns_av_sigmaI/netI     0.0404 
_diffrn_reflns_limit_h_min        -7 
_diffrn_reflns_limit_h_max        7 
_diffrn_reflns_limit_k_min        -8 
_diffrn_reflns_limit_k_max        8 
_diffrn_reflns_limit_l_min        0 
_diffrn_reflns_limit_l_max        20 
_diffrn_reflns_theta_min          5.23 
_diffrn_reflns_theta_max          67.85 
_reflns_number_total              2530 
_reflns_number_gt                 2304 
_reflns_threshold_expression      >2\s(I)    
 
_computing_data_collection        'APEX2 (Bruker-AXS, 2006)'            
_computing_cell_refinement        'APEX2'
_computing_data_reduction         'APEX2'
_computing_structure_solution     'SHELXS-97 (Sheldrick, 2008)' 
_computing_structure_refinement   'SHELXL-97 (Sheldrick, 2008)' 
_computing_molecular_graphics     'XP in SHELXTL (Sheldrick, 2008)'
_computing_publication_material
; 
SHELX-97 (Sheldrick, 2008) and local procedures 
; 
 
_publ_section_exptl_refinement
;
H atoms were found in difference Fourier maps and subsequently placed 
in idealized positions with constrained distances of 0.98 \%A (RCH~3~), 
0.99 \%A (R~2~CH~2~), 0.95 \%A (C~Ar~H), and with U~iso~(H) values set 
to either 1.2U~eq~ or 1.5U~eq~ (RCH~3~) of the attached atom. 
;

_refine_special_details 
; 
 Refinement of F^2^ against ALL reflections.  The weighted R-factor wR and 
 goodness of fit S are based on F^2^, conventional R-factors R are based 
 on F, with F set to zero for negative F^2^. The threshold expression of 
 F^2^ > 2\s(F^2^) is used only for calculating R-factors(gt) etc. and is 
 not relevant to the choice of reflections for refinement.  R-factors based 
 on F^2^ are statistically about twice as large as those based on F, and R- 
 factors based on ALL data will be even larger. 
; 
 
_refine_ls_structure_factor_coef  Fsqd  
_refine_ls_matrix_type            full 
_refine_ls_weighting_scheme       calc  
_refine_ls_weighting_details 
 'calc w=1/[\s^2^(Fo^2^)+(0.0223P)^2^+1.9138P] where P=(Fo^2^+2Fc^2^)/3' 
_atom_sites_solution_primary      direct 
_atom_sites_solution_secondary    difmap 
_atom_sites_solution_hydrogens    geom 
_refine_ls_hydrogen_treatment     constr 
_refine_ls_extinction_method      none 
_refine_ls_extinction_coef        ? 
_refine_ls_number_reflns          2530 
_refine_ls_number_parameters      203 
_refine_ls_number_restraints      69 
_refine_ls_R_factor_all           0.0775 
_refine_ls_R_factor_gt            0.0720 
_refine_ls_wR_factor_ref          0.1875 
_refine_ls_wR_factor_gt           0.1839 
_refine_ls_goodness_of_fit_ref    1.255 
_refine_ls_restrained_S_all       1.239 
_refine_ls_shift/su_max           0.000 
_refine_ls_shift/su_mean          0.000 
 
loop_ 
 _atom_site_label 
 _atom_site_type_symbol 
 _atom_site_fract_x 
 _atom_site_fract_y 
 _atom_site_fract_z 
 _atom_site_U_iso_or_equiv 
 _atom_site_adp_type 
 _atom_site_occupancy 
 _atom_site_symmetry_multiplicity 
 _atom_site_calc_flag 
 _atom_site_refinement_flags 
 _atom_site_disorder_assembly 
 _atom_site_disorder_group 
Si1 Si 0.78201(18) 0.25206(16) 0.82280(6) 0.0326(3) Uani 1 1 d . A . 
C1 C 0.5560(6) 0.4411(5) 0.5788(2) 0.0290(8) Uani 1 1 d . . . 
C2 C 0.709(5) 0.389(10) 0.5183(11) 0.028(3) Uani 0.750(10) 1 d PDU A 1 
C3 C 0.915(2) 0.280(4) 0.5364(6) 0.0290(16) Uani 0.750(10) 1 d PDU A 1 
H3 H 0.9538 0.2445 0.5896 0.035 Uiso 0.750(10) 1 calc PR A 1 
C4 C 1.0553(17) 0.227(3) 0.4756(4) 0.0300(13) Uani 0.750(10) 1 d PDU A 1 
O5 O 1.2667(7) 0.1207(6) 0.4801(3) 0.0340(11) Uani 0.750(10) 1 d PDU A 1 
C6 C 1.3418(9) 0.1054(8) 0.4029(5) 0.0327(14) Uani 0.750(10) 1 d PDU A 1 
H6 H 1.4827 0.0394 0.3884 0.039 Uiso 0.750(10) 1 calc PR A 1 
C7 C 1.1975(13) 0.1924(11) 0.3505(4) 0.0335(13) Uani 0.750(10) 1 d PDU A 1 
H7 H 1.2159 0.1961 0.2947 0.040 Uiso 0.750(10) 1 calc PR A 1 
C8 C 1.0105(11) 0.2785(18) 0.3946(5) 0.0289(14) Uani 0.750(10) 1 d PDU A 1 
C9 C 0.811(2) 0.383(3) 0.3756(8) 0.0307(14) Uani 0.750(10) 1 d PDU A 1 
H9 H 0.7782 0.4184 0.3217 0.037 Uiso 0.750(10) 1 calc PR A 1 
C10 C 0.653(5) 0.440(6) 0.4369(12) 0.028(3) Uani 0.750(10) 1 d PDU . 1 
C2' C 0.707(15) 0.38(3) 0.512(3) 0.028(3) Uani 0.250(10) 1 d PDU A 2 
C3' C 0.920(8) 0.270(12) 0.5226(18) 0.0290(16) Uani 0.250(10) 1 d PDU A 2 
H3' H 0.9679 0.2214 0.5741 0.035 Uiso 0.250(10) 1 calc PR A 2 
C4' C 1.055(5) 0.235(9) 0.4569(14) 0.0300(13) Uani 0.250(10) 1 d PDU A 2 
C5' C 1.270(4) 0.126(3) 0.4453(14) 0.0340(11) Uani 0.250(10) 1 d PDU A 2 
H5' H 1.3652 0.0615 0.4849 0.041 Uiso 0.250(10) 1 calc PR A 2 
C6' C 1.308(3) 0.133(3) 0.3669(13) 0.0327(14) Uani 0.250(10) 1 d PDU A 2 
H6' H 1.4407 0.0768 0.3421 0.039 Uiso 0.250(10) 1 calc PR A 2 
O7' O 1.133(3) 0.232(3) 0.3262(8) 0.0335(13) Uani 0.250(10) 1 d PDU A 2 
C8' C 0.966(4) 0.285(6) 0.3821(15) 0.0289(14) Uani 0.250(10) 1 d PDU A 2 
C9' C 0.774(7) 0.404(11) 0.367(3) 0.0307(14) Uani 0.250(10) 1 d PDU A 2 
H9' H 0.7305 0.4464 0.3147 0.037 Uiso 0.250(10) 1 calc PR A 2 
C10' C 0.642(13) 0.464(19) 0.434(4) 0.028(3) Uani 0.250(10) 1 d PDU . 2 
C11 C 0.6159(6) 0.3809(6) 0.6587(2) 0.0330(9) Uani 1 1 d . A . 
C12 C 0.6731(7) 0.3288(6) 0.7249(2) 0.0356(9) Uani 1 1 d . . . 
C13 C 0.6986(7) 0.4624(6) 0.8813(2) 0.0426(10) Uani 1 1 d . . . 
H13A H 0.7463 0.4178 0.9355 0.051 Uiso 1 1 calc R A . 
H13B H 0.7739 0.5701 0.8572 0.051 Uiso 1 1 calc R . . 
C14 C 0.4592(8) 0.5449(7) 0.8866(3) 0.0516(12) Uani 1 1 d . A . 
H14A H 0.4078 0.5809 0.8333 0.077 Uiso 1 1 calc R . . 
H14B H 0.4308 0.6623 0.9135 0.077 Uiso 1 1 calc R . . 
H14C H 0.3841 0.4447 0.9166 0.077 Uiso 1 1 calc R . . 
C15 C 0.6751(6) 0.0296(6) 0.8711(2) 0.0319(8) Uani 1 1 d . . . 
H15A H 0.5172 0.0675 0.8802 0.038 Uiso 1 1 calc R A . 
H15B H 0.7047 -0.0704 0.8345 0.038 Uiso 1 1 calc R . . 
C16 C 0.7708(7) -0.0644(6) 0.9500(2) 0.0387(9) Uani 1 1 d . A . 
H16A H 0.9263 -0.1090 0.9413 0.058 Uiso 1 1 calc R . . 
H16B H 0.7049 -0.1777 0.9724 0.058 Uiso 1 1 calc R . . 
H16C H 0.7422 0.0332 0.9868 0.058 Uiso 1 1 calc R . . 
C17 C 1.0808(7) 0.1914(7) 0.8099(2) 0.0411(10) Uani 1 1 d . . . 
H17A H 1.1329 0.3121 0.7849 0.049 Uiso 1 1 calc R A . 
H17B H 1.1389 0.1526 0.8627 0.049 Uiso 1 1 calc R . . 
C18 C 1.1718(7) 0.0254(8) 0.7596(3) 0.0535(12) Uani 1 1 d . A . 
H18A H 1.1271 -0.0969 0.7849 0.080 Uiso 1 1 calc R . . 
H18B H 1.3290 0.0049 0.7551 0.080 Uiso 1 1 calc R . . 
H18C H 1.1171 0.0625 0.7068 0.080 Uiso 1 1 calc R . . 
 
loop_ 
 _atom_site_aniso_label 
 _atom_site_aniso_U_11 
 _atom_site_aniso_U_22 
 _atom_site_aniso_U_33 
 _atom_site_aniso_U_23 
 _atom_site_aniso_U_13 
 _atom_site_aniso_U_12 
Si1 0.0401(6) 0.0289(6) 0.0319(6) -0.0027(4) -0.0061(4) -0.0129(5) 
C1 0.038(2) 0.0205(18) 0.0304(18) -0.0022(14) -0.0038(15) -0.0115(16) 
C2 0.035(2) 0.021(6) 0.033(3) -0.004(6) -0.003(3) -0.015(2) 
C3 0.037(2) 0.019(3) 0.035(4) -0.005(5) -0.005(3) -0.0107(18) 
C4 0.037(2) 0.022(2) 0.035(4) -0.003(5) -0.001(3) -0.0145(17) 
O5 0.0339(17) 0.0288(18) 0.041(3) -0.007(2) -0.004(2) -0.0071(14) 
C6 0.037(3) 0.025(3) 0.038(4) -0.008(3) 0.004(3) -0.012(2) 
C7 0.039(4) 0.024(4) 0.038(4) -0.003(3) 0.000(3) -0.009(3) 
C8 0.030(3) 0.025(2) 0.039(4) -0.008(3) -0.004(2) -0.015(3) 
C9 0.039(5) 0.024(5) 0.031(4) -0.002(3) -0.002(3) -0.011(4) 
C10 0.035(4) 0.015(10) 0.035(3) -0.002(4) -0.002(2) -0.012(2) 
C2' 0.035(2) 0.021(6) 0.033(3) -0.004(6) -0.003(3) -0.015(2) 
C3' 0.037(2) 0.019(3) 0.035(4) -0.005(5) -0.005(3) -0.0107(18) 
C4' 0.037(2) 0.022(2) 0.035(4) -0.003(5) -0.001(3) -0.0145(17) 
C5' 0.0339(17) 0.0288(18) 0.041(3) -0.007(2) -0.004(2) -0.0071(14) 
C6' 0.037(3) 0.025(3) 0.038(4) -0.008(3) 0.004(3) -0.012(2) 
O7' 0.039(4) 0.024(4) 0.038(4) -0.003(3) 0.000(3) -0.009(3) 
C8' 0.030(3) 0.025(2) 0.039(4) -0.008(3) -0.004(2) -0.015(3) 
C9' 0.039(5) 0.024(5) 0.031(4) -0.002(3) -0.002(3) -0.011(4) 
C10' 0.035(4) 0.015(10) 0.035(3) -0.002(4) -0.002(2) -0.012(2) 
C11 0.039(2) 0.028(2) 0.035(2) -0.0048(15) -0.0017(16) -0.0146(17) 
C12 0.047(2) 0.0241(19) 0.037(2) -0.0041(15) -0.0028(17) -0.0115(18) 
C13 0.060(3) 0.033(2) 0.037(2) -0.0057(17) -0.0080(19) -0.012(2) 
C14 0.072(3) 0.035(2) 0.047(3) -0.0088(19) -0.003(2) -0.007(2) 
C15 0.034(2) 0.028(2) 0.035(2) -0.0010(15) -0.0077(15) -0.0080(17) 
C16 0.045(2) 0.035(2) 0.037(2) 0.0029(16) -0.0099(17) -0.0121(19) 
C17 0.039(2) 0.049(3) 0.040(2) -0.0010(18) -0.0070(17) -0.022(2) 
C18 0.035(2) 0.074(4) 0.049(3) -0.013(2) -0.0118(19) 0.001(2) 
 
_geom_special_details 
; 
 All esds (except the esd in the dihedral angle between two l.s. planes) 
 are estimated using the full covariance matrix.  The cell esds are taken 
 into account individually in the estimation of esds in distances, angles 
 and torsion angles; correlations between esds in cell parameters are only 
 used when they are defined by crystal symmetry.  An approximate (isotropic) 
 treatment of cell esds is used for estimating esds involving l.s. planes. 
; 
 
loop_ 
 _geom_bond_atom_site_label_1 
 _geom_bond_atom_site_label_2 
 _geom_bond_distance 
 _geom_bond_site_symmetry_2 
 _geom_bond_publ_flag 
Si1 C12 1.839(4) . ? 
Si1 C17 1.863(4) . ? 
Si1 C15 1.869(4) . ? 
Si1 C13 1.869(4) . ? 
C1 C10' 1.32(5) 2_666 ? 
C1 C2 1.393(14) . ? 
C1 C11 1.435(5) . ? 
C1 C10 1.443(17) 2_666 ? 
C1 C2' 1.48(4) . ? 
C2 C3 1.410(11) . ? 
C2 C10 1.447(10) . ? 
C3 C4 1.352(9) . ? 
C3 H3 0.9500 . ? 
C4 O5 1.401(9) . ? 
C4 C8 1.421(7) . ? 
O5 C6 1.377(6) . ? 
C6 C7 1.335(8) . ? 
C6 H6 0.9500 . ? 
C7 C8 1.424(9) . ? 
C7 H7 0.9500 . ? 
C8 C9 1.370(9) . ? 
C9 C10 1.428(12) . ? 
C9 H9 0.9500 . ? 
C10 C1 1.443(17) 2_666 ? 
C2' C3' 1.43(2) . ? 
C2' C10' 1.447(19) . ? 
C3' C4' 1.371(19) . ? 
C3' H3' 0.9500 . ? 
C4' C8' 1.419(16) . ? 
C4' C5' 1.44(2) . ? 
C5' C6' 1.340(16) . ? 
C5' H5' 0.9500 . ? 
C6' O7' 1.371(15) . ? 
C6' H6' 0.9500 . ? 
O7' C8' 1.396(19) . ? 
C8' C9' 1.352(19) . ? 
C9' C10' 1.42(2) . ? 
C9' H9' 0.9500 . ? 
C10' C1 1.32(5) 2_666 ? 
C11 C12 1.204(5) . ? 
C13 C14 1.515(7) . ? 
C13 H13A 0.9900 . ? 
C13 H13B 0.9900 . ? 
C14 H14A 0.9800 . ? 
C14 H14B 0.9800 . ? 
C14 H14C 0.9800 . ? 
C15 C16 1.534(5) . ? 
C15 H15A 0.9900 . ? 
C15 H15B 0.9900 . ? 
C16 H16A 0.9800 . ? 
C16 H16B 0.9800 . ? 
C16 H16C 0.9800 . ? 
C17 C18 1.538(6) . ? 
C17 H17A 0.9900 . ? 
C17 H17B 0.9900 . ? 
C18 H18A 0.9800 . ? 
C18 H18B 0.9800 . ? 
C18 H18C 0.9800 . ? 
 
loop_ 
 _geom_angle_atom_site_label_1 
 _geom_angle_atom_site_label_2 
 _geom_angle_atom_site_label_3 
 _geom_angle 
 _geom_angle_site_symmetry_1 
 _geom_angle_site_symmetry_3 
 _geom_angle_publ_flag 
C12 Si1 C17 108.80(19) . . ? 
C12 Si1 C15 108.15(17) . . ? 
C17 Si1 C15 110.32(19) . . ? 
C12 Si1 C13 108.42(19) . . ? 
C17 Si1 C13 109.4(2) . . ? 
C15 Si1 C13 111.68(19) . . ? 
C10' C1 C2 124(3) 2_666 . ? 
C10' C1 C11 119(3) 2_666 . ? 
C2 C1 C11 117.8(9) . . ? 
C2 C1 C10 122.2(5) . 2_666 ? 
C11 C1 C10 120.0(8) . 2_666 ? 
C10' C1 C2' 120.8(16) 2_666 . ? 
C11 C1 C2' 120(3) . . ? 
C10 C1 C2' 120(3) 2_666 . ? 
C1 C2 C3 120.2(14) . . ? 
C1 C2 C10 119.7(15) . . ? 
C3 C2 C10 120.1(12) . . ? 
C4 C3 C2 117.8(8) . . ? 
C4 C3 H3 121.1 . . ? 
C2 C3 H3 121.1 . . ? 
C3 C4 O5 127.2(7) . . ? 
C3 C4 C8 124.3(8) . . ? 
O5 C4 C8 108.5(6) . . ? 
C6 O5 C4 105.1(4) . . ? 
C7 C6 O5 113.5(5) . . ? 
C7 C6 H6 123.3 . . ? 
O5 C6 H6 123.3 . . ? 
C6 C7 C8 106.5(6) . . ? 
C6 C7 H7 126.7 . . ? 
C8 C7 H7 126.7 . . ? 
C9 C8 C4 118.9(8) . . ? 
C9 C8 C7 134.6(8) . . ? 
C4 C8 C7 106.4(7) . . ? 
C8 C9 C10 119.8(8) . . ? 
C8 C9 H9 120.1 . . ? 
C10 C9 H9 120.1 . . ? 
C9 C10 C1 122.9(14) . 2_666 ? 
C9 C10 C2 119.0(14) . . ? 
C1 C10 C2 118.0(14) 2_666 . ? 
C3' C2' C10' 120(4) . . ? 
C3' C2' C1 123(4) . . ? 
C10' C2' C1 117(4) . . ? 
C4' C3' C2' 119(2) . . ? 
C4' C3' H3' 120.6 . . ? 
C2' C3' H3' 120.6 . . ? 
C3' C4' C8' 118(2) . . ? 
C3' C4' C5' 134(2) . . ? 
C8' C4' C5' 107.6(17) . . ? 
C6' C5' C4' 105.4(15) . . ? 
C6' C5' H5' 127.3 . . ? 
C4' C5' H5' 127.3 . . ? 
C5' C6' O7' 112.7(13) . . ? 
C5' C6' H6' 123.6 . . ? 
O7' C6' H6' 123.6 . . ? 
C6' O7' C8' 107.2(14) . . ? 
C9' C8' O7' 126(2) . . ? 
C9' C8' C4' 125(2) . . ? 
O7' C8' C4' 106.4(16) . . ? 
C8' C9' C10' 116(2) . . ? 
C8' C9' H9' 121.8 . . ? 
C10' C9' H9' 121.8 . . ? 
C1 C10' C9' 117(5) 2_666 . ? 
C1 C10' C2' 122(5) 2_666 . ? 
C9' C10' C2' 120(3) . . ? 
C12 C11 C1 177.8(4) . . ? 
C11 C12 Si1 175.4(4) . . ? 
C14 C13 Si1 114.7(3) . . ? 
C14 C13 H13A 108.6 . . ? 
Si1 C13 H13A 108.6 . . ? 
C14 C13 H13B 108.6 . . ? 
Si1 C13 H13B 108.6 . . ? 
H13A C13 H13B 107.6 . . ? 
C13 C14 H14A 109.5 . . ? 
C13 C14 H14B 109.5 . . ? 
H14A C14 H14B 109.5 . . ? 
C13 C14 H14C 109.5 . . ? 
H14A C14 H14C 109.5 . . ? 
H14B C14 H14C 109.5 . . ? 
C16 C15 Si1 114.0(3) . . ? 
C16 C15 H15A 108.7 . . ? 
Si1 C15 H15A 108.7 . . ? 
C16 C15 H15B 108.7 . . ? 
Si1 C15 H15B 108.7 . . ? 
H15A C15 H15B 107.6 . . ? 
C15 C16 H16A 109.5 . . ? 
C15 C16 H16B 109.5 . . ? 
H16A C16 H16B 109.5 . . ? 
C15 C16 H16C 109.5 . . ? 
H16A C16 H16C 109.5 . . ? 
H16B C16 H16C 109.5 . . ? 
C18 C17 Si1 114.9(3) . . ? 
C18 C17 H17A 108.5 . . ? 
Si1 C17 H17A 108.5 . . ? 
C18 C17 H17B 108.5 . . ? 
Si1 C17 H17B 108.5 . . ? 
H17A C17 H17B 107.5 . . ? 
C17 C18 H18A 109.5 . . ? 
C17 C18 H18B 109.5 . . ? 
H18A C18 H18B 109.5 . . ? 
C17 C18 H18C 109.5 . . ? 
H18A C18 H18C 109.5 . . ? 
H18B C18 H18C 109.5 . . ? 
 
loop_ 
 _geom_torsion_atom_site_label_1 
 _geom_torsion_atom_site_label_2 
 _geom_torsion_atom_site_label_3 
 _geom_torsion_atom_site_label_4 
 _geom_torsion 
 _geom_torsion_site_symmetry_1 
 _geom_torsion_site_symmetry_2 
 _geom_torsion_site_symmetry_3 
 _geom_torsion_site_symmetry_4 
 _geom_torsion_publ_flag 
C11 C1 C2 C3 0(8) . . . . ? 
C10 C1 C2 C3 177(5) 2_666 . . . ? 
C11 C1 C2 C10 178(4) . . . . ? 
C10 C1 C2 C10 -5(9) 2_666 . . . ? 
C1 C2 C3 C4 178(4) . . . . ? 
C10 C2 C3 C4 0(8) . . . . ? 
C2 C3 C4 O5 180(4) . . . . ? 
C2 C3 C4 C8 1(5) . . . . ? 
C3 C4 O5 C6 180(2) . . . . ? 
C8 C4 O5 C6 -1.6(15) . . . . ? 
C4 O5 C6 C7 0.0(10) . . . . ? 
O5 C6 C7 C8 1.5(9) . . . . ? 
C3 C4 C8 C9 -2(3) . . . . ? 
O5 C4 C8 C9 179.7(16) . . . . ? 
C3 C4 C8 C7 -179.0(19) . . . . ? 
O5 C4 C8 C7 2.5(17) . . . . ? 
C6 C7 C8 C9 -179.0(19) . . . . ? 
C6 C7 C8 C4 -2.4(13) . . . . ? 
C4 C8 C9 C10 0(4) . . . . ? 
C7 C8 C9 C10 177(3) . . . . ? 
C8 C9 C10 C1 177(3) . . . 2_666 ? 
C8 C9 C10 C2 1(6) . . . . ? 
C1 C2 C10 C9 -179(5) . . . . ? 
C3 C2 C10 C9 -2(9) . . . . ? 
C1 C2 C10 C1 5(8) . . . 2_666 ? 
C3 C2 C10 C1 -177(5) . . . 2_666 ? 
C11 C1 C2' C10' -174(12) . . . . ? 
C10 C1 C2' C10' 6(22) 2_666 . . . ? 
C10' C2' C3' C4' -3(25) . . . . ? 
C1 C2' C3' C4' -175(14) . . . . ? 
C2' C3' C4' C8' -10(16) . . . . ? 
C2' C3' C4' C5' -177(13) . . . . ? 
C3' C4' C5' C6' 175(8) . . . . ? 
C8' C4' C5' C6' 7(5) . . . . ? 
C4' C5' C6' O7' -2(4) . . . . ? 
C5' C6' O7' C8' -3(3) . . . . ? 
C6' O7' C8' C9' 171(6) . . . . ? 
C6' O7' C8' C4' 7(5) . . . . ? 
C3' C4' C8' C9' 17(11) . . . . ? 
C5' C4' C8' C9' -173(6) . . . . ? 
C3' C4' C8' O7' -179(6) . . . . ? 
C5' C4' C8' O7' -8(6) . . . . ? 
O7' C8' C9' C10' -170(8) . . . . ? 
C4' C8' C9' C10' -8(13) . . . . ? 
C8' C9' C10' C1 -171(9) . . . 2_666 ? 
C8' C9' C10' C2' -6(20) . . . . ? 
C3' C2' C10' C1 177(15) . . . 2_666 ? 
C3' C2' C10' C9' 11(27) . . . . ? 
C1 C2' C10' C9' -177(14) . . . . ? 
C12 Si1 C13 C14 53.5(4) . . . . ? 
C17 Si1 C13 C14 172.1(3) . . . . ? 
C15 Si1 C13 C14 -65.5(4) . . . . ? 
C12 Si1 C15 C16 174.0(3) . . . . ? 
C17 Si1 C15 C16 55.1(3) . . . . ? 
C13 Si1 C15 C16 -66.8(3) . . . . ? 
C12 Si1 C17 C18 -59.4(4) . . . . ? 
C15 Si1 C17 C18 59.1(4) . . . . ? 
C13 Si1 C17 C18 -177.6(3) . . . . ? 
 
_diffrn_measured_fraction_theta_max    0.941 
_diffrn_reflns_theta_full              67.85 
_diffrn_measured_fraction_theta_full   0.941 
_refine_diff_density_max    0.309 
_refine_diff_density_min   -0.315 
_refine_diff_density_rms    0.070 
