 data_k01136  _audit_creation_method            SHELXL-97 _chemical_name_systematic ;  ? ; _chemical_name_common             ? _chemical_melting_point           ? _chemical_formula_moiety          ? _chemical_formula_sum  'C40 H52 Si2' _chemical_formula_weight          589.00  loop_  _atom_type_symbol  _atom_type_description  _atom_type_scat_dispersion_real  _atom_type_scat_dispersion_imag  _atom_type_scat_source  'C'  'C'    .0033    .0016  'International Tables Vol C Tables 4.2.6.8 and 6.1.1.4'  'H'  'H'    .0000    .0000  'International Tables Vol C Tables 4.2.6.8 and 6.1.1.4'  'Si'  'Si'    .0817    .0704  'International Tables Vol C Tables 4.2.6.8 and 6.1.1.4'  _symmetry_cell_setting            orthorhombic_symmetry_space_group_name_H-M    'P 212121' loop_  _symmetry_equiv_pos_as_xyz  'x, y, z'  '-x+1/2, -y, z+1/2'  'x+1/2, -y+1/2, -z'  '-x, y+1/2, -z+1/2'  _cell_length_a                    14.2210(4) _cell_length_b                    15.1330(4) _cell_length_c                    16.8450(5) _cell_angle_alpha                 90.00 _cell_angle_beta                  90.00 _cell_angle_gamma                 90.00 _cell_volume                      3625.15(18) _cell_formula_units_Z             4 _cell_measurement_temperature     173(2) _cell_measurement_reflns_used     29692_cell_measurement_theta_min       1.00_cell_measurement_theta_max       27.48 _exptl_crystal_description        'semi-regular block'_exptl_crystal_colour             red_exptl_crystal_size_max           0.16 _exptl_crystal_size_mid           0.14 _exptl_crystal_size_min           0.10 _exptl_crystal_density_meas       ? _exptl_crystal_density_diffrn     1.079 _exptl_crystal_density_method     'not measured' _exptl_crystal_F_000              1280 _exptl_absorpt_coefficient_mu     0.123 _exptl_absorpt_correction_type    none _exptl_absorpt_correction_T_min   ? _exptl_absorpt_correction_T_max   ? _exptl_absorpt_process_details    ?  _exptl_special_details ; ;  _diffrn_ambient_temperature       173(1) _diffrn_radiation_wavelength      0.71073 _diffrn_radiation_type            MoK\a _diffrn_radiation_source          'fine-focus sealed tube' _diffrn_radiation_monochromator   graphite _diffrn_measurement_device_type   'Nonius KappaCCD diffractometer' _diffrn_measurement_method        '\w scans at fixed \c = 55\%'_diffrn_detector_area_resol_mean  18 _diffrn_standards_number          ?_diffrn_standards_interval_count  ? _diffrn_standards_interval_time   ? _diffrn_standards_decay_%         <1_diffrn_reflns_number             4746 _diffrn_reflns_av_R_equivalents   0.0000 _diffrn_reflns_av_sigmaI/netI     0.0856 _diffrn_reflns_limit_h_min        -15 _diffrn_reflns_limit_h_max        15 _diffrn_reflns_limit_k_min        -16 _diffrn_reflns_limit_k_max        16 _diffrn_reflns_limit_l_min        -18 _diffrn_reflns_limit_l_max        18 _diffrn_reflns_theta_min          1.81 _diffrn_reflns_theta_max          22.50 _reflns_number_total              4746 _reflns_number_gt                 4121 _reflns_threshold_expression      >2\s(I)  _computing_data_collection        'COLLECT (Nonius, 1998)' _computing_cell_refinement        'SCALEPACK (Otwinowski & Minor, 1997)'_computing_data_reduction         'DENZO-SMN (Otwinowski & Minor, 1997)'_computing_structure_solution     'SHELXS-97 (Sheldrick, 1990)' _computing_structure_refinement   'SHELXL-97 (Sheldrick, 1997)' _computing_molecular_graphics     'XP in Siemens SHELXTL (Sheldrick, 1994)'_computing_publication_material   'SHELX97-2 (Sheldrick, 1997) and local procedures' _refine_special_details ;  Refinement of F^2^ against ALL reflections.  The weighted R-factor wR and  goodness of fit S are based on F^2^, conventional R-factors R are based  on F, with F set to zero for negative F^2^. The threshold expression of  F^2^ > 2sigma(F^2^) is used only for calculating R-factors(gt) etc. and is  not relevant to the choice of reflections for refinement.  R-factors based  on F^2^ are statistically about twice as large as those based on F, and R-  factors based on ALL data will be even larger.   Flack 'x' parameter = -0.048 (0.140) but is quite stable.  It refines tothis same value irrespective of the starting value.  Likewise the invertedstructure refines to 1.048, so although the test is marginal according toFlack's published criteria, it seems unlikely that it is incorrect.There were no correlation coefficients greater than 0.5 from the final inverted least-squares normal equations matrix.;  _refine_ls_structure_factor_coef  Fsqd  _refine_ls_matrix_type            full _refine_ls_weighting_scheme       calc  _refine_ls_weighting_details  'calc w=1/[\s^2^(Fo^2^)+(0.0240P)^2^+0.8109P] where P=(Fo^2^+2Fc^2^)/3' _atom_sites_solution_primary      direct _atom_sites_solution_secondary    difmap _atom_sites_solution_hydrogens    geom _refine_ls_hydrogen_treatment     mixed _refine_ls_extinction_method      none _refine_ls_extinction_coef        ? _refine_ls_abs_structure_details  'Flack H D (1983), Acta Cryst. A39, 876-881' _refine_ls_abs_structure_Flack    -0.05(14) _refine_ls_number_reflns          4746 _refine_ls_number_parameters      379 _refine_ls_number_restraints      0 _refine_ls_R_factor_all           0.0837 _refine_ls_R_factor_gt            0.0697 _refine_ls_wR_factor_ref          0.0961 _refine_ls_wR_factor_gt           0.0919 _refine_ls_goodness_of_fit_ref    1.139 _refine_ls_restrained_S_all       1.139 _refine_ls_shift/su_max           0.004 _refine_ls_shift/su_mean          0.001  loop_  _atom_site_label  _atom_site_type_symbol  _atom_site_fract_x  _atom_site_fract_y  _atom_site_fract_z  _atom_site_U_iso_or_equiv  _atom_site_adp_type  _atom_site_occupancy  _atom_site_symmetry_multiplicity  _atom_site_calc_flag  _atom_site_refinement_flags  _atom_site_disorder_assembly  _atom_site_disorder_group Si1 Si 0.88205(7) 0.75082(7) 0.59849(6) 0.0285(3) Uani 1 1 d . . . Si2 Si 0.25335(7) 0.28742(6) 0.41417(6) 0.0272(3) Uani 1 1 d . . . C1 C 0.6588(2) 0.5564(2) 0.5256(2) 0.0192(10) Uani 1 1 d . . . C2 C 0.5962(2) 0.5239(2) 0.5846(2) 0.0227(9) Uani 1 1 d . . . C3 C 0.6053(3) 0.5465(2) 0.6649(2) 0.0282(10) Uani 1 1 d . . . H3 H 0.6526 0.5875 0.6799 0.034 Uiso 1 1 calc R . . C4 C 0.5481(3) 0.5113(2) 0.7228(2) 0.0276(10) Uani 1 1 d . . . C5 C 0.5603(3) 0.5309(3) 0.8048(2) 0.0353(11) Uani 1 1 d . . . H5 H 0.6072 0.5721 0.8205 0.042 Uiso 1 1 calc R . . C6 C 0.5062(3) 0.4917(3) 0.8606(3) 0.0450(12) Uani 1 1 d . . . H6 H 0.5161 0.5050 0.9151 0.054 Uiso 1 1 calc R . . C7 C 0.4347(3) 0.4309(3) 0.8386(3) 0.0454(12) Uani 1 1 d . . . H7 H 0.3976 0.4031 0.8783 0.054 Uiso 1 1 calc R . . C8 C 0.4194(3) 0.4124(3) 0.7603(3) 0.0412(12) Uani 1 1 d . . . H8 H 0.3704 0.3727 0.7461 0.049 Uiso 1 1 calc R . . C9 C 0.4747(3) 0.4510(2) 0.7001(2) 0.0260(10) Uani 1 1 d . . . C10 C 0.4625(3) 0.4322(2) 0.6207(2) 0.0300(11) Uani 1 1 d . . . H10 H 0.4118 0.3950 0.6056 0.036 Uiso 1 1 calc R . . C11 C 0.5215(2) 0.4657(2) 0.5612(2) 0.0202(10) Uani 1 1 d . . . C12 C 0.5103(3) 0.4434(2) 0.4793(2) 0.0219(10) Uani 1 1 d . . . C13 C 0.5746(2) 0.4736(2) 0.4217(2) 0.0185(9) Uani 1 1 d . . . C14 C 0.5663(3) 0.4508(2) 0.3403(2) 0.0266(10) Uani 1 1 d . . . H14 H 0.5155 0.4145 0.3236 0.032 Uiso 1 1 calc R . . C15 C 0.6290(3) 0.4795(2) 0.2861(2) 0.0298(10) Uani 1 1 d . . . H15 H 0.6225 0.4628 0.2320 0.036 Uiso 1 1 calc R . . C16 C 0.7046(3) 0.5347(2) 0.3097(3) 0.0316(11) Uani 1 1 d . . . H16 H 0.7487 0.5546 0.2713 0.038 Uiso 1 1 calc R . . C17 C 0.7144(2) 0.5591(2) 0.3864(2) 0.0245(10) Uani 1 1 d . . . H17 H 0.7653 0.5963 0.4009 0.029 Uiso 1 1 calc R . . C18 C 0.6503(3) 0.5304(2) 0.4461(2) 0.0236(10) Uani 1 1 d . . . C19 C 0.7327(3) 0.6160(2) 0.5488(2) 0.0278(10) Uani 1 1 d . . . C20 C 0.7945(3) 0.6674(2) 0.5684(2) 0.0330(11) Uani 1 1 d . . . C21 C 0.9026(3) 0.8252(3) 0.5115(2) 0.0395(12) Uani 1 1 d . . . H21 H 0.9494 0.8707 0.5286 0.047 Uiso 1 1 calc R . . C22 C 0.9457(3) 0.7764(3) 0.4395(2) 0.0648(15) Uani 1 1 d . . . H22A H 1.0035 0.7463 0.4559 0.097 Uiso 1 1 calc R . . H22B H 0.9602 0.8191 0.3976 0.097 Uiso 1 1 calc R . . H22C H 0.9006 0.7328 0.4195 0.097 Uiso 1 1 calc R . . C23 C 0.8137(3) 0.8747(3) 0.4867(3) 0.0710(16) Uani 1 1 d . . . H23A H 0.7880 0.9063 0.5326 0.107 Uiso 1 1 calc R . . H23B H 0.7670 0.8324 0.4670 0.107 Uiso 1 1 calc R . . H23C H 0.8291 0.9171 0.4447 0.107 Uiso 1 1 calc R . . C24 C 0.9909(2) 0.6935(2) 0.6327(2) 0.0321(10) Uani 1 1 d . . . H24 H 0.9804 0.6776 0.6896 0.038 Uiso 1 1 calc R . . C25 C 1.0149(3) 0.6073(2) 0.5896(2) 0.0519(12) Uani 1 1 d . . . H25A H 0.9606 0.5675 0.5914 0.078 Uiso 1 1 calc R . . H25B H 1.0687 0.5790 0.6156 0.078 Uiso 1 1 calc R . . H25C H 1.0307 0.6202 0.5341 0.078 Uiso 1 1 calc R . . C26 C 1.0778(2) 0.7558(3) 0.6309(3) 0.0512(13) Uani 1 1 d . . . H26A H 1.0628 0.8109 0.6588 0.077 Uiso 1 1 calc R . . H26B H 1.0944 0.7690 0.5757 0.077 Uiso 1 1 calc R . . H26C H 1.1310 0.7268 0.6572 0.077 Uiso 1 1 calc R . . C27 C 0.8244(3) 0.8146(3) 0.6814(2) 0.0400(12) Uani 1 1 d . . . H27 H 0.7635 0.8373 0.6599 0.048 Uiso 1 1 calc R . . C28 C 0.8800(3) 0.8953(3) 0.7094(3) 0.0755(16) Uani 1 1 d . . . H28A H 0.8945 0.9331 0.6638 0.113 Uiso 1 1 calc R . . H28B H 0.9387 0.8758 0.7344 0.113 Uiso 1 1 calc R . . H28C H 0.8425 0.9286 0.7479 0.113 Uiso 1 1 calc R . . C29 C 0.8000(3) 0.7563(3) 0.7523(2) 0.0564(14) Uani 1 1 d . . . H29A H 0.7635 0.7052 0.7342 0.085 Uiso 1 1 calc R . . H29B H 0.7629 0.7903 0.7905 0.085 Uiso 1 1 calc R . . H29C H 0.8581 0.7358 0.7777 0.085 Uiso 1 1 calc R . . C30 C 0.4314(3) 0.3898(2) 0.4562(2) 0.0252(10) Uani 1 1 d . . . C31 C 0.3629(3) 0.3468(2) 0.4380(2) 0.0262(11) Uani 1 1 d . . . C32 C 0.2428(3) 0.2832(3) 0.3029(2) 0.0384(11) Uani 1 1 d . . . H32 H 0.2986 0.2497 0.2829 0.046 Uiso 1 1 calc R . . C33 C 0.2464(3) 0.3749(3) 0.2647(2) 0.0645(14) Uani 1 1 d . . . H33A H 0.3040 0.4052 0.2813 0.097 Uiso 1 1 calc R . . H33B H 0.1915 0.4093 0.2816 0.097 Uiso 1 1 calc R . . H33C H 0.2460 0.3688 0.2068 0.097 Uiso 1 1 calc R . . C34 C 0.1548(3) 0.2323(3) 0.2753(3) 0.0670(15) Uani 1 1 d . . . H34A H 0.1546 0.1732 0.2992 0.100 Uiso 1 1 calc R . . H34B H 0.1557 0.2268 0.2173 0.100 Uiso 1 1 calc R . . H34C H 0.0982 0.2644 0.2917 0.100 Uiso 1 1 calc R . . C35 C 0.2636(3) 0.1734(2) 0.4564(2) 0.0302(10) Uani 1 1 d . . . H35 H 0.2013 0.1441 0.4489 0.036 Uiso 1 1 calc R . . C36 C 0.3366(3) 0.1170(3) 0.4126(2) 0.0516(13) Uani 1 1 d . . . H36A H 0.3220 0.1164 0.3557 0.077 Uiso 1 1 calc R . . H36B H 0.3349 0.0565 0.4332 0.077 Uiso 1 1 calc R . . H36C H 0.3994 0.1421 0.4208 0.077 Uiso 1 1 calc R . . C37 C 0.2843(3) 0.1729(2) 0.5455(2) 0.0437(12) Uani 1 1 d . . . H37A H 0.2367 0.2081 0.5733 0.066 Uiso 1 1 calc R . . H37B H 0.3467 0.1982 0.5551 0.066 Uiso 1 1 calc R . . H37C H 0.2826 0.1120 0.5653 0.066 Uiso 1 1 calc R . . C38 C 0.1541(3) 0.3512(3) 0.4590(3) 0.0392(12) Uani 1 1 d . . . H38 H 0.1378 0.3984 0.4198 0.047 Uiso 1 1 calc R . . C39 C 0.0657(3) 0.2950(3) 0.4685(3) 0.0770(17) Uani 1 1 d . . . H39A H 0.0518 0.2652 0.4182 0.116 Uiso 1 1 calc R . . H39B H 0.0127 0.3330 0.4832 0.116 Uiso 1 1 calc R . . H39C H 0.0760 0.2508 0.5100 0.116 Uiso 1 1 calc R . . C40 C 0.1756(3) 0.3985(3) 0.5364(3) 0.0588(14) Uani 1 1 d . . . H40A H 0.2317 0.4353 0.5298 0.088 Uiso 1 1 calc R . . H40B H 0.1868 0.3549 0.5783 0.088 Uiso 1 1 calc R . . H40C H 0.1221 0.4359 0.5512 0.088 Uiso 1 1 calc R . .  loop_  _atom_site_aniso_label  _atom_site_aniso_U_11  _atom_site_aniso_U_22  _atom_site_aniso_U_33  _atom_site_aniso_U_23  _atom_site_aniso_U_13  _atom_site_aniso_U_12 Si1 0.0266(7) 0.0245(6) 0.0344(7) 0.0009(6) -0.0031(6) -0.0088(5) Si2 0.0208(6) 0.0255(6) 0.0352(7) 0.0013(6) -0.0026(6) -0.0037(5) C1 0.015(2) 0.012(2) 0.030(3) -0.001(2) -0.007(2) 0.0018(18) C2 0.016(2) 0.018(2) 0.034(3) 0.004(2) 0.001(2) 0.0031(19) C3 0.028(3) 0.023(3) 0.033(3) -0.002(2) -0.003(2) -0.006(2) C4 0.026(3) 0.029(3) 0.028(3) -0.002(2) -0.005(2) 0.004(2) C5 0.029(3) 0.047(3) 0.030(3) -0.003(2) 0.004(2) 0.002(2) C6 0.035(3) 0.062(3) 0.038(3) -0.004(3) -0.001(3) 0.009(3) C7 0.035(3) 0.056(3) 0.045(4) 0.015(3) 0.012(3) 0.000(3) C8 0.035(3) 0.054(3) 0.035(3) 0.002(3) -0.004(3) 0.000(2) C9 0.021(3) 0.033(3) 0.025(3) 0.008(2) 0.005(2) 0.005(2) C10 0.021(3) 0.033(3) 0.036(3) 0.005(2) -0.004(2) -0.004(2) C11 0.012(2) 0.014(2) 0.034(3) 0.004(2) -0.003(2) 0.0041(19) C12 0.019(2) 0.013(2) 0.033(3) -0.002(2) -0.008(2) 0.0001(19) C13 0.013(2) 0.015(2) 0.028(3) 0.002(2) -0.001(2) 0.0027(18) C14 0.025(3) 0.022(2) 0.032(3) -0.009(2) -0.004(2) 0.000(2) C15 0.032(3) 0.031(3) 0.026(3) -0.006(2) 0.007(2) 0.001(2) C16 0.030(3) 0.026(3) 0.039(3) 0.007(2) 0.005(2) 0.004(2) C17 0.017(2) 0.018(2) 0.039(3) 0.002(2) -0.001(2) 0.0023(18) C18 0.020(2) 0.015(2) 0.036(3) 0.006(2) -0.003(2) 0.0038(19) C19 0.029(3) 0.021(2) 0.033(3) 0.005(2) -0.001(2) 0.005(2) C20 0.033(3) 0.021(2) 0.045(3) 0.000(2) 0.002(2) 0.000(2) C21 0.044(3) 0.035(3) 0.040(3) 0.005(2) -0.011(2) -0.017(2) C22 0.090(4) 0.069(4) 0.035(3) -0.001(3) 0.002(3) -0.034(3) C23 0.067(4) 0.065(4) 0.081(4) 0.039(3) -0.023(3) -0.010(3) C24 0.037(3) 0.027(2) 0.032(3) -0.001(2) 0.002(2) -0.010(2) C25 0.042(3) 0.040(3) 0.074(3) -0.013(3) 0.002(3) 0.001(2) C26 0.037(3) 0.046(3) 0.071(3) 0.005(3) -0.015(2) -0.008(2) C27 0.040(3) 0.033(3) 0.048(3) 0.008(2) 0.000(2) -0.002(2) C28 0.105(4) 0.050(3) 0.072(4) -0.026(3) 0.028(3) -0.024(3) C29 0.073(3) 0.042(3) 0.055(3) -0.008(3) 0.016(3) 0.005(3) C30 0.025(3) 0.021(2) 0.029(3) 0.003(2) 0.003(2) -0.002(2) C31 0.025(3) 0.023(2) 0.031(3) 0.006(2) 0.003(2) 0.004(2) C32 0.035(3) 0.042(3) 0.038(3) 0.004(2) -0.005(2) -0.001(2) C33 0.092(4) 0.063(3) 0.038(3) 0.012(3) -0.006(3) 0.006(3) C34 0.070(4) 0.077(4) 0.054(3) -0.017(3) -0.031(3) -0.004(3) C35 0.020(2) 0.029(2) 0.042(3) -0.005(2) -0.004(2) -0.004(2) C36 0.056(3) 0.047(3) 0.052(3) -0.010(3) -0.016(3) 0.009(3) C37 0.046(3) 0.034(3) 0.052(3) 0.010(2) -0.001(2) -0.007(2) C38 0.030(3) 0.033(3) 0.055(3) -0.001(2) 0.007(2) -0.003(2) C39 0.030(3) 0.075(4) 0.126(5) -0.023(4) 0.029(3) -0.007(3) C40 0.063(3) 0.051(3) 0.062(4) -0.016(3) 0.013(3) 0.004(3)  _geom_special_details ;  All esds (except the esd in the dihedral angle between two l.s. planes)  are estimated using the full covariance matrix.  The cell esds are taken  into account individually in the estimation of esds in distances, angles  and torsion angles; correlations between esds in cell parameters are only  used when they are defined by crystal symmetry.  An approximate (isotropic)  treatment of cell esds is used for estimating esds involving l.s. planes. ;  loop_  _geom_bond_atom_site_label_1  _geom_bond_atom_site_label_2  _geom_bond_distance  _geom_bond_site_symmetry_2  _geom_bond_publ_flag Si1 C20 1.845(4) . ? Si1 C24 1.866(4) . ? Si1 C21 1.871(4) . ? Si1 C27 1.885(4) . ? Si2 C31 1.843(4) . ? Si2 C38 1.869(4) . ? Si2 C35 1.871(4) . ? Si2 C32 1.881(4) . ? C1 C18 1.401(5) . ? C1 C2 1.423(5) . ? C1 C19 1.438(5) . ? C2 C3 1.400(5) . ? C2 C11 1.435(4) . ? C3 C4 1.378(5) . ? C3 H3 0.9500 . ? C4 C5 1.423(5) . ? C4 C9 1.439(5) . ? C5 C6 1.352(5) . ? C5 H5 0.9500 . ? C6 C7 1.420(5) . ? C6 H6 0.9500 . ? C7 C8 1.365(5) . ? C7 H7 0.9500 . ? C8 C9 1.410(5) . ? C8 H8 0.9500 . ? C9 C10 1.378(5) . ? C10 C11 1.401(4) . ? C10 H10 0.9500 . ? C11 C12 1.429(4) . ? C12 C13 1.410(4) . ? C12 C30 1.438(5) . ? C13 C14 1.419(5) . ? C13 C18 1.438(4) . ? C14 C15 1.348(5) . ? C14 H14 0.9500 . ? C15 C16 1.418(5) . ? C15 H15 0.9500 . ? C16 C17 1.351(5) . ? C16 H16 0.9500 . ? C17 C18 1.425(5) . ? C17 H17 0.9500 . ? C19 C20 1.219(5) . ? C21 C23 1.528(5) . ? C21 C22 1.546(5) . ? C21 H21 1.0000 . ? C22 H22A 0.9800 . ? C22 H22B 0.9800 . ? C22 H22C 0.9800 . ? C23 H23A 0.9800 . ? C23 H23B 0.9800 . ? C23 H23C 0.9800 . ? C24 C25 1.532(4) . ? C24 C26 1.555(5) . ? C24 H24 1.0000 . ? C25 H25A 0.9800 . ? C25 H25B 0.9800 . ? C25 H25C 0.9800 . ? C26 H26A 0.9800 . ? C26 H26B 0.9800 . ? C26 H26C 0.9800 . ? C27 C29 1.525(5) . ? C27 C28 1.529(5) . ? C27 H27 1.0000 . ? C28 H28A 0.9800 . ? C28 H28B 0.9800 . ? C28 H28C 0.9800 . ? C29 H29A 0.9800 . ? C29 H29B 0.9800 . ? C29 H29C 0.9800 . ? C30 C31 1.211(4) . ? C32 C33 1.530(5) . ? C32 C34 1.541(5) . ? C32 H32 1.0000 . ? C33 H33A 0.9800 . ? C33 H33B 0.9800 . ? C33 H33C 0.9800 . ? C34 H34A 0.9800 . ? C34 H34B 0.9800 . ? C34 H34C 0.9800 . ? C35 C37 1.530(5) . ? C35 C36 1.533(5) . ? C35 H35 1.0000 . ? C36 H36A 0.9800 . ? C36 H36B 0.9800 . ? C36 H36C 0.9800 . ? C37 H37A 0.9800 . ? C37 H37B 0.9800 . ? C37 H37C 0.9800 . ? C38 C40 1.519(5) . ? C38 C39 1.526(5) . ? C38 H38 1.0000 . ? C39 H39A 0.9800 . ? C39 H39B 0.9800 . ? C39 H39C 0.9800 . ? C40 H40A 0.9800 . ? C40 H40B 0.9800 . ? C40 H40C 0.9800 . ?  loop_  _geom_angle_atom_site_label_1  _geom_angle_atom_site_label_2  _geom_angle_atom_site_label_3  _geom_angle  _geom_angle_site_symmetry_1  _geom_angle_site_symmetry_3  _geom_angle_publ_flag C20 Si1 C24 109.08(16) . . ? C20 Si1 C21 107.59(17) . . ? C24 Si1 C21 113.07(18) . . ? C20 Si1 C27 105.11(17) . . ? C24 Si1 C27 111.71(17) . . ? C21 Si1 C27 109.90(18) . . ? C31 Si2 C38 107.35(16) . . ? C31 Si2 C35 107.51(16) . . ? C38 Si2 C35 112.43(18) . . ? C31 Si2 C32 107.55(17) . . ? C38 Si2 C32 111.08(19) . . ? C35 Si2 C32 110.69(17) . . ? C18 C1 C2 121.1(3) . . ? C18 C1 C19 119.9(3) . . ? C2 C1 C19 119.0(3) . . ? C3 C2 C1 122.2(3) . . ? C3 C2 C11 118.9(3) . . ? C1 C2 C11 118.9(3) . . ? C4 C3 C2 122.3(4) . . ? C4 C3 H3 118.8 . . ? C2 C3 H3 118.8 . . ? C3 C4 C5 122.3(4) . . ? C3 C4 C9 119.0(4) . . ? C5 C4 C9 118.6(4) . . ? C6 C5 C4 120.9(4) . . ? C6 C5 H5 119.6 . . ? C4 C5 H5 119.5 . . ? C5 C6 C7 120.7(4) . . ? C5 C6 H6 119.7 . . ? C7 C6 H6 119.7 . . ? C8 C7 C6 120.0(4) . . ? C8 C7 H7 120.0 . . ? C6 C7 H7 120.0 . . ? C7 C8 C9 121.4(4) . . ? C7 C8 H8 119.3 . . ? C9 C8 H8 119.3 . . ? C10 C9 C8 122.9(4) . . ? C10 C9 C4 118.7(4) . . ? C8 C9 C4 118.4(4) . . ? C9 C10 C11 123.0(4) . . ? C9 C10 H10 118.5 . . ? C11 C10 H10 118.5 . . ? C10 C11 C12 122.6(3) . . ? C10 C11 C2 117.9(3) . . ? C12 C11 C2 119.5(3) . . ? C13 C12 C11 121.1(3) . . ? C13 C12 C30 120.1(3) . . ? C11 C12 C30 118.8(3) . . ? C12 C13 C14 122.2(3) . . ? C12 C13 C18 118.8(3) . . ? C14 C13 C18 118.9(3) . . ? C15 C14 C13 121.5(4) . . ? C15 C14 H14 119.3 . . ? C13 C14 H14 119.3 . . ? C14 C15 C16 120.0(4) . . ? C14 C15 H15 120.0 . . ? C16 C15 H15 120.0 . . ? C17 C16 C15 120.5(4) . . ? C17 C16 H16 119.7 . . ? C15 C16 H16 119.7 . . ? C16 C17 C18 121.7(4) . . ? C16 C17 H17 119.1 . . ? C18 C17 H17 119.1 . . ? C1 C18 C17 122.3(4) . . ? C1 C18 C13 120.4(3) . . ? C17 C18 C13 117.3(3) . . ? C20 C19 C1 179.2(4) . . ? C19 C20 Si1 176.2(3) . . ? C23 C21 C22 110.4(3) . . ? C23 C21 Si1 112.3(3) . . ? C22 C21 Si1 112.9(3) . . ? C23 C21 H21 107.0 . . ? C22 C21 H21 107.0 . . ? Si1 C21 H21 107.0 . . ? C21 C22 H22A 109.5 . . ? C21 C22 H22B 109.5 . . ? H22A C22 H22B 109.5 . . ? C21 C22 H22C 109.5 . . ? H22A C22 H22C 109.5 . . ? H22B C22 H22C 109.5 . . ? C21 C23 H23A 109.5 . . ? C21 C23 H23B 109.5 . . ? H23A C23 H23B 109.5 . . ? C21 C23 H23C 109.5 . . ? H23A C23 H23C 109.5 . . ? H23B C23 H23C 109.5 . . ? C25 C24 C26 109.3(3) . . ? C25 C24 Si1 115.7(3) . . ? C26 C24 Si1 111.8(2) . . ? C25 C24 H24 106.5 . . ? C26 C24 H24 106.5 . . ? Si1 C24 H24 106.5 . . ? C24 C25 H25A 109.5 . . ? C24 C25 H25B 109.5 . . ? H25A C25 H25B 109.5 . . ? C24 C25 H25C 109.5 . . ? H25A C25 H25C 109.5 . . ? H25B C25 H25C 109.5 . . ? C24 C26 H26A 109.5 . . ? C24 C26 H26B 109.5 . . ? H26A C26 H26B 109.5 . . ? C24 C26 H26C 109.5 . . ? H26A C26 H26C 109.5 . . ? H26B C26 H26C 109.5 . . ? C29 C27 C28 109.8(3) . . ? C29 C27 Si1 112.5(3) . . ? C28 C27 Si1 114.4(3) . . ? C29 C27 H27 106.6 . . ? C28 C27 H27 106.6 . . ? Si1 C27 H27 106.6 . . ? C27 C28 H28A 109.5 . . ? C27 C28 H28B 109.5 . . ? H28A C28 H28B 109.5 . . ? C27 C28 H28C 109.5 . . ? H28A C28 H28C 109.5 . . ? H28B C28 H28C 109.5 . . ? C27 C29 H29A 109.5 . . ? C27 C29 H29B 109.5 . . ? H29A C29 H29B 109.5 . . ? C27 C29 H29C 109.5 . . ? H29A C29 H29C 109.5 . . ? H29B C29 H29C 109.5 . . ? C31 C30 C12 177.7(4) . . ? C30 C31 Si2 175.8(3) . . ? C33 C32 C34 110.7(3) . . ? C33 C32 Si2 112.6(3) . . ? C34 C32 Si2 112.5(3) . . ? C33 C32 H32 106.8 . . ? C34 C32 H32 106.8 . . ? Si2 C32 H32 106.8 . . ? C32 C33 H33A 109.5 . . ? C32 C33 H33B 109.5 . . ? H33A C33 H33B 109.5 . . ? C32 C33 H33C 109.5 . . ? H33A C33 H33C 109.5 . . ? H33B C33 H33C 109.5 . . ? C32 C34 H34A 109.5 . . ? C32 C34 H34B 109.5 . . ? H34A C34 H34B 109.5 . . ? C32 C34 H34C 109.5 . . ? H34A C34 H34C 109.5 . . ? H34B C34 H34C 109.5 . . ? C37 C35 C36 109.9(3) . . ? C37 C35 Si2 113.1(2) . . ? C36 C35 Si2 112.5(3) . . ? C37 C35 H35 107.0 . . ? C36 C35 H35 107.0 . . ? Si2 C35 H35 107.0 . . ? C35 C36 H36A 109.5 . . ? C35 C36 H36B 109.5 . . ? H36A C36 H36B 109.5 . . ? C35 C36 H36C 109.5 . . ? H36A C36 H36C 109.5 . . ? H36B C36 H36C 109.5 . . ? C35 C37 H37A 109.5 . . ? C35 C37 H37B 109.5 . . ? H37A C37 H37B 109.5 . . ? C35 C37 H37C 109.5 . . ? H37A C37 H37C 109.5 . . ? H37B C37 H37C 109.5 . . ? C40 C38 C39 109.8(4) . . ? C40 C38 Si2 116.0(3) . . ? C39 C38 Si2 112.1(3) . . ? C40 C38 H38 106.1 . . ? C39 C38 H38 106.1 . . ? Si2 C38 H38 106.1 . . ? C38 C39 H39A 109.5 . . ? C38 C39 H39B 109.5 . . ? H39A C39 H39B 109.5 . . ? C38 C39 H39C 109.5 . . ? H39A C39 H39C 109.5 . . ? H39B C39 H39C 109.5 . . ? C38 C40 H40A 109.5 . . ? C38 C40 H40B 109.5 . . ? H40A C40 H40B 109.5 . . ? C38 C40 H40C 109.5 . . ? H40A C40 H40C 109.5 . . ? H40B C40 H40C 109.5 . . ?  loop_  _geom_torsion_atom_site_label_1  _geom_torsion_atom_site_label_2  _geom_torsion_atom_site_label_3  _geom_torsion_atom_site_label_4  _geom_torsion  _geom_torsion_site_symmetry_1  _geom_torsion_site_symmetry_2  _geom_torsion_site_symmetry_3  _geom_torsion_site_symmetry_4  _geom_torsion_publ_flag C18 C1 C2 C3 177.7(3) . . . . ? C19 C1 C2 C3 -1.4(5) . . . . ? C18 C1 C2 C11 -2.0(5) . . . . ? C19 C1 C2 C11 179.0(3) . . . . ? C1 C2 C3 C4 -176.3(3) . . . . ? C11 C2 C3 C4 3.3(5) . . . . ? C2 C3 C4 C5 176.8(3) . . . . ? C2 C3 C4 C9 -1.7(5) . . . . ? C3 C4 C5 C6 -176.5(4) . . . . ? C9 C4 C5 C6 2.0(5) . . . . ? C4 C5 C6 C7 -0.9(6) . . . . ? C5 C6 C7 C8 -0.8(6) . . . . ? C6 C7 C8 C9 1.5(6) . . . . ? C7 C8 C9 C10 178.5(4) . . . . ? C7 C8 C9 C4 -0.4(6) . . . . ? C3 C4 C9 C10 -1.7(5) . . . . ? C5 C4 C9 C10 179.8(3) . . . . ? C3 C4 C9 C8 177.2(3) . . . . ? C5 C4 C9 C8 -1.3(5) . . . . ? C8 C9 C10 C11 -175.4(3) . . . . ? C4 C9 C10 C11 3.4(6) . . . . ? C9 C10 C11 C12 177.8(3) . . . . ? C9 C10 C11 C2 -1.7(5) . . . . ? C3 C2 C11 C10 -1.6(5) . . . . ? C1 C2 C11 C10 178.0(3) . . . . ? C3 C2 C11 C12 178.8(3) . . . . ? C1 C2 C11 C12 -1.5(5) . . . . ? C10 C11 C12 C13 -175.9(3) . . . . ? C2 C11 C12 C13 3.6(5) . . . . ? C10 C11 C12 C30 4.7(5) . . . . ? C2 C11 C12 C30 -175.8(3) . . . . ? C11 C12 C13 C14 178.5(3) . . . . ? C30 C12 C13 C14 -2.0(5) . . . . ? C11 C12 C13 C18 -2.3(5) . . . . ? C30 C12 C13 C18 177.2(3) . . . . ? C12 C13 C14 C15 -179.2(3) . . . . ? C18 C13 C14 C15 1.5(5) . . . . ? C13 C14 C15 C16 -0.8(5) . . . . ? C14 C15 C16 C17 -0.2(5) . . . . ? C15 C16 C17 C18 0.3(5) . . . . ? C2 C1 C18 C17 -177.3(3) . . . . ? C19 C1 C18 C17 1.7(5) . . . . ? C2 C1 C18 C13 3.4(5) . . . . ? C19 C1 C18 C13 -177.6(3) . . . . ? C16 C17 C18 C1 -178.9(3) . . . . ? C16 C17 C18 C13 0.4(5) . . . . ? C12 C13 C18 C1 -1.2(5) . . . . ? C14 C13 C18 C1 178.0(3) . . . . ? C12 C13 C18 C17 179.5(3) . . . . ? C14 C13 C18 C17 -1.3(5) . . . . ? C18 C1 C19 C20 100(27) . . . . ? C2 C1 C19 C20 -80(27) . . . . ? C1 C19 C20 Si1 4(32) . . . . ? C24 Si1 C20 C19 163(5) . . . . ? C21 Si1 C20 C19 -74(5) . . . . ? C27 Si1 C20 C19 44(6) . . . . ? C20 Si1 C21 C23 62.1(3) . . . . ? C24 Si1 C21 C23 -177.4(3) . . . . ? C27 Si1 C21 C23 -51.8(3) . . . . ? C20 Si1 C21 C22 -63.4(3) . . . . ? C24 Si1 C21 C22 57.1(3) . . . . ? C27 Si1 C21 C22 -177.4(3) . . . . ? C20 Si1 C24 C25 34.1(3) . . . . ? C21 Si1 C24 C25 -85.6(3) . . . . ? C27 Si1 C24 C25 149.8(3) . . . . ? C20 Si1 C24 C26 160.1(3) . . . . ? C21 Si1 C24 C26 40.5(3) . . . . ? C27 Si1 C24 C26 -84.1(3) . . . . ? C20 Si1 C27 C29 60.8(3) . . . . ? C24 Si1 C27 C29 -57.3(3) . . . . ? C21 Si1 C27 C29 176.4(3) . . . . ? C20 Si1 C27 C28 -173.0(3) . . . . ? C24 Si1 C27 C28 68.8(3) . . . . ? C21 Si1 C27 C28 -57.5(4) . . . . ? C13 C12 C30 C31 -125(10) . . . . ? C11 C12 C30 C31 55(10) . . . . ? C12 C30 C31 Si2 -2(14) . . . . ? C38 Si2 C31 C30 0(5) . . . . ? C35 Si2 C31 C30 -121(5) . . . . ? C32 Si2 C31 C30 120(5) . . . . ? C31 Si2 C32 C33 -55.7(3) . . . . ? C38 Si2 C32 C33 61.5(4) . . . . ? C35 Si2 C32 C33 -172.9(3) . . . . ? C31 Si2 C32 C34 178.2(3) . . . . ? C38 Si2 C32 C34 -64.6(3) . . . . ? C35 Si2 C32 C34 61.1(3) . . . . ? C31 Si2 C35 C37 55.9(3) . . . . ? C38 Si2 C35 C37 -62.0(3) . . . . ? C32 Si2 C35 C37 173.1(3) . . . . ? C31 Si2 C35 C36 -69.4(3) . . . . ? C38 Si2 C35 C36 172.7(3) . . . . ? C32 Si2 C35 C36 47.8(3) . . . . ? C31 Si2 C38 C40 -33.2(3) . . . . ? C35 Si2 C38 C40 84.8(3) . . . . ? C32 Si2 C38 C40 -150.5(3) . . . . ? C31 Si2 C38 C39 -160.4(3) . . . . ? C35 Si2 C38 C39 -42.4(4) . . . . ? C32 Si2 C38 C39 82.3(4) . . . . ?  _diffrn_measured_fraction_theta_max    1.000 _diffrn_reflns_theta_full              22.50 _diffrn_measured_fraction_theta_full   1.000 _refine_diff_density_max     .426 _refine_diff_density_min    -.242 _refine_diff_density_rms     .042 