 
data_x07138f 
 
_audit_creation_method            SHELXL-97 
_chemical_name_systematic 
; 
 ? 
; 
_chemical_name_common             ? 
_chemical_melting_point           ? 
_chemical_formula_moiety 
 'C50 H64 S2 Si2' 
_chemical_formula_sum 
 'C50 H64 S2 Si2' 
_chemical_formula_weight          785.31 
 
loop_ 
 _atom_type_symbol 
 _atom_type_description 
 _atom_type_scat_dispersion_real 
 _atom_type_scat_dispersion_imag 
 _atom_type_scat_source 
 'C'  'C'   0.0181   0.0091 
 'International Tables Vol C Tables 4.2.6.8 and 6.1.1.4' 
 'H'  'H'   0.0000   0.0000 
 'International Tables Vol C Tables 4.2.6.8 and 6.1.1.4' 
 'Si'  'Si'   0.2541   0.3302 
 'International Tables Vol C Tables 4.2.6.8 and 6.1.1.4' 
 'S'  'S'   0.3331   0.5567 
 'International Tables Vol C Tables 4.2.6.8 and 6.1.1.4' 
 
_symmetry_cell_setting            ? 
_symmetry_space_group_name_H-M    ? 
_symmetry_space_group_name_Hall   ? 
 
loop_ 
 _symmetry_equiv_pos_as_xyz 
 'x, y, z' 
 '-x, y+1/2, -z+1/2' 
 '-x, -y, -z' 
 'x, -y-1/2, z-1/2' 
 
_cell_length_a                    18.9286(12) 
_cell_length_b                    17.3736(11) 
_cell_length_c                    14.6253(8) 
_cell_angle_alpha                 90.00 
_cell_angle_beta                  111.554(3) 
_cell_angle_gamma                 90.00 
_cell_volume                      4473.3(5) 
_cell_formula_units_Z             4 
_cell_measurement_temperature     90.0(2) 
_cell_measurement_reflns_used     ? 
_cell_measurement_theta_min       ? 
_cell_measurement_theta_max       ? 
 
_exptl_crystal_description        ? 
_exptl_crystal_colour             ? 
_exptl_crystal_size_max           0.30 
_exptl_crystal_size_mid           0.30 
_exptl_crystal_size_min           0.01 
_exptl_crystal_density_meas       ? 
_exptl_crystal_density_diffrn     1.166 
_exptl_crystal_density_method     'not measured' 
_exptl_crystal_F_000              1696 
_exptl_absorpt_coefficient_mu     1.826 
_exptl_absorpt_correction_type    multi-scan 
_exptl_absorpt_correction_T_min   0.6104 
_exptl_absorpt_correction_T_max   0.9909 
_exptl_absorpt_process_details    'Sadabs in APEX2 (BrukerAXS, 2006)' 
 
_exptl_special_details 
; 
 ? 
; 
 
_diffrn_ambient_temperature       90.0(2) 
_diffrn_radiation_wavelength      1.54178 
_diffrn_radiation_type            CuK\a 
_diffrn_radiation_source          'fine-focus rotating anode' 
_diffrn_radiation_monochromator   'graded multilayer optics' 
_diffrn_measurement_device_type   'Bruker X8 Proteum diffractometer'
_diffrn_measurement_method        '\f and \w scans'            
_diffrn_detector_area_resol_mean  18
_diffrn_standards_number          0 
_diffrn_standards_interval_count  . 
_diffrn_standards_interval_time   . 
_diffrn_standards_decay_%         ? 
_diffrn_reflns_number             39938 
_diffrn_reflns_av_R_equivalents   0.1294 
_diffrn_reflns_av_sigmaI/netI     0.0723 
_diffrn_reflns_limit_h_min        -20 
_diffrn_reflns_limit_h_max        20 
_diffrn_reflns_limit_k_min        -18 
_diffrn_reflns_limit_k_max        18 
_diffrn_reflns_limit_l_min        -15 
_diffrn_reflns_limit_l_max        15 
_diffrn_reflns_theta_min          3.57 
_diffrn_reflns_theta_max          56.60 
_reflns_number_total              5920 
_reflns_number_gt                 3171 
_reflns_threshold_expression      >2\s(I)    
 
_computing_data_collection        'APEX2 (Bruker-AXS, 2006)'            
_computing_cell_refinement        'APEX2 (Bruker-AXS, 2006)'            
_computing_data_reduction         'APEX2 (Bruker-AXS, 2006)'            
_computing_structure_solution     'SHELXS-97 (Sheldrick, 1997)' 
_computing_structure_refinement   'SHELXL-97 (Sheldrick, 1997)' 
_computing_molecular_graphics     'XP in SHELXTL (Sheldrick, 1994)'
_computing_publication_material
; 
SHELX97-2 (Sheldrick, 1997) and local procedures 
; 
 
_refine_special_details 
; 
 Refinement of F^2^ against ALL reflections.  The weighted R-factor wR and 
 goodness of fit S are based on F^2^, conventional R-factors R are based 
 on F, with F set to zero for negative F^2^. The threshold expression of 
 F^2^ > 2\s(F^2^) is used only for calculating R-factors(gt) etc. and is 
 not relevant to the choice of reflections for refinement.  R-factors based 
 on F^2^ are statistically about twice as large as those based on F, and R- 
 factors based on ALL data will be even larger. 
; 
 
_refine_ls_structure_factor_coef  Fsqd  
_refine_ls_matrix_type            full 
_refine_ls_weighting_scheme       calc  
_refine_ls_weighting_details 
 'calc w=1/[\s^2^(Fo^2^)+(0.1000P)^2^] where P=(Fo^2^+2Fc^2^)/3'         
_atom_sites_solution_primary      direct 
_atom_sites_solution_secondary    difmap 
_atom_sites_solution_hydrogens    geom 
_refine_ls_hydrogen_treatment     constr 
_refine_ls_extinction_method      none 
_refine_ls_extinction_coef        ? 
_refine_ls_number_reflns          5920 
_refine_ls_number_parameters      543 
_refine_ls_number_restraints      771 
_refine_ls_R_factor_all           0.3187 
_refine_ls_R_factor_gt            0.2229 
_refine_ls_wR_factor_ref          0.5540 
_refine_ls_wR_factor_gt           0.5109 
_refine_ls_goodness_of_fit_ref    3.307 
_refine_ls_restrained_S_all       3.195 
_refine_ls_shift/su_max           0.001 
_refine_ls_shift/su_mean          0.000 
 
loop_ 
 _atom_site_label 
 _atom_site_type_symbol 
 _atom_site_fract_x 
 _atom_site_fract_y 
 _atom_site_fract_z 
 _atom_site_U_iso_or_equiv 
 _atom_site_adp_type 
 _atom_site_occupancy 
 _atom_site_symmetry_multiplicity 
 _atom_site_calc_flag 
 _atom_site_refinement_flags 
 _atom_site_disorder_assembly 
 _atom_site_disorder_group 
Si1 Si -0.3032(3) 0.1893(4) -0.3894(3) 0.119(2) Uani 1 1 d U . . 
Si2 Si 0.3128(2) 0.2659(3) 0.1852(3) 0.0997(17) Uani 1 1 d U B . 
C1 C -0.0632(7) 0.2244(8) -0.1846(8) 0.062(2) Uani 1 1 d U . . 
C2 C -0.0169(7) 0.1575(8) -0.1456(8) 0.060(2) Uani 1 1 d U . . 
C3 C -0.0413(7) 0.0848(8) -0.1640(8) 0.063(2) Uani 1 1 d U . . 
H3 H -0.0921 0.0769 -0.2081 0.076 Uiso 1 1 calc R . . 
C4 C 0.0025(7) 0.0187(8) -0.1227(8) 0.065(2) Uani 1 1 d U B . 
C5 C -0.0261(8) -0.0585(8) -0.1473(9) 0.073(2) Uani 1 1 d U . . 
H5 H -0.0762 -0.0679 -0.1926 0.088 Uiso 1 1 calc R A 1 
C6 C 0.0212(7) -0.1165(6) -0.1033(9) 0.0792(19) Uani 0.430(10) 1 d PDU B 1 
S7 S -0.0095(6) -0.2089(5) -0.1251(8) 0.084(2) Uani 0.430(10) 1 d PDU B 1 
C8 C 0.0866(14) -0.2385(10) -0.041(3) 0.088(3) Uani 0.430(10) 1 d PDU B 1 
H8 H 0.1065 -0.2893 -0.0307 0.106 Uiso 0.430(10) 1 calc PR B 1 
C9 C 0.1146(16) -0.1880(14) -0.008(3) 0.086(3) Uani 0.430(10) 1 d PDU B 1 
H9 H 0.1575 -0.1954 0.0508 0.103 Uiso 0.430(10) 1 calc PR B 1 
C10 C 0.0965(6) -0.1046(6) -0.0401(9) 0.082(2) Uani 0.430(10) 1 d PDU B 1 
C6' C 0.0212(7) -0.1165(6) -0.1033(9) 0.0792(19) Uani 0.570(10) 1 d PDU B 2 
C7' C 0.0212(14) -0.2041(13) -0.099(2) 0.085(3) Uani 0.570(10) 1 d PDU B 2 
H7' H -0.0236 -0.2281 -0.1431 0.102 Uiso 0.570(10) 1 calc PR B 2 
C8' C 0.0631(12) -0.2419(9) -0.056(2) 0.088(3) Uani 0.570(10) 1 d PDU B 2 
H8' H 0.0579 -0.2957 -0.0488 0.106 Uiso 0.570(10) 1 calc PR B 2 
S9' S 0.1494(4) -0.1835(4) 0.0059(6) 0.091(2) Uani 0.570(10) 1 d PDU B 2 
C10' C 0.0965(6) -0.1046(6) -0.0401(9) 0.082(2) Uani 0.570(10) 1 d PDU B 2 
C11 C 0.1248(9) -0.0335(9) -0.0192(10) 0.078(2) Uani 1 1 d U . . 
H11 H 0.1764 -0.0272 0.0228 0.093 Uiso 1 1 calc R B 1 
C12 C 0.0787(8) 0.0345(9) -0.0592(9) 0.072(2) Uani 1 1 d U B . 
C13 C 0.1047(7) 0.1056(8) -0.0394(9) 0.064(2) Uani 1 1 d U . . 
H13 H 0.1560 0.1127 0.0035 0.077 Uiso 1 1 calc R B . 
C14 C 0.0603(7) 0.1721(8) -0.0785(9) 0.066(2) Uani 1 1 d U B . 
C15 C 0.0848(7) 0.2486(8) -0.0559(9) 0.065(2) Uani 1 1 d U . . 
C16 C 0.0393(7) 0.3151(8) -0.0974(8) 0.064(2) Uani 1 1 d U B . 
C17 C 0.0651(7) 0.3895(8) -0.0731(9) 0.066(2) Uani 1 1 d U . . 
H17 H 0.1153 0.3983 -0.0280 0.079 Uiso 1 1 calc R B 1 
C18 C 0.0178(6) 0.4514(5) -0.1143(8) 0.071(2) Uani 0.660(10) 1 d PDU B 1 
S19 S 0.0430(3) 0.5456(4) -0.0916(5) 0.0824(19) Uani 0.660(10) 1 d PDU B 1 
C20 C -0.0534(11) 0.5731(9) -0.1748(13) 0.074(3) Uani 0.660(10) 1 d PDU B 1 
H20 H -0.0722 0.6239 -0.1916 0.089 Uiso 0.660(10) 1 calc PR B 1 
C21 C -0.0833(13) 0.5218(13) -0.200(2) 0.072(3) Uani 0.660(10) 1 d PDU B 1 
H21 H -0.1347 0.5282 -0.2424 0.087 Uiso 0.660(10) 1 calc PR B 1 
C22 C -0.0572(6) 0.4390(5) -0.1783(8) 0.0668(19) Uani 0.660(10) 1 d PDU B 1 
C18' C 0.0178(6) 0.4514(5) -0.1143(8) 0.071(2) Uani 0.340(10) 1 d PDU B 2 
C19' C 0.0174(15) 0.5389(14) -0.114(4) 0.075(3) Uani 0.340(10) 1 d PDU B 2 
H19' H 0.0660 0.5627 -0.0895 0.090 Uiso 0.340(10) 1 calc PR B 2 
C20' C -0.0290(15) 0.5765(10) -0.138(2) 0.075(3) Uani 0.340(10) 1 d PDU B 2 
H20' H -0.0294 0.6293 -0.1213 0.090 Uiso 0.340(10) 1 calc PR B 2 
S21' S -0.1100(6) 0.5194(6) -0.2203(10) 0.075(2) Uani 0.340(10) 1 d PDU B 2 
C22' C -0.0572(6) 0.4390(5) -0.1783(8) 0.0668(19) Uani 0.340(10) 1 d PDU B 2 
C23 C -0.0819(7) 0.3665(8) -0.2020(9) 0.065(2) Uani 1 1 d U . . 
H23 H -0.1326 0.3595 -0.2465 0.078 Uiso 1 1 calc R B 1 
C24 C -0.0369(7) 0.2983(8) -0.1648(8) 0.060(2) Uani 1 1 d U B . 
C25 C -0.1414(7) 0.2097(8) -0.2508(9) 0.068(3) Uani 1 1 d U . . 
C26 C -0.2065(9) 0.2021(9) -0.3037(10) 0.083(3) Uani 1 1 d U . . 
C27 C -0.344(2) 0.290(2) -0.402(3) 0.251(10) Uani 1 1 d U . . 
H27 H -0.3498 0.2964 -0.3368 0.301 Uiso 1 1 calc R . . 
C28 C -0.308(2) 0.358(2) -0.408(3) 0.246(10) Uani 1 1 d U . . 
H28A H -0.2597 0.3536 -0.3500 0.295 Uiso 1 1 calc R . . 
H28B H -0.2929 0.3474 -0.4651 0.295 Uiso 1 1 calc R . . 
C29 C -0.319(2) 0.427(2) -0.414(3) 0.276(13) Uani 1 1 d U . . 
H29A H -0.2750 0.4535 -0.4206 0.415 Uiso 1 1 calc R . . 
H29B H -0.3257 0.4458 -0.3543 0.415 Uiso 1 1 calc R . . 
H29C H -0.3645 0.4387 -0.4714 0.415 Uiso 1 1 calc R . . 
C30 C -0.430(2) 0.286(2) -0.474(3) 0.293(13) Uani 1 1 d U . . 
H30A H -0.4530 0.2386 -0.4616 0.439 Uiso 1 1 calc R . . 
H30B H -0.4319 0.2857 -0.5422 0.439 Uiso 1 1 calc R . . 
H30C H -0.4573 0.3306 -0.4637 0.439 Uiso 1 1 calc R . . 
C31 C -0.3486(18) 0.116(3) -0.337(3) 0.279(10) Uani 1 1 d U . . 
H31 H -0.3699 0.1565 -0.3058 0.335 Uiso 1 1 calc R . . 
C32 C -0.4279(18) 0.083(3) -0.395(3) 0.306(13) Uani 1 1 d U . . 
H32A H -0.4475 0.1052 -0.4613 0.459 Uiso 1 1 calc R . . 
H32B H -0.4623 0.0956 -0.3610 0.459 Uiso 1 1 calc R . . 
H32C H -0.4243 0.0269 -0.3998 0.459 Uiso 1 1 calc R . . 
C33 C -0.347(2) 0.033(3) -0.191(3) 0.325(13) Uani 1 1 d U . . 
H33A H -0.3094 0.0310 -0.1238 0.487 Uiso 1 1 calc R . . 
H33B H -0.3581 -0.0193 -0.2174 0.487 Uiso 1 1 calc R . . 
H33C H -0.3940 0.0566 -0.1901 0.487 Uiso 1 1 calc R . . 
C34 C -0.3162(19) 0.081(3) -0.255(3) 0.296(11) Uani 1 1 d U . . 
H34A H -0.2853 0.1211 -0.2103 0.356 Uiso 1 1 calc R . . 
H34B H -0.2792 0.0463 -0.2678 0.356 Uiso 1 1 calc R . . 
C35 C -0.3024(12) 0.150(2) -0.5030(18) 0.221(8) Uani 1 1 d U . . 
H35 H -0.2905 0.1994 -0.5299 0.265 Uiso 1 1 calc R . . 
C36 C -0.2487(13) 0.109(2) -0.5142(17) 0.213(8) Uani 1 1 d U . . 
H36A H -0.2494 0.0599 -0.4803 0.255 Uiso 1 1 calc R . . 
H36B H -0.2009 0.1351 -0.4736 0.255 Uiso 1 1 calc R . . 
C37 C -0.2373(13) 0.087(2) -0.6042(16) 0.207(9) Uani 1 1 d U . . 
H37A H -0.1937 0.0520 -0.5879 0.310 Uiso 1 1 calc R . . 
H37B H -0.2277 0.1329 -0.6366 0.310 Uiso 1 1 calc R . . 
H37C H -0.2829 0.0607 -0.6486 0.310 Uiso 1 1 calc R . . 
C38 C -0.3839(12) 0.143(2) -0.5750(18) 0.227(10) Uani 1 1 d U . . 
H38A H -0.4156 0.1815 -0.5602 0.340 Uiso 1 1 calc R . . 
H38B H -0.4030 0.0911 -0.5691 0.340 Uiso 1 1 calc R . . 
H38C H -0.3855 0.1500 -0.6422 0.340 Uiso 1 1 calc R . . 
C39 C 0.1593(7) 0.2577(9) 0.0166(9) 0.072(3) Uani 1 1 d U B . 
C40 C 0.2229(8) 0.2652(9) 0.0790(10) 0.081(3) Uani 1 1 d U . . 
C41 C 0.2868(19) 0.236(3) 0.2932(18) 0.238(9) Uani 1 1 d U . . 
H41 H 0.3328 0.2319 0.3550 0.285 Uiso 1 1 calc R B . 
C42 C 0.2346(19) 0.159(3) 0.277(2) 0.249(10) Uani 1 1 d U B . 
H42A H 0.1825 0.1743 0.2341 0.299 Uiso 1 1 calc R . . 
H42B H 0.2527 0.1229 0.2376 0.299 Uiso 1 1 calc R . . 
C43 C 0.2281(19) 0.119(2) 0.348(2) 0.259(12) Uani 1 1 d U . . 
H43A H 0.1980 0.0730 0.3216 0.389 Uiso 1 1 calc R B . 
H43B H 0.2028 0.1505 0.3827 0.389 Uiso 1 1 calc R . . 
H43C H 0.2787 0.1044 0.3937 0.389 Uiso 1 1 calc R . . 
C44 C 0.224(3) 0.311(3) 0.301(3) 0.35(2) Uani 1 1 d U B . 
H44A H 0.2519 0.3600 0.3170 0.519 Uiso 1 1 calc R . . 
H44B H 0.2040 0.2988 0.3523 0.519 Uiso 1 1 calc R . . 
H44C H 0.1816 0.3162 0.2376 0.519 Uiso 1 1 calc R . . 
C45 C 0.3550(17) 0.3608(19) 0.200(2) 0.212(8) Uani 1 1 d U . . 
H45 H 0.3163 0.3943 0.2117 0.254 Uiso 1 1 calc R B . 
C46 C 0.4199(16) 0.3731(18) 0.282(2) 0.218(9) Uani 1 1 d U B . 
H46A H 0.4621 0.3449 0.2726 0.261 Uiso 1 1 calc R . . 
H46B H 0.4119 0.3494 0.3391 0.261 Uiso 1 1 calc R . . 
C47 C 0.4457(17) 0.4561(19) 0.309(2) 0.238(12) Uani 1 1 d U . . 
H47A H 0.4920 0.4565 0.3686 0.358 Uiso 1 1 calc R B . 
H47B H 0.4056 0.4848 0.3220 0.358 Uiso 1 1 calc R . . 
H47C H 0.4560 0.4803 0.2550 0.358 Uiso 1 1 calc R . . 
C48 C 0.3607(19) 0.3930(19) 0.110(2) 0.247(11) Uani 1 1 d U B . 
H48A H 0.3124 0.3856 0.0549 0.371 Uiso 1 1 calc R . . 
H48B H 0.4013 0.3667 0.0958 0.371 Uiso 1 1 calc R . . 
H48C H 0.3721 0.4481 0.1192 0.371 Uiso 1 1 calc R . . 
C49 C 0.3762(18) 0.195(2) 0.165(2) 0.283(10) Uani 1 1 d U . . 
H49 H 0.3452 0.1514 0.1743 0.339 Uiso 1 1 calc R B . 
C50 C 0.3752(19) 0.169(2) 0.088(2) 0.292(11) Uani 1 1 d U B . 
H50A H 0.3692 0.2154 0.0456 0.351 Uiso 1 1 calc R . . 
H50B H 0.3262 0.1417 0.0609 0.351 Uiso 1 1 calc R . . 
C51 C 0.426(2) 0.122(3) 0.064(2) 0.321(14) Uani 1 1 d U . . 
H51A H 0.4244 0.1356 -0.0023 0.481 Uiso 1 1 calc R B . 
H51B H 0.4119 0.0683 0.0649 0.481 Uiso 1 1 calc R . . 
H51C H 0.4778 0.1304 0.1114 0.481 Uiso 1 1 calc R . . 
C52 C 0.4429(17) 0.174(2) 0.257(2) 0.287(13) Uani 1 1 d U B . 
H52A H 0.4286 0.1799 0.3142 0.431 Uiso 1 1 calc R . . 
H52B H 0.4857 0.2085 0.2632 0.431 Uiso 1 1 calc R . . 
H52C H 0.4578 0.1208 0.2517 0.431 Uiso 1 1 calc R . . 
 
loop_ 
 _atom_site_aniso_label 
 _atom_site_aniso_U_11 
 _atom_site_aniso_U_22 
 _atom_site_aniso_U_33 
 _atom_site_aniso_U_23 
 _atom_site_aniso_U_13 
 _atom_site_aniso_U_12 
Si1 0.068(2) 0.205(6) 0.074(3) -0.003(3) 0.014(2) -0.007(3) 
Si2 0.069(2) 0.150(4) 0.066(2) -0.008(3) 0.0087(18) -0.001(3) 
C1 0.071(4) 0.075(3) 0.046(4) 0.005(4) 0.027(3) -0.001(3) 
C2 0.067(4) 0.072(3) 0.047(4) -0.001(4) 0.029(3) 0.001(3) 
C3 0.077(5) 0.073(3) 0.045(5) -0.011(4) 0.027(4) -0.001(4) 
C4 0.082(4) 0.075(3) 0.050(5) -0.002(4) 0.038(4) -0.001(4) 
C5 0.096(5) 0.076(3) 0.065(5) -0.009(4) 0.049(4) -0.003(3) 
C6 0.108(4) 0.080(3) 0.068(4) -0.004(3) 0.054(3) 0.004(3) 
S7 0.116(5) 0.080(3) 0.074(5) -0.006(3) 0.055(4) 0.004(3) 
C8 0.115(6) 0.083(4) 0.079(6) -0.002(5) 0.050(6) 0.004(5) 
C9 0.115(6) 0.081(4) 0.075(5) -0.002(5) 0.052(5) 0.008(4) 
C10 0.109(4) 0.081(3) 0.070(4) -0.003(3) 0.049(3) 0.007(3) 
C6' 0.108(4) 0.080(3) 0.068(4) -0.004(3) 0.054(3) 0.004(3) 
C7' 0.113(5) 0.081(4) 0.074(5) -0.005(5) 0.051(5) 0.004(4) 
C8' 0.116(6) 0.084(4) 0.078(6) -0.003(5) 0.050(5) 0.005(4) 
S9' 0.112(4) 0.083(3) 0.085(4) -0.003(3) 0.045(4) 0.008(3) 
C10' 0.109(4) 0.081(3) 0.070(4) -0.003(3) 0.049(3) 0.007(3) 
C11 0.097(5) 0.082(3) 0.061(5) 0.002(5) 0.037(4) 0.012(3) 
C12 0.084(5) 0.079(3) 0.055(5) 0.000(5) 0.029(4) 0.004(4) 
C13 0.067(5) 0.081(3) 0.048(5) -0.004(5) 0.024(4) 0.003(4) 
C14 0.072(4) 0.078(3) 0.050(5) -0.002(4) 0.023(4) 0.000(3) 
C15 0.067(4) 0.079(3) 0.052(5) -0.003(4) 0.025(3) -0.003(4) 
C16 0.066(4) 0.083(3) 0.048(4) 0.000(4) 0.028(3) 0.000(3) 
C17 0.069(4) 0.086(3) 0.051(5) 0.002(4) 0.031(4) -0.005(3) 
C18 0.079(3) 0.084(3) 0.055(4) 0.005(3) 0.032(3) -0.002(3) 
S19 0.086(4) 0.096(3) 0.064(4) 0.004(3) 0.025(3) -0.011(3) 
C20 0.085(5) 0.079(4) 0.061(6) 0.007(5) 0.030(5) -0.011(4) 
C21 0.083(5) 0.075(4) 0.059(5) 0.010(5) 0.027(5) -0.007(4) 
C22 0.077(3) 0.077(3) 0.055(4) 0.007(3) 0.033(3) -0.002(3) 
C18' 0.079(3) 0.084(3) 0.055(4) 0.005(3) 0.032(3) -0.002(3) 
C19' 0.083(5) 0.085(4) 0.059(5) 0.005(5) 0.028(5) -0.008(4) 
C20' 0.083(6) 0.082(4) 0.060(6) 0.007(5) 0.026(5) -0.009(4) 
S21' 0.084(4) 0.074(4) 0.064(5) 0.009(4) 0.023(4) -0.006(3) 
C22' 0.077(3) 0.077(3) 0.055(4) 0.007(3) 0.033(3) -0.002(3) 
C23 0.071(4) 0.076(3) 0.054(5) 0.008(4) 0.030(4) 0.003(3) 
C24 0.068(4) 0.074(3) 0.048(4) 0.003(4) 0.032(3) 0.000(3) 
C25 0.070(4) 0.083(6) 0.052(5) 0.000(5) 0.023(4) 0.001(4) 
C26 0.083(4) 0.095(8) 0.063(6) 0.000(6) 0.018(4) -0.008(5) 
C27 0.202(17) 0.258(9) 0.212(17) 0.012(15) -0.020(15) 0.112(12) 
C28 0.215(18) 0.224(8) 0.216(17) 0.015(17) -0.020(15) 0.130(14) 
C29 0.26(2) 0.235(9) 0.24(2) 0.02(2) -0.02(2) 0.145(17) 
C30 0.217(18) 0.298(19) 0.25(2) 0.02(2) -0.043(18) 0.108(13) 
C31 0.152(14) 0.412(19) 0.219(16) 0.111(16) 0.005(12) -0.135(15) 
C32 0.166(17) 0.42(3) 0.26(2) 0.09(2) -0.001(14) -0.142(17) 
C33 0.23(2) 0.44(3) 0.25(2) 0.14(2) 0.029(18) -0.14(2) 
C34 0.183(15) 0.41(2) 0.233(17) 0.127(15) 0.007(13) -0.139(16) 
C35 0.094(9) 0.42(2) 0.117(8) -0.109(11) 0.006(6) -0.005(12) 
C36 0.099(9) 0.42(2) 0.113(9) -0.096(12) 0.029(8) -0.009(12) 
C37 0.117(13) 0.40(3) 0.107(11) -0.053(15) 0.049(10) -0.019(16) 
C38 0.100(9) 0.41(3) 0.132(11) -0.114(16) 0.001(10) -0.009(15) 
C39 0.068(4) 0.087(6) 0.059(5) -0.006(5) 0.021(3) -0.003(4) 
C40 0.069(5) 0.096(8) 0.073(6) -0.005(6) 0.020(4) -0.001(5) 
C41 0.200(18) 0.40(3) 0.095(8) 0.063(16) 0.034(9) -0.080(17) 
C42 0.204(18) 0.41(3) 0.118(10) 0.077(15) 0.044(10) -0.090(17) 
C43 0.22(2) 0.43(3) 0.132(14) 0.077(18) 0.070(15) -0.08(2) 
C44 0.43(5) 0.50(3) 0.24(3) -0.18(3) 0.27(3) -0.11(3) 
C45 0.162(14) 0.214(10) 0.185(15) 0.019(12) -0.024(12) -0.097(9) 
C46 0.164(14) 0.210(12) 0.199(15) 0.004(13) -0.029(12) -0.084(10) 
C47 0.181(18) 0.210(15) 0.23(2) -0.012(16) -0.032(17) -0.077(15) 
C48 0.23(2) 0.228(17) 0.209(16) 0.047(16) -0.010(15) -0.117(16) 
C49 0.214(14) 0.401(18) 0.129(11) -0.092(14) -0.060(9) 0.208(15) 
C50 0.236(16) 0.41(2) 0.142(11) -0.097(15) -0.039(11) 0.209(16) 
C51 0.27(2) 0.42(3) 0.188(17) -0.106(19) -0.008(16) 0.22(2) 
C52 0.207(18) 0.39(2) 0.150(13) -0.070(18) -0.068(13) 0.182(17) 
 
_geom_special_details 
; 
 All esds (except the esd in the dihedral angle between two l.s. planes) 
 are estimated using the full covariance matrix.  The cell esds are taken 
 into account individually in the estimation of esds in distances, angles 
 and torsion angles; correlations between esds in cell parameters are only 
 used when they are defined by crystal symmetry.  An approximate (isotropic) 
 treatment of cell esds is used for estimating esds involving l.s. planes. 
; 
 
loop_ 
 _geom_bond_atom_site_label_1 
 _geom_bond_atom_site_label_2 
 _geom_bond_distance 
 _geom_bond_site_symmetry_2 
 _geom_bond_publ_flag 
Si1 C35 1.80(2) . ? 
Si1 C26 1.812(15) . ? 
Si1 C31 1.85(3) . ? 
Si1 C27 1.89(4) . ? 
Si2 C45 1.81(3) . ? 
Si2 C49 1.82(3) . ? 
Si2 C40 1.835(14) . ? 
Si2 C41 1.89(3) . ? 
C1 C24 1.369(18) . ? 
C1 C2 1.440(18) . ? 
C1 C25 1.463(17) . ? 
C2 C3 1.338(18) . ? 
C2 C14 1.453(17) . ? 
C3 C4 1.415(18) . ? 
C3 H3 0.9500 . ? 
C4 C12 1.427(18) . ? 
C4 C5 1.441(19) . ? 
C5 C6 1.345(17) . ? 
C5 H5 0.9500 . ? 
C6 C10 1.400(15) . ? 
C6 S7 1.697(11) . ? 
S7 C8 1.854(18) . ? 
C8 C9 1.05(2) . ? 
C8 H8 0.9500 . ? 
C9 C10 1.52(2) . ? 
C9 H9 0.9500 . ? 
C10 C11 1.336(17) . ? 
C7' C8' 1.05(2) . ? 
C7' H7' 0.9500 . ? 
C8' S9' 1.851(18) . ? 
C8' H8' 0.9500 . ? 
C11 C12 1.46(2) . ? 
C11 H11 0.9500 . ? 
C12 C13 1.323(19) . ? 
C13 C14 1.418(18) . ? 
C13 H13 0.9500 . ? 
C14 C15 1.407(19) . ? 
C15 C39 1.429(17) . ? 
C15 C16 1.436(18) . ? 
C16 C17 1.381(18) . ? 
C16 C24 1.446(17) . ? 
C17 C18 1.386(16) . ? 
C17 H17 0.9500 . ? 
C18 C22 1.401(14) . ? 
C18 S19 1.703(11) . ? 
S19 C20 1.846(17) . ? 
C20 C21 1.05(2) . ? 
C20 H20 0.9500 . ? 
C21 C22 1.52(2) . ? 
C21 H21 0.9500 . ? 
C22 C23 1.345(16) . ? 
C19' C20' 1.05(2) . ? 
C19' H19' 0.9500 . ? 
C20' S21' 1.851(18) . ? 
C20' H20' 0.9500 . ? 
C23 C24 1.443(18) . ? 
C23 H23 0.9500 . ? 
C25 C26 1.199(17) . ? 
C27 C28 1.38(5) . ? 
C27 C30 1.58(4) . ? 
C27 H27 1.0000 . ? 
C28 C29 1.23(4) . ? 
C28 H28A 0.9900 . ? 
C28 H28B 0.9900 . ? 
C29 H29A 0.9800 . ? 
C29 H29B 0.9800 . ? 
C29 H29C 0.9800 . ? 
C30 H30A 0.9800 . ? 
C30 H30B 0.9800 . ? 
C30 H30C 0.9800 . ? 
C31 C34 1.29(4) . ? 
C31 C32 1.54(4) . ? 
C31 H31 1.0000 . ? 
C32 H32A 0.9800 . ? 
C32 H32B 0.9800 . ? 
C32 H32C 0.9800 . ? 
C33 C34 1.52(4) . ? 
C33 H33A 0.9800 . ? 
C33 H33B 0.9800 . ? 
C33 H33C 0.9800 . ? 
C34 H34A 0.9900 . ? 
C34 H34B 0.9900 . ? 
C35 C36 1.30(3) . ? 
C35 C38 1.52(3) . ? 
C35 H35 1.0000 . ? 
C36 C37 1.46(3) . ? 
C36 H36A 0.9900 . ? 
C36 H36B 0.9900 . ? 
C37 H37A 0.9800 . ? 
C37 H37B 0.9800 . ? 
C37 H37C 0.9800 . ? 
C38 H38A 0.9800 . ? 
C38 H38B 0.9800 . ? 
C38 H38C 0.9800 . ? 
C39 C40 1.221(17) . ? 
C41 C42 1.62(4) . ? 
C41 C44 1.81(6) . ? 
C41 H41 1.0000 . ? 
C42 C43 1.29(3) . ? 
C42 H42A 0.9900 . ? 
C42 H42B 0.9900 . ? 
C43 H43A 0.9800 . ? 
C43 H43B 0.9800 . ? 
C43 H43C 0.9800 . ? 
C44 H44A 0.9800 . ? 
C44 H44B 0.9800 . ? 
C44 H44C 0.9800 . ? 
C45 C46 1.38(3) . ? 
C45 C48 1.47(4) . ? 
C45 H45 1.0000 . ? 
C46 C47 1.53(4) . ? 
C46 H46A 0.9900 . ? 
C46 H46B 0.9900 . ? 
C47 H47A 0.9800 . ? 
C47 H47B 0.9800 . ? 
C47 H47C 0.9800 . ? 
C48 H48A 0.9800 . ? 
C48 H48B 0.9800 . ? 
C48 H48C 0.9800 . ? 
C49 C50 1.21(3) . ? 
C49 C52 1.51(3) . ? 
C49 H49 1.0000 . ? 
C50 C51 1.41(4) . ? 
C50 H50A 0.9900 . ? 
C50 H50B 0.9900 . ? 
C51 H51A 0.9800 . ? 
C51 H51B 0.9800 . ? 
C51 H51C 0.9800 . ? 
C52 H52A 0.9800 . ? 
C52 H52B 0.9800 . ? 
C52 H52C 0.9800 . ? 
 
loop_ 
 _geom_angle_atom_site_label_1 
 _geom_angle_atom_site_label_2 
 _geom_angle_atom_site_label_3 
 _geom_angle 
 _geom_angle_site_symmetry_1 
 _geom_angle_site_symmetry_3 
 _geom_angle_publ_flag 
C35 Si1 C26 109.6(9) . . ? 
C35 Si1 C31 107(2) . . ? 
C26 Si1 C31 107.7(11) . . ? 
C35 Si1 C27 113.8(18) . . ? 
C26 Si1 C27 103.1(13) . . ? 
C31 Si1 C27 116(2) . . ? 
C45 Si2 C49 110(2) . . ? 
C45 Si2 C40 109.8(11) . . ? 
C49 Si2 C40 108.7(9) . . ? 
C45 Si2 C41 113.2(18) . . ? 
C49 Si2 C41 110(2) . . ? 
C40 Si2 C41 105.1(11) . . ? 
C24 C1 C2 123.5(11) . . ? 
C24 C1 C25 120.2(12) . . ? 
C2 C1 C25 116.2(12) . . ? 
C3 C2 C1 124.6(11) . . ? 
C3 C2 C14 119.1(12) . . ? 
C1 C2 C14 116.2(12) . . ? 
C2 C3 C4 125.2(12) . . ? 
C2 C3 H3 117.4 . . ? 
C4 C3 H3 117.4 . . ? 
C3 C4 C12 114.6(12) . . ? 
C3 C4 C5 122.8(12) . . ? 
C12 C4 C5 122.6(13) . . ? 
C6 C5 C4 117.1(13) . . ? 
C6 C5 H5 121.5 . . ? 
C4 C5 H5 121.5 . . ? 
C5 C6 C10 122.9(9) . . ? 
C5 C6 S7 119.8(10) . . ? 
C10 C6 S7 117.3(6) . . ? 
C6 S7 C8 87.3(7) . . ? 
C9 C8 S7 106.4(18) . . ? 
C9 C8 H8 126.8 . . ? 
S7 C8 H8 126.8 . . ? 
C8 C9 C10 129(2) . . ? 
C8 C9 H9 115.3 . . ? 
C10 C9 H9 115.3 . . ? 
C11 C10 C6 120.9(9) . . ? 
C11 C10 C9 141.5(13) . . ? 
C6 C10 C9 97.0(10) . . ? 
C8' C7' H7' 115.2 . . ? 
C7' C8' S9' 106.8(17) . . ? 
C7' C8' H8' 126.6 . . ? 
S9' C8' H8' 126.6 . . ? 
C10 C11 C12 121.8(13) . . ? 
C10 C11 H11 119.1 . . ? 
C12 C11 H11 119.1 . . ? 
C13 C12 C4 121.9(13) . . ? 
C13 C12 C11 123.4(13) . . ? 
C4 C12 C11 114.7(13) . . ? 
C12 C13 C14 123.7(12) . . ? 
C12 C13 H13 118.2 . . ? 
C14 C13 H13 118.2 . . ? 
C15 C14 C13 125.4(12) . . ? 
C15 C14 C2 119.0(12) . . ? 
C13 C14 C2 115.6(12) . . ? 
C14 C15 C39 115.3(12) . . ? 
C14 C15 C16 124.6(11) . . ? 
C39 C15 C16 120.0(12) . . ? 
C17 C16 C15 123.0(11) . . ? 
C17 C16 C24 122.3(12) . . ? 
C15 C16 C24 114.7(12) . . ? 
C16 C17 C18 120.2(11) . . ? 
C16 C17 H17 119.9 . . ? 
C18 C17 H17 119.9 . . ? 
C17 C18 C22 120.4(8) . . ? 
C17 C18 S19 124.8(9) . . ? 
C22 C18 S19 114.8(5) . . ? 
C18 S19 C20 89.0(6) . . ? 
C21 C20 S19 106.6(16) . . ? 
C21 C20 H20 126.7 . . ? 
S19 C20 H20 126.7 . . ? 
C20 C21 C22 130(2) . . ? 
C20 C21 H21 115.0 . . ? 
C22 C21 H21 115.0 . . ? 
C23 C22 C18 119.1(8) . . ? 
C23 C22 C21 141.3(12) . . ? 
C18 C22 C21 99.6(9) . . ? 
C20' C19' H19' 115.6 . . ? 
C19' C20' S21' 106.0(18) . . ? 
C19' C20' H20' 127.0 . . ? 
S21' C20' H20' 127.0 . . ? 
C22 C23 C24 124.8(12) . . ? 
C22 C23 H23 117.6 . . ? 
C24 C23 H23 117.6 . . ? 
C1 C24 C23 124.9(11) . . ? 
C1 C24 C16 121.8(12) . . ? 
C23 C24 C16 113.2(12) . . ? 
C26 C25 C1 176.1(16) . . ? 
C25 C26 Si1 176.8(14) . . ? 
C28 C27 C30 114(3) . . ? 
C28 C27 Si1 127(3) . . ? 
C30 C27 Si1 108(3) . . ? 
C28 C27 H27 101.4 . . ? 
C30 C27 H27 101.4 . . ? 
Si1 C27 H27 101.4 . . ? 
C29 C28 C27 140(5) . . ? 
C29 C28 H28A 102.0 . . ? 
C27 C28 H28A 102.0 . . ? 
C29 C28 H28B 102.0 . . ? 
C27 C28 H28B 102.0 . . ? 
H28A C28 H28B 104.8 . . ? 
C28 C29 H29A 109.5 . . ? 
C28 C29 H29B 109.5 . . ? 
H29A C29 H29B 109.5 . . ? 
C28 C29 H29C 109.5 . . ? 
H29A C29 H29C 109.5 . . ? 
H29B C29 H29C 109.5 . . ? 
C27 C30 H30A 109.5 . . ? 
C27 C30 H30B 109.5 . . ? 
H30A C30 H30B 109.5 . . ? 
C27 C30 H30C 109.5 . . ? 
H30A C30 H30C 109.5 . . ? 
H30B C30 H30C 109.5 . . ? 
C34 C31 C32 111(3) . . ? 
C34 C31 Si1 125(2) . . ? 
C32 C31 Si1 123(3) . . ? 
C34 C31 H31 92.2 . . ? 
C32 C31 H31 92.2 . . ? 
Si1 C31 H31 92.2 . . ? 
C31 C32 H32A 109.5 . . ? 
C31 C32 H32B 109.5 . . ? 
H32A C32 H32B 109.5 . . ? 
C31 C32 H32C 109.5 . . ? 
H32A C32 H32C 109.5 . . ? 
H32B C32 H32C 109.5 . . ? 
C34 C33 H33A 109.5 . . ? 
C34 C33 H33B 109.5 . . ? 
H33A C33 H33B 109.5 . . ? 
C34 C33 H33C 109.5 . . ? 
H33A C33 H33C 109.5 . . ? 
H33B C33 H33C 109.5 . . ? 
C31 C34 C33 133(3) . . ? 
C31 C34 H34A 104.1 . . ? 
C33 C34 H34A 104.1 . . ? 
C31 C34 H34B 104.1 . . ? 
C33 C34 H34B 104.1 . . ? 
H34A C34 H34B 105.5 . . ? 
C36 C35 C38 120(2) . . ? 
C36 C35 Si1 126.5(19) . . ? 
C38 C35 Si1 108.9(18) . . ? 
C36 C35 H35 97.0 . . ? 
C38 C35 H35 97.0 . . ? 
Si1 C35 H35 97.0 . . ? 
C35 C36 C37 130(3) . . ? 
C35 C36 H36A 104.9 . . ? 
C37 C36 H36A 104.9 . . ? 
C35 C36 H36B 104.9 . . ? 
C37 C36 H36B 104.9 . . ? 
H36A C36 H36B 105.8 . . ? 
C36 C37 H37A 109.5 . . ? 
C36 C37 H37B 109.5 . . ? 
H37A C37 H37B 109.5 . . ? 
C36 C37 H37C 109.5 . . ? 
H37A C37 H37C 109.5 . . ? 
H37B C37 H37C 109.5 . . ? 
C35 C38 H38A 109.5 . . ? 
C35 C38 H38B 109.5 . . ? 
H38A C38 H38B 109.5 . . ? 
C35 C38 H38C 109.5 . . ? 
H38A C38 H38C 109.5 . . ? 
H38B C38 H38C 109.5 . . ? 
C40 C39 C15 179.7(18) . . ? 
C39 C40 Si2 170.5(14) . . ? 
C42 C41 C44 103(3) . . ? 
C42 C41 Si2 116(2) . . ? 
C44 C41 Si2 103(2) . . ? 
C42 C41 H41 111.4 . . ? 
C44 C41 H41 111.4 . . ? 
Si2 C41 H41 111.4 . . ? 
C43 C42 C41 123(3) . . ? 
C43 C42 H42A 106.5 . . ? 
C41 C42 H42A 106.5 . . ? 
C43 C42 H42B 106.5 . . ? 
C41 C42 H42B 106.5 . . ? 
H42A C42 H42B 106.5 . . ? 
C42 C43 H43A 109.5 . . ? 
C42 C43 H43B 109.5 . . ? 
H43A C43 H43B 109.5 . . ? 
C42 C43 H43C 109.5 . . ? 
H43A C43 H43C 109.5 . . ? 
H43B C43 H43C 109.5 . . ? 
C41 C44 H44A 109.5 . . ? 
C41 C44 H44B 109.5 . . ? 
H44A C44 H44B 109.5 . . ? 
C41 C44 H44C 109.5 . . ? 
H44A C44 H44C 109.5 . . ? 
H44B C44 H44C 109.5 . . ? 
C46 C45 C48 113(3) . . ? 
C46 C45 Si2 117(2) . . ? 
C48 C45 Si2 115(2) . . ? 
C46 C45 H45 103.4 . . ? 
C48 C45 H45 103.4 . . ? 
Si2 C45 H45 103.4 . . ? 
C45 C46 C47 118(3) . . ? 
C45 C46 H46A 107.8 . . ? 
C47 C46 H46A 107.8 . . ? 
C45 C46 H46B 107.8 . . ? 
C47 C46 H46B 107.8 . . ? 
H46A C46 H46B 107.2 . . ? 
C46 C47 H47A 109.5 . . ? 
C46 C47 H47B 109.5 . . ? 
H47A C47 H47B 109.5 . . ? 
C46 C47 H47C 109.5 . . ? 
H47A C47 H47C 109.5 . . ? 
H47B C47 H47C 109.5 . . ? 
C45 C48 H48A 109.5 . . ? 
C45 C48 H48B 109.5 . . ? 
H48A C48 H48B 109.5 . . ? 
C45 C48 H48C 109.5 . . ? 
H48A C48 H48C 109.5 . . ? 
H48B C48 H48C 109.5 . . ? 
C50 C49 C52 117(3) . . ? 
C50 C49 Si2 128(2) . . ? 
C52 C49 Si2 114(2) . . ? 
C50 C49 H49 92.1 . . ? 
C52 C49 H49 92.1 . . ? 
Si2 C49 H49 92.1 . . ? 
C49 C50 C51 132(3) . . ? 
C49 C50 H50A 104.1 . . ? 
C51 C50 H50A 104.1 . . ? 
C49 C50 H50B 104.1 . . ? 
C51 C50 H50B 104.1 . . ? 
H50A C50 H50B 105.5 . . ? 
C50 C51 H51A 109.5 . . ? 
C50 C51 H51B 109.5 . . ? 
H51A C51 H51B 109.5 . . ? 
C50 C51 H51C 109.5 . . ? 
H51A C51 H51C 109.5 . . ? 
H51B C51 H51C 109.5 . . ? 
C49 C52 H52A 109.5 . . ? 
C49 C52 H52B 109.5 . . ? 
H52A C52 H52B 109.5 . . ? 
C49 C52 H52C 109.5 . . ? 
H52A C52 H52C 109.5 . . ? 
H52B C52 H52C 109.5 . . ? 
 
loop_ 
 _geom_torsion_atom_site_label_1 
 _geom_torsion_atom_site_label_2 
 _geom_torsion_atom_site_label_3 
 _geom_torsion_atom_site_label_4 
 _geom_torsion 
 _geom_torsion_site_symmetry_1 
 _geom_torsion_site_symmetry_2 
 _geom_torsion_site_symmetry_3 
 _geom_torsion_site_symmetry_4 
 _geom_torsion_publ_flag 
C24 C1 C2 C3 180.0(12) . . . . ? 
C25 C1 C2 C3 -1.9(17) . . . . ? 
C24 C1 C2 C14 2.9(16) . . . . ? 
C25 C1 C2 C14 -179.0(10) . . . . ? 
C1 C2 C3 C4 -177.0(11) . . . . ? 
C14 C2 C3 C4 0.0(18) . . . . ? 
C2 C3 C4 C12 -1.6(17) . . . . ? 
C2 C3 C4 C5 -178.2(12) . . . . ? 
C3 C4 C5 C6 179.8(12) . . . . ? 
C12 C4 C5 C6 3.5(18) . . . . ? 
C4 C5 C6 C10 -3.3(19) . . . . ? 
C4 C5 C6 S7 177.6(10) . . . . ? 
C5 C6 S7 C8 179.6(19) . . . . ? 
C10 C6 S7 C8 0(2) . . . . ? 
C6 S7 C8 C9 9(4) . . . . ? 
S7 C8 C9 C10 -19(7) . . . . ? 
C5 C6 C10 C11 1(2) . . . . ? 
S7 C6 C10 C11 -179.9(12) . . . . ? 
C5 C6 C10 C9 174(2) . . . . ? 
S7 C6 C10 C9 -7(2) . . . . ? 
C8 C9 C10 C11 -171(5) . . . . ? 
C8 C9 C10 C6 19(6) . . . . ? 
C6 C10 C11 C12 1(2) . . . . ? 
C9 C10 C11 C12 -167(3) . . . . ? 
C3 C4 C12 C13 1.6(17) . . . . ? 
C5 C4 C12 C13 178.2(12) . . . . ? 
C3 C4 C12 C11 -178.0(10) . . . . ? 
C5 C4 C12 C11 -1.4(17) . . . . ? 
C10 C11 C12 C13 179.4(14) . . . . ? 
C10 C11 C12 C4 -1.0(18) . . . . ? 
C4 C12 C13 C14 0.0(19) . . . . ? 
C11 C12 C13 C14 179.5(12) . . . . ? 
C12 C13 C14 C15 177.0(13) . . . . ? 
C12 C13 C14 C2 -1.6(18) . . . . ? 
C3 C2 C14 C15 -177.1(11) . . . . ? 
C1 C2 C14 C15 0.2(16) . . . . ? 
C3 C2 C14 C13 1.5(16) . . . . ? 
C1 C2 C14 C13 178.8(10) . . . . ? 
C13 C14 C15 C39 -3.4(19) . . . . ? 
C2 C14 C15 C39 175.1(11) . . . . ? 
C13 C14 C15 C16 179.2(11) . . . . ? 
C2 C14 C15 C16 -2.3(18) . . . . ? 
C14 C15 C16 C17 179.7(12) . . . . ? 
C39 C15 C16 C17 2.4(18) . . . . ? 
C14 C15 C16 C24 1.5(17) . . . . ? 
C39 C15 C16 C24 -175.8(11) . . . . ? 
C15 C16 C17 C18 -178.7(11) . . . . ? 
C24 C16 C17 C18 -0.6(18) . . . . ? 
C16 C17 C18 C22 2.1(18) . . . . ? 
C16 C17 C18 S19 -179.2(10) . . . . ? 
C17 C18 S19 C20 -179.4(13) . . . . ? 
C22 C18 S19 C20 -0.6(12) . . . . ? 
C18 S19 C20 C21 1(3) . . . . ? 
S19 C20 C21 C22 -1(4) . . . . ? 
C17 C18 C22 C23 -2.4(18) . . . . ? 
S19 C18 C22 C23 178.8(10) . . . . ? 
C17 C18 C22 C21 179.0(16) . . . . ? 
S19 C18 C22 C21 0.2(16) . . . . ? 
C20 C21 C22 C23 -177(3) . . . . ? 
C20 C21 C22 C18 1(4) . . . . ? 
C18 C22 C23 C24 1.2(19) . . . . ? 
C21 C22 C23 C24 179(2) . . . . ? 
C2 C1 C24 C23 -179.5(11) . . . . ? 
C25 C1 C24 C23 2.4(18) . . . . ? 
C2 C1 C24 C16 -3.9(17) . . . . ? 
C25 C1 C24 C16 178.1(11) . . . . ? 
C22 C23 C24 C1 176.2(12) . . . . ? 
C22 C23 C24 C16 0.2(17) . . . . ? 
C17 C16 C24 C1 -176.7(11) . . . . ? 
C15 C16 C24 C1 1.6(16) . . . . ? 
C17 C16 C24 C23 -0.5(16) . . . . ? 
C15 C16 C24 C23 177.7(10) . . . . ? 
C24 C1 C25 C26 -24(21) . . . . ? 
C2 C1 C25 C26 158(20) . . . . ? 
C1 C25 C26 Si1 123(25) . . . . ? 
C35 Si1 C26 C25 10(27) . . . . ? 
C31 Si1 C26 C25 126(27) . . . . ? 
C27 Si1 C26 C25 -111(27) . . . . ? 
C35 Si1 C27 C28 -78(4) . . . . ? 
C26 Si1 C27 C28 41(4) . . . . ? 
C31 Si1 C27 C28 158(4) . . . . ? 
C35 Si1 C27 C30 62(3) . . . . ? 
C26 Si1 C27 C30 -179(3) . . . . ? 
C31 Si1 C27 C30 -62(3) . . . . ? 
C30 C27 C28 C29 44(9) . . . . ? 
Si1 C27 C28 C29 -178(4) . . . . ? 
C35 Si1 C31 C34 117(5) . . . . ? 
C26 Si1 C31 C34 -1(6) . . . . ? 
C27 Si1 C31 C34 -115(6) . . . . ? 
C35 Si1 C31 C32 -55(5) . . . . ? 
C26 Si1 C31 C32 -172(4) . . . . ? 
C27 Si1 C31 C32 73(5) . . . . ? 
C32 C31 C34 C33 -22(10) . . . . ? 
Si1 C31 C34 C33 165(5) . . . . ? 
C26 Si1 C35 C36 26(5) . . . . ? 
C31 Si1 C35 C36 -91(4) . . . . ? 
C27 Si1 C35 C36 140(4) . . . . ? 
C26 Si1 C35 C38 -178(2) . . . . ? 
C31 Si1 C35 C38 66(3) . . . . ? 
C27 Si1 C35 C38 -63(3) . . . . ? 
C38 C35 C36 C37 38(7) . . . . ? 
Si1 C35 C36 C37 -168(3) . . . . ? 
C14 C15 C39 C40 -59(100) . . . . ? 
C16 C15 C39 C40 119(100) . . . . ? 
C15 C39 C40 Si2 6(100) . . . . ? 
C45 Si2 C40 C39 -142(9) . . . . ? 
C49 Si2 C40 C39 97(9) . . . . ? 
C41 Si2 C40 C39 -20(9) . . . . ? 
C45 Si2 C41 C42 169(3) . . . . ? 
C49 Si2 C41 C42 -68(3) . . . . ? 
C40 Si2 C41 C42 49(3) . . . . ? 
C45 Si2 C41 C44 57(2) . . . . ? 
C49 Si2 C41 C44 -179(2) . . . . ? 
C40 Si2 C41 C44 -63(2) . . . . ? 
C44 C41 C42 C43 -87(5) . . . . ? 
Si2 C41 C42 C43 161(4) . . . . ? 
C49 Si2 C45 C46 -66(4) . . . . ? 
C40 Si2 C45 C46 174(3) . . . . ? 
C41 Si2 C45 C46 57(4) . . . . ? 
C49 Si2 C45 C48 69(3) . . . . ? 
C40 Si2 C45 C48 -50(3) . . . . ? 
C41 Si2 C45 C48 -167(3) . . . . ? 
C48 C45 C46 C47 58(5) . . . . ? 
Si2 C45 C46 C47 -166(3) . . . . ? 
C45 Si2 C49 C50 -97(6) . . . . ? 
C40 Si2 C49 C50 23(6) . . . . ? 
C41 Si2 C49 C50 138(6) . . . . ? 
C45 Si2 C49 C52 75(4) . . . . ? 
C40 Si2 C49 C52 -164(3) . . . . ? 
C41 Si2 C49 C52 -50(4) . . . . ? 
C52 C49 C50 C51 -1(11) . . . . ? 
Si2 C49 C50 C51 171(5) . . . . ? 
 
_diffrn_measured_fraction_theta_max    0.996 
_diffrn_reflns_theta_full              56.60 
_diffrn_measured_fraction_theta_full   0.996 
_refine_diff_density_max    1.045 
_refine_diff_density_min   -0.859 
_refine_diff_density_rms    0.135 
