 
data_k08173 
 
_audit_creation_method            SHELXL-97 
_chemical_name_systematic 
; 
 ? 
; 
_chemical_name_common             ? 
_chemical_melting_point           ? 
_chemical_formula_moiety 
 'C52 H66 Si2' 
_chemical_formula_sum 
 'C52 H66 Si2' 
_chemical_formula_weight          747.23 
 
loop_ 
 _atom_type_symbol 
 _atom_type_description 
 _atom_type_scat_dispersion_real 
 _atom_type_scat_dispersion_imag 
 _atom_type_scat_source 
 'C'  'C'   0.0033   0.0016 
 'International Tables Vol C Tables 4.2.6.8 and 6.1.1.4' 
 'H'  'H'   0.0000   0.0000 
 'International Tables Vol C Tables 4.2.6.8 and 6.1.1.4' 
 'Si'  'Si'   0.0817   0.0704 
 'International Tables Vol C Tables 4.2.6.8 and 6.1.1.4' 
 
_symmetry_cell_setting            orthorhombic
_symmetry_space_group_name_H-M    'P n a 21'
_symmetry_space_group_name_Hall   'P 2c -2n' 
 
loop_ 
 _symmetry_equiv_pos_as_xyz 
 'x, y, z' 
 '-x, -y, z+1/2' 
 '-x+1/2, y+1/2, z+1/2' 
 'x+1/2, -y+1/2, z' 
 
_cell_length_a                    15.9151(1) 
_cell_length_b                    10.2858(2) 
_cell_length_c                    27.0306(3) 
_cell_angle_alpha                 90.00 
_cell_angle_beta                  90.00 
_cell_angle_gamma                 90.00 
_cell_volume                      4424.9(1) 
_cell_formula_units_Z             4 
_cell_measurement_temperature     90.0(2) 
_cell_measurement_reflns_used     5058
_cell_measurement_theta_min       1.00
_cell_measurement_theta_max       26.37
 
_exptl_crystal_description        plate
_exptl_crystal_colour             blue
_exptl_crystal_size_max           0.30 
_exptl_crystal_size_mid           0.25 
_exptl_crystal_size_min           0.06 
_exptl_crystal_density_meas       ? 
_exptl_crystal_density_diffrn     1.122 
_exptl_crystal_density_method     'not measured' 
_exptl_crystal_F_000              1624 
_exptl_absorpt_coefficient_mu     0.114 
_exptl_absorpt_correction_type    multi-scan 
_exptl_absorpt_correction_T_min   0.967
_exptl_absorpt_correction_T_max   0.993 
_exptl_absorpt_process_details    'Scalepack (Otwinowski & Minor, 1997)' 
 
_exptl_special_details 
; 
 ? 
; 
 
_diffrn_ambient_temperature       90.0(2) 
_diffrn_radiation_wavelength      0.71073 
_diffrn_radiation_type            MoK\a 
_diffrn_radiation_source          'fine-focus sealed tube'    
_diffrn_radiation_monochromator   'graphite'                 
_diffrn_measurement_device_type   'Nonius KappaCCD diffractometer'  
_diffrn_measurement_method        '\w scans at fixed \c = 55\%'
_diffrn_detector_area_resol_mean  18
_diffrn_standards_number          0 
_diffrn_standards_interval_count  . 
_diffrn_standards_interval_time   . 
_diffrn_standards_decay_%         ? 
_diffrn_reflns_number             82286
_diffrn_reflns_av_R_equivalents   0.066 
_diffrn_reflns_av_sigmaI/netI     0.0357 
_diffrn_reflns_limit_h_min        -19 
_diffrn_reflns_limit_h_max        19 
_diffrn_reflns_limit_k_min        -12 
_diffrn_reflns_limit_k_max        12 
_diffrn_reflns_limit_l_min        -33 
_diffrn_reflns_limit_l_max        33 
_diffrn_reflns_theta_min          1.51 
_diffrn_reflns_theta_max          26.00 
_reflns_number_total              8297 
_reflns_number_gt                 7248 
_reflns_threshold_expression      >2\s(I)    
 
_computing_data_collection        'COLLECT (Nonius, 1998)'
_computing_cell_refinement        'SCALEPACK (Otwinowski & Minor, 1997)'
_computing_data_reduction         'DENZO-SMN (Otwinowski & Minor, 1997)'
_computing_structure_solution     'SHELXS-97 (Sheldrick, 2008)' 
_computing_structure_refinement   'SHELXL-97 (Sheldrick, 2008)' 
_computing_molecular_graphics     'XP in SHELXTL (Sheldrick, 2008)'
_computing_publication_material
; 
SHELX97-2 (Sheldrick, 2008) and local procedures 
;

_publ_section_exptl_refinement
;
H atoms were found in difference Fourier maps and subsequently placed in
idealized positions with constrained C-H distances of 0.98 \%A (RCH~3~),
0.99 \%A (R~2~CH~2~), 1.00 \%A (R~3~CH) and 0.95 \%A (C~Ar~H) with 
U~iso~(H) values set to either 1.5U~eq~ (RCH~3~ only) or 1.2U~eq~ of the 
attached atom.
; 
 
_refine_special_details 
; 
 Refinement of F^2^ against ALL reflections.  The weighted R-factor wR and 
 goodness of fit S are based on F^2^, conventional R-factors R are based 
 on F, with F set to zero for negative F^2^. The threshold expression of 
 F^2^ > 2\s(F^2^) is used only for calculating R-factors(gt) etc. and is 
 not relevant to the choice of reflections for refinement.  R-factors based 
 on F^2^ are statistically about twice as large as those based on F, and R- 
 factors based on ALL data will be even larger. 
; 
 
_refine_ls_structure_factor_coef  Fsqd  
_refine_ls_matrix_type            full 
_refine_ls_weighting_scheme       calc  
_refine_ls_weighting_details 
 'calc w=1/[\s^2^(Fo^2^)+(0.0644P)^2^+0.4718P] where P=(Fo^2^+2Fc^2^)/3' 
_atom_sites_solution_primary      direct 
_atom_sites_solution_secondary    difmap 
_atom_sites_solution_hydrogens    geom 
_refine_ls_hydrogen_treatment     constr 
_refine_ls_extinction_method      SHELXL 
_refine_ls_extinction_coef        0.0033(5) 
_refine_ls_extinction_expression 
 'Fc^*^=kFc[1+0.001xFc^2^\l^3^/sin(2\q)]^-1/4^' 
# The structure is an inversion twin.  Refined twin fraction was 0.50(8)
# so it was fixed at 0.5 for the final cycles of refinement.  Friedel
# pairs were not merged because the unmerged data contain information
# that the merged data do not, namely the ability to tell that this is
# an inversion twin.
_refine_ls_number_reflns          8297 
_refine_ls_number_parameters      496 
_refine_ls_number_restraints      1 
_refine_ls_R_factor_all           0.0539 
_refine_ls_R_factor_gt            0.0409 
_refine_ls_wR_factor_ref          0.1072 
_refine_ls_wR_factor_gt           0.0967 
_refine_ls_goodness_of_fit_ref    1.082 
_refine_ls_restrained_S_all       1.082 
_refine_ls_shift/su_max           0.001 
_refine_ls_shift/su_mean          0.000 
 
loop_ 
 _atom_site_label 
 _atom_site_type_symbol 
 _atom_site_fract_x 
 _atom_site_fract_y 
 _atom_site_fract_z 
 _atom_site_U_iso_or_equiv 
 _atom_site_adp_type 
 _atom_site_occupancy 
 _atom_site_symmetry_multiplicity 
 _atom_site_calc_flag 
 _atom_site_refinement_flags 
 _atom_site_disorder_assembly 
 _atom_site_disorder_group 
Si1 Si 0.22909(4) 0.04828(6) 0.34546(2) 0.02074(14) Uani 1 1 d . . . 
Si2 Si 0.56827(4) 0.98325(5) 0.19018(2) 0.01957(14) Uani 1 1 d . . . 
C1 C 0.35943(13) 0.3953(2) 0.28047(8) 0.0205(5) Uani 1 1 d . . . 
C2 C 0.36128(13) 0.4170(2) 0.22867(8) 0.0196(5) Uani 1 1 d . . . 
C3 C 0.32596(13) 0.3276(2) 0.19494(9) 0.0219(5) Uani 1 1 d . . . 
H3 H 0.3007 0.2505 0.2073 0.026 Uiso 1 1 calc R . . 
C4 C 0.32710(13) 0.3491(2) 0.14438(8) 0.0212(5) Uani 1 1 d . . . 
C5 C 0.28873(14) 0.2621(2) 0.10970(9) 0.0251(5) Uani 1 1 d . . . 
H5 H 0.2620 0.1856 0.1214 0.030 Uiso 1 1 calc R . . 
C6 C 0.28984(15) 0.2869(2) 0.06041(9) 0.0284(5) Uani 1 1 d . . . 
H6 H 0.2634 0.2281 0.0382 0.034 Uiso 1 1 calc R . . 
C7 C 0.33010(14) 0.3997(2) 0.04168(9) 0.0282(5) Uani 1 1 d . . . 
H7 H 0.3310 0.4155 0.0071 0.034 Uiso 1 1 calc R . . 
C8 C 0.36750(14) 0.4854(2) 0.07313(9) 0.0246(5) Uani 1 1 d . . . 
H8 H 0.3943 0.5606 0.0602 0.030 Uiso 1 1 calc R . . 
C9 C 0.36700(13) 0.4642(2) 0.12508(9) 0.0214(5) Uani 1 1 d . . . 
C10 C 0.40230(14) 0.5523(2) 0.15809(8) 0.0203(5) Uani 1 1 d . . . 
H10 H 0.4292 0.6277 0.1454 0.024 Uiso 1 1 calc R . . 
C11 C 0.39967(13) 0.5337(2) 0.20941(9) 0.0200(5) Uani 1 1 d . . . 
C12 C 0.43329(13) 0.6264(2) 0.24261(8) 0.0197(5) Uani 1 1 d . . . 
C13 C 0.43254(13) 0.6047(2) 0.29464(8) 0.0195(5) Uani 1 1 d . . . 
C14 C 0.46904(14) 0.6938(2) 0.32783(9) 0.0225(5) Uani 1 1 d . . . 
H14 H 0.4945 0.7704 0.3151 0.027 Uiso 1 1 calc R . . 
C15 C 0.46891(14) 0.6730(2) 0.37836(8) 0.0215(5) Uani 1 1 d . . . 
C16 C 0.50775(14) 0.7613(2) 0.41229(9) 0.0263(5) Uani 1 1 d . . . 
H16 H 0.5357 0.8362 0.4000 0.032 Uiso 1 1 calc R . . 
C17 C 0.50520(16) 0.7397(2) 0.46174(10) 0.0312(6) Uani 1 1 d . . . 
H17 H 0.5320 0.7988 0.4836 0.037 Uiso 1 1 calc R . . 
C18 C 0.46241(15) 0.6286(2) 0.48117(9) 0.0281(5) Uani 1 1 d . . . 
H18 H 0.4598 0.6158 0.5159 0.034 Uiso 1 1 calc R . . 
C19 C 0.42555(14) 0.5414(2) 0.45062(9) 0.0246(5) Uani 1 1 d . . . 
H19 H 0.3978 0.4680 0.4643 0.030 Uiso 1 1 calc R . . 
C20 C 0.42760(14) 0.5580(2) 0.39779(9) 0.0216(5) Uani 1 1 d . . . 
C21 C 0.39290(13) 0.4697(2) 0.36543(9) 0.0216(5) Uani 1 1 d . . . 
H21 H 0.3670 0.3938 0.3784 0.026 Uiso 1 1 calc R . . 
C22 C 0.39432(14) 0.4877(2) 0.31378(9) 0.0197(5) Uani 1 1 d . . . 
C23 C 0.32014(13) 0.2805(2) 0.30036(8) 0.0212(5) Uani 1 1 d . . . 
C24 C 0.28591(14) 0.1872(2) 0.31848(8) 0.0227(5) Uani 1 1 d . . . 
C25 C 0.13760(14) 0.1045(2) 0.38402(9) 0.0241(5) Uani 1 1 d . . . 
H25A H 0.0942 0.1378 0.3611 0.029 Uiso 1 1 calc R . . 
H25B H 0.1136 0.0269 0.4005 0.029 Uiso 1 1 calc R . . 
C26 C 0.15148(14) 0.2093(2) 0.42433(9) 0.0239(5) Uani 1 1 d . . . 
H26 H 0.2054 0.1885 0.4416 0.029 Uiso 1 1 calc R . . 
C27 C 0.08175(16) 0.2077(2) 0.46316(9) 0.0297(5) Uani 1 1 d . . . 
H27A H 0.0778 0.1196 0.4778 0.036 Uiso 1 1 calc R . . 
H27B H 0.0274 0.2275 0.4471 0.036 Uiso 1 1 calc R . . 
C28 C 0.09821(18) 0.3069(2) 0.50427(10) 0.0331(6) Uani 1 1 d . . . 
H28A H 0.0506 0.3063 0.5279 0.040 Uiso 1 1 calc R . . 
H28B H 0.1497 0.2822 0.5226 0.040 Uiso 1 1 calc R . . 
C29 C 0.10883(16) 0.4436(2) 0.48311(9) 0.0301(5) Uani 1 1 d . . . 
H29A H 0.0548 0.4732 0.4689 0.036 Uiso 1 1 calc R . . 
H29B H 0.1244 0.5042 0.5101 0.036 Uiso 1 1 calc R . . 
C30 C 0.17604(17) 0.4468(2) 0.44332(9) 0.0302(6) Uani 1 1 d . . . 
H30A H 0.2316 0.4299 0.4585 0.036 Uiso 1 1 calc R . . 
H30B H 0.1776 0.5344 0.4281 0.036 Uiso 1 1 calc R . . 
C31 C 0.15920(16) 0.3459(2) 0.40339(9) 0.0286(5) Uani 1 1 d . . . 
H31A H 0.1066 0.3686 0.3859 0.034 Uiso 1 1 calc R . . 
H31B H 0.2055 0.3479 0.3790 0.034 Uiso 1 1 calc R . . 
C32 C 0.30682(15) -0.0488(2) 0.38286(9) 0.0280(5) Uani 1 1 d . . . 
H32 H 0.3534 -0.0736 0.3599 0.034 Uiso 1 1 calc R . . 
C33 C 0.34702(19) 0.0260(3) 0.42577(12) 0.0467(7) Uani 1 1 d . . . 
H33A H 0.3047 0.0422 0.4514 0.070 Uiso 1 1 calc R . . 
H33B H 0.3690 0.1091 0.4136 0.070 Uiso 1 1 calc R . . 
H33C H 0.3931 -0.0254 0.4397 0.070 Uiso 1 1 calc R . . 
C34 C 0.26778(17) -0.1767(3) 0.40182(10) 0.0382(6) Uani 1 1 d . . . 
H34A H 0.3088 -0.2229 0.4223 0.057 Uiso 1 1 calc R . . 
H34B H 0.2519 -0.2312 0.3736 0.057 Uiso 1 1 calc R . . 
H34C H 0.2177 -0.1571 0.4216 0.057 Uiso 1 1 calc R . . 
C35 C 0.18947(15) -0.0501(2) 0.29173(9) 0.0262(5) Uani 1 1 d . . . 
H35 H 0.1527 -0.1203 0.3054 0.031 Uiso 1 1 calc R . . 
C36 C 0.26121(16) -0.1166(3) 0.26353(10) 0.0347(6) Uani 1 1 d . . . 
H36A H 0.2381 -0.1652 0.2355 0.052 Uiso 1 1 calc R . . 
H36B H 0.2908 -0.1764 0.2857 0.052 Uiso 1 1 calc R . . 
H36C H 0.3005 -0.0506 0.2514 0.052 Uiso 1 1 calc R . . 
C37 C 0.13577(15) 0.0307(2) 0.25602(9) 0.0292(6) Uani 1 1 d . . . 
H37A H 0.1695 0.1022 0.2426 0.044 Uiso 1 1 calc R . . 
H37B H 0.0872 0.0662 0.2738 0.044 Uiso 1 1 calc R . . 
H37C H 0.1162 -0.0246 0.2288 0.044 Uiso 1 1 calc R . . 
C38 C 0.47066(13) 0.7440(2) 0.22365(8) 0.0207(5) Uani 1 1 d . . . 
C39 C 0.50266(14) 0.8419(2) 0.20804(8) 0.0220(5) Uani 1 1 d . . . 
C40 C 0.66149(14) 0.9194(2) 0.15460(9) 0.0224(5) Uani 1 1 d . . . 
H40A H 0.6679 0.9726 0.1243 0.027 Uiso 1 1 calc R . . 
H40B H 0.7124 0.9330 0.1750 0.027 Uiso 1 1 calc R . . 
C41 C 0.65861(14) 0.7759(2) 0.13923(8) 0.0223(5) Uani 1 1 d . . . 
H41 H 0.6395 0.7244 0.1685 0.027 Uiso 1 1 calc R . . 
C42 C 0.59614(14) 0.7522(2) 0.09746(9) 0.0254(5) Uani 1 1 d . . . 
H42A H 0.6120 0.8060 0.0686 0.031 Uiso 1 1 calc R . . 
H42B H 0.5395 0.7797 0.1084 0.031 Uiso 1 1 calc R . . 
C43 C 0.59313(15) 0.6094(2) 0.08187(10) 0.0317(6) Uani 1 1 d . . . 
H43A H 0.5705 0.5565 0.1094 0.038 Uiso 1 1 calc R . . 
H43B H 0.5549 0.5997 0.0532 0.038 Uiso 1 1 calc R . . 
C44 C 0.67994(16) 0.5597(2) 0.06796(10) 0.0334(6) Uani 1 1 d . . . 
H44A H 0.6768 0.4655 0.0606 0.040 Uiso 1 1 calc R . . 
H44B H 0.6996 0.6049 0.0378 0.040 Uiso 1 1 calc R . . 
C45 C 0.74235(16) 0.5822(2) 0.10955(10) 0.0317(6) Uani 1 1 d . . . 
H45A H 0.7989 0.5537 0.0988 0.038 Uiso 1 1 calc R . . 
H45B H 0.7260 0.5293 0.1386 0.038 Uiso 1 1 calc R . . 
C46 C 0.74565(15) 0.7254(2) 0.12435(9) 0.0265(5) Uani 1 1 d . . . 
H46A H 0.7672 0.7773 0.0962 0.032 Uiso 1 1 calc R . . 
H46B H 0.7850 0.7362 0.1524 0.032 Uiso 1 1 calc R . . 
C47 C 0.50490(14) 1.1045(2) 0.15352(9) 0.0246(5) Uani 1 1 d . . . 
H47 H 0.4517 1.1212 0.1722 0.030 Uiso 1 1 calc R . . 
C48 C 0.48061(16) 1.0557(2) 0.10214(9) 0.0325(6) Uani 1 1 d . . . 
H48A H 0.4443 1.1199 0.0860 0.049 Uiso 1 1 calc R . . 
H48B H 0.4505 0.9730 0.1052 0.049 Uiso 1 1 calc R . . 
H48C H 0.5315 1.0429 0.0823 0.049 Uiso 1 1 calc R . . 
C49 C 0.55148(16) 1.2345(2) 0.14872(11) 0.0340(6) Uani 1 1 d . . . 
H49A H 0.6065 1.2198 0.1335 0.051 Uiso 1 1 calc R . . 
H49B H 0.5591 1.2728 0.1816 0.051 Uiso 1 1 calc R . . 
H49C H 0.5186 1.2939 0.1280 0.051 Uiso 1 1 calc R . . 
C50 C 0.60259(15) 1.0562(2) 0.25080(9) 0.0244(5) Uani 1 1 d . . . 
H50 H 0.6406 1.1309 0.2431 0.029 Uiso 1 1 calc R . . 
C51 C 0.52675(16) 1.1105(3) 0.27908(10) 0.0347(6) Uani 1 1 d . . . 
H51A H 0.4884 1.0394 0.2875 0.052 Uiso 1 1 calc R . . 
H51B H 0.4974 1.1741 0.2583 0.052 Uiso 1 1 calc R . . 
H51C H 0.5461 1.1529 0.3095 0.052 Uiso 1 1 calc R . . 
C52 C 0.65289(15) 0.9593(2) 0.28205(9) 0.0280(5) Uani 1 1 d . . . 
H52A H 0.6710 1.0014 0.3128 0.042 Uiso 1 1 calc R . . 
H52B H 0.7023 0.9304 0.2634 0.042 Uiso 1 1 calc R . . 
H52C H 0.6175 0.8841 0.2900 0.042 Uiso 1 1 calc R . . 
 
loop_ 
 _atom_site_aniso_label 
 _atom_site_aniso_U_11 
 _atom_site_aniso_U_22 
 _atom_site_aniso_U_33 
 _atom_site_aniso_U_23 
 _atom_site_aniso_U_13 
 _atom_site_aniso_U_12 
Si1 0.0237(3) 0.0170(3) 0.0214(3) 0.0015(3) 0.0027(3) -0.0018(2) 
Si2 0.0206(3) 0.0160(3) 0.0221(3) -0.0005(3) 0.0019(3) -0.0015(2) 
C1 0.0169(11) 0.0163(11) 0.0283(12) 0.0027(9) 0.0029(9) 0.0022(8) 
C2 0.0171(10) 0.0144(11) 0.0273(12) 0.0017(9) 0.0033(9) 0.0036(8) 
C3 0.0185(11) 0.0147(10) 0.0326(13) 0.0019(9) 0.0042(10) -0.0009(8) 
C4 0.0197(11) 0.0169(11) 0.0269(13) -0.0001(9) 0.0055(9) 0.0032(9) 
C5 0.0258(12) 0.0191(12) 0.0305(13) 0.0008(10) 0.0009(10) -0.0002(9) 
C6 0.0268(12) 0.0252(12) 0.0332(14) -0.0082(10) 0.0007(10) -0.0017(10) 
C7 0.0316(13) 0.0278(13) 0.0252(12) -0.0006(10) 0.0022(10) 0.0012(10) 
C8 0.0270(13) 0.0217(12) 0.0251(13) 0.0035(10) 0.0036(10) -0.0012(9) 
C9 0.0165(11) 0.0194(11) 0.0283(13) 0.0007(9) 0.0017(9) 0.0029(8) 
C10 0.0195(11) 0.0179(11) 0.0236(12) 0.0028(9) 0.0017(9) 0.0006(9) 
C11 0.0129(11) 0.0185(11) 0.0288(12) 0.0005(9) 0.0052(9) 0.0037(8) 
C12 0.0169(10) 0.0165(11) 0.0259(12) 0.0010(9) 0.0030(9) 0.0016(8) 
C13 0.0151(10) 0.0181(11) 0.0252(12) 0.0016(9) 0.0037(9) 0.0008(9) 
C14 0.0191(11) 0.0191(11) 0.0291(13) 0.0033(9) 0.0025(9) -0.0009(9) 
C15 0.0206(11) 0.0185(11) 0.0254(13) 0.0002(9) 0.0010(9) -0.0001(9) 
C16 0.0264(12) 0.0218(12) 0.0308(14) 0.0006(10) -0.0001(10) -0.0037(10) 
C17 0.0381(15) 0.0256(13) 0.0300(14) -0.0003(11) -0.0076(11) -0.0030(11) 
C18 0.0335(13) 0.0248(13) 0.0260(13) 0.0039(10) -0.0042(10) -0.0014(10) 
C19 0.0225(12) 0.0231(12) 0.0282(13) 0.0058(10) -0.0007(10) 0.0004(9) 
C20 0.0228(12) 0.0188(11) 0.0233(12) 0.0032(9) -0.0002(9) 0.0020(9) 
C21 0.0168(11) 0.0176(11) 0.0304(13) 0.0045(9) 0.0011(9) -0.0016(9) 
C22 0.0162(11) 0.0184(11) 0.0244(12) 0.0009(9) 0.0023(9) 0.0011(9) 
C23 0.0191(11) 0.0223(12) 0.0222(12) -0.0024(9) 0.0029(9) 0.0040(9) 
C24 0.0256(12) 0.0207(11) 0.0217(12) 0.0002(9) 0.0029(9) -0.0003(9) 
C25 0.0276(12) 0.0209(12) 0.0240(12) 0.0010(9) 0.0045(10) -0.0005(9) 
C26 0.0226(11) 0.0234(12) 0.0258(12) -0.0016(10) 0.0011(10) -0.0011(9) 
C27 0.0339(13) 0.0272(13) 0.0282(13) -0.0002(10) 0.0053(10) -0.0011(10) 
C28 0.0412(15) 0.0297(13) 0.0284(14) -0.0002(11) 0.0062(11) -0.0023(11) 
C29 0.0363(14) 0.0267(13) 0.0273(13) -0.0039(10) 0.0035(11) 0.0037(11) 
C30 0.0374(14) 0.0250(13) 0.0282(14) -0.0002(10) 0.0006(11) -0.0047(10) 
C31 0.0356(13) 0.0275(13) 0.0229(12) 0.0019(10) 0.0045(10) -0.0027(10) 
C32 0.0293(13) 0.0283(13) 0.0264(13) 0.0008(10) 0.0035(10) 0.0074(10) 
C33 0.0478(17) 0.0455(17) 0.0469(18) -0.0053(14) -0.0183(14) 0.0158(14) 
C34 0.0439(16) 0.0320(15) 0.0386(15) 0.0118(12) 0.0110(13) 0.0115(12) 
C35 0.0275(13) 0.0210(12) 0.0302(14) 0.0005(10) 0.0038(10) -0.0043(10) 
C36 0.0378(14) 0.0347(15) 0.0318(14) -0.0085(11) 0.0001(11) 0.0042(12) 
C37 0.0286(13) 0.0319(14) 0.0272(13) -0.0029(10) -0.0002(10) -0.0063(10) 
C38 0.0212(11) 0.0197(12) 0.0213(12) -0.0034(9) 0.0002(9) 0.0018(9) 
C39 0.0238(12) 0.0201(11) 0.0220(11) -0.0007(9) 0.0010(9) 0.0000(9) 
C40 0.0205(11) 0.0223(12) 0.0242(12) -0.0010(9) 0.0005(9) -0.0011(9) 
C41 0.0240(11) 0.0206(11) 0.0224(12) -0.0004(9) 0.0041(9) -0.0010(9) 
C42 0.0253(12) 0.0258(12) 0.0252(13) -0.0015(10) 0.0023(10) 0.0000(9) 
C43 0.0294(13) 0.0304(13) 0.0352(14) -0.0085(11) 0.0005(11) -0.0011(11) 
C44 0.0309(14) 0.0260(13) 0.0433(16) -0.0125(11) 0.0049(12) -0.0014(11) 
C45 0.0285(13) 0.0272(13) 0.0392(15) -0.0024(11) 0.0043(11) 0.0056(10) 
C46 0.0249(12) 0.0241(13) 0.0304(13) -0.0029(10) 0.0016(10) -0.0004(9) 
C47 0.0226(12) 0.0202(12) 0.0310(13) 0.0009(10) 0.0023(10) -0.0002(9) 
C48 0.0330(14) 0.0328(14) 0.0316(14) -0.0009(11) -0.0057(11) 0.0088(11) 
C49 0.0341(14) 0.0223(13) 0.0456(16) 0.0056(11) -0.0044(12) 0.0001(10) 
C50 0.0277(12) 0.0178(11) 0.0277(13) -0.0025(9) -0.0011(10) -0.0020(9) 
C51 0.0377(14) 0.0362(14) 0.0301(14) -0.0079(11) -0.0010(11) 0.0091(12) 
C52 0.0307(13) 0.0285(13) 0.0248(13) -0.0025(10) -0.0031(10) -0.0005(10) 
 
_geom_special_details 
; 
 All esds (except the esd in the dihedral angle between two l.s. planes) 
 are estimated using the full covariance matrix.  The cell esds are taken 
 into account individually in the estimation of esds in distances, angles 
 and torsion angles; correlations between esds in cell parameters are only 
 used when they are defined by crystal symmetry.  An approximate (isotropic) 
 treatment of cell esds is used for estimating esds involving l.s. planes. 
; 
 
loop_ 
 _geom_bond_atom_site_label_1 
 _geom_bond_atom_site_label_2 
 _geom_bond_distance 
 _geom_bond_site_symmetry_2 
 _geom_bond_publ_flag 
Si1 C24 1.841(2) . ? 
Si1 C35 1.879(2) . ? 
Si1 C25 1.882(2) . ? 
Si1 C32 1.884(2) . ? 
Si2 C39 1.854(2) . ? 
Si2 C50 1.883(2) . ? 
Si2 C47 1.885(2) . ? 
Si2 C40 1.886(2) . ? 
C1 C2 1.418(3) . ? 
C1 C22 1.422(3) . ? 
C1 C23 1.440(3) . ? 
C2 C3 1.411(3) . ? 
C2 C11 1.444(3) . ? 
C3 C4 1.385(3) . ? 
C3 H3 0.9500 . ? 
C4 C5 1.432(3) . ? 
C4 C9 1.442(3) . ? 
C5 C6 1.357(3) . ? 
C5 H5 0.9500 . ? 
C6 C7 1.419(3) . ? 
C6 H6 0.9500 . ? 
C7 C8 1.362(3) . ? 
C7 H7 0.9500 . ? 
C8 C9 1.421(3) . ? 
C8 H8 0.9500 . ? 
C9 C10 1.390(3) . ? 
C10 C11 1.401(3) . ? 
C10 H10 0.9500 . ? 
C11 C12 1.415(3) . ? 
C12 C13 1.424(3) . ? 
C12 C38 1.441(3) . ? 
C13 C14 1.408(3) . ? 
C13 C22 1.444(3) . ? 
C14 C15 1.382(3) . ? 
C14 H14 0.9500 . ? 
C15 C16 1.431(3) . ? 
C15 C20 1.452(3) . ? 
C16 C17 1.356(3) . ? 
C16 H16 0.9500 . ? 
C17 C18 1.431(3) . ? 
C17 H17 0.9500 . ? 
C18 C19 1.353(3) . ? 
C18 H18 0.9500 . ? 
C19 C20 1.439(3) . ? 
C19 H19 0.9500 . ? 
C20 C21 1.377(3) . ? 
C21 C22 1.409(3) . ? 
C21 H21 0.9500 . ? 
C23 C24 1.208(3) . ? 
C25 C26 1.549(3) . ? 
C25 H25A 0.9900 . ? 
C25 H25B 0.9900 . ? 
C26 C31 1.520(3) . ? 
C26 C27 1.527(3) . ? 
C26 H26 1.0000 . ? 
C27 C28 1.532(3) . ? 
C27 H27A 0.9900 . ? 
C27 H27B 0.9900 . ? 
C28 C29 1.528(3) . ? 
C28 H28A 0.9900 . ? 
C28 H28B 0.9900 . ? 
C29 C30 1.517(3) . ? 
C29 H29A 0.9900 . ? 
C29 H29B 0.9900 . ? 
C30 C31 1.521(3) . ? 
C30 H30A 0.9900 . ? 
C30 H30B 0.9900 . ? 
C31 H31A 0.9900 . ? 
C31 H31B 0.9900 . ? 
C32 C33 1.532(4) . ? 
C32 C34 1.542(4) . ? 
C32 H32 1.0000 . ? 
C33 H33A 0.9800 . ? 
C33 H33B 0.9800 . ? 
C33 H33C 0.9800 . ? 
C34 H34A 0.9800 . ? 
C34 H34B 0.9800 . ? 
C34 H34C 0.9800 . ? 
C35 C36 1.533(3) . ? 
C35 C37 1.534(3) . ? 
C35 H35 1.0000 . ? 
C36 H36A 0.9800 . ? 
C36 H36B 0.9800 . ? 
C36 H36C 0.9800 . ? 
C37 H37A 0.9800 . ? 
C37 H37B 0.9800 . ? 
C37 H37C 0.9800 . ? 
C38 C39 1.205(3) . ? 
C40 C41 1.535(3) . ? 
C40 H40A 0.9900 . ? 
C40 H40B 0.9900 . ? 
C41 C42 1.524(3) . ? 
C41 C46 1.533(3) . ? 
C41 H41 1.0000 . ? 
C42 C43 1.529(3) . ? 
C42 H42A 0.9900 . ? 
C42 H42B 0.9900 . ? 
C43 C44 1.520(3) . ? 
C43 H43A 0.9900 . ? 
C43 H43B 0.9900 . ? 
C44 C45 1.518(4) . ? 
C44 H44A 0.9900 . ? 
C44 H44B 0.9900 . ? 
C45 C46 1.527(3) . ? 
C45 H45A 0.9900 . ? 
C45 H45B 0.9900 . ? 
C46 H46A 0.9900 . ? 
C46 H46B 0.9900 . ? 
C47 C48 1.526(3) . ? 
C47 C49 1.535(3) . ? 
C47 H47 1.0000 . ? 
C48 H48A 0.9800 . ? 
C48 H48B 0.9800 . ? 
C48 H48C 0.9800 . ? 
C49 H49A 0.9800 . ? 
C49 H49B 0.9800 . ? 
C49 H49C 0.9800 . ? 
C50 C52 1.532(3) . ? 
C50 C51 1.534(3) . ? 
C50 H50 1.0000 . ? 
C51 H51A 0.9800 . ? 
C51 H51B 0.9800 . ? 
C51 H51C 0.9800 . ? 
C52 H52A 0.9800 . ? 
C52 H52B 0.9800 . ? 
C52 H52C 0.9800 . ? 
 
loop_ 
 _geom_angle_atom_site_label_1 
 _geom_angle_atom_site_label_2 
 _geom_angle_atom_site_label_3 
 _geom_angle 
 _geom_angle_site_symmetry_1 
 _geom_angle_site_symmetry_3 
 _geom_angle_publ_flag 
C24 Si1 C35 106.06(11) . . ? 
C24 Si1 C25 111.17(10) . . ? 
C35 Si1 C25 109.51(11) . . ? 
C24 Si1 C32 107.54(11) . . ? 
C35 Si1 C32 110.45(11) . . ? 
C25 Si1 C32 111.94(11) . . ? 
C39 Si2 C50 104.43(10) . . ? 
C39 Si2 C47 110.74(10) . . ? 
C50 Si2 C47 110.43(10) . . ? 
C39 Si2 C40 107.64(10) . . ? 
C50 Si2 C40 110.75(10) . . ? 
C47 Si2 C40 112.52(10) . . ? 
C2 C1 C22 120.80(19) . . ? 
C2 C1 C23 120.4(2) . . ? 
C22 C1 C23 118.8(2) . . ? 
C3 C2 C1 121.8(2) . . ? 
C3 C2 C11 118.5(2) . . ? 
C1 C2 C11 119.70(19) . . ? 
C4 C3 C2 121.9(2) . . ? 
C4 C3 H3 119.0 . . ? 
C2 C3 H3 119.0 . . ? 
C3 C4 C5 122.8(2) . . ? 
C3 C4 C9 119.6(2) . . ? 
C5 C4 C9 117.6(2) . . ? 
C6 C5 C4 121.3(2) . . ? 
C6 C5 H5 119.3 . . ? 
C4 C5 H5 119.3 . . ? 
C5 C6 C7 120.6(2) . . ? 
C5 C6 H6 119.7 . . ? 
C7 C6 H6 119.7 . . ? 
C8 C7 C6 120.3(2) . . ? 
C8 C7 H7 119.9 . . ? 
C6 C7 H7 119.9 . . ? 
C7 C8 C9 121.0(2) . . ? 
C7 C8 H8 119.5 . . ? 
C9 C8 H8 119.5 . . ? 
C10 C9 C8 122.1(2) . . ? 
C10 C9 C4 118.8(2) . . ? 
C8 C9 C4 119.1(2) . . ? 
C9 C10 C11 122.3(2) . . ? 
C9 C10 H10 118.8 . . ? 
C11 C10 H10 118.8 . . ? 
C10 C11 C12 121.7(2) . . ? 
C10 C11 C2 118.9(2) . . ? 
C12 C11 C2 119.5(2) . . ? 
C11 C12 C13 121.15(19) . . ? 
C11 C12 C38 119.7(2) . . ? 
C13 C12 C38 119.1(2) . . ? 
C14 C13 C12 121.58(19) . . ? 
C14 C13 C22 119.2(2) . . ? 
C12 C13 C22 119.2(2) . . ? 
C15 C14 C13 121.9(2) . . ? 
C15 C14 H14 119.0 . . ? 
C13 C14 H14 119.0 . . ? 
C14 C15 C16 122.3(2) . . ? 
C14 C15 C20 119.0(2) . . ? 
C16 C15 C20 118.7(2) . . ? 
C17 C16 C15 121.0(2) . . ? 
C17 C16 H16 119.5 . . ? 
C15 C16 H16 119.5 . . ? 
C16 C17 C18 120.5(2) . . ? 
C16 C17 H17 119.8 . . ? 
C18 C17 H17 119.8 . . ? 
C19 C18 C17 120.8(2) . . ? 
C19 C18 H18 119.6 . . ? 
C17 C18 H18 119.6 . . ? 
C18 C19 C20 121.2(2) . . ? 
C18 C19 H19 119.4 . . ? 
C20 C19 H19 119.4 . . ? 
C21 C20 C19 122.9(2) . . ? 
C21 C20 C15 119.3(2) . . ? 
C19 C20 C15 117.8(2) . . ? 
C20 C21 C22 122.5(2) . . ? 
C20 C21 H21 118.8 . . ? 
C22 C21 H21 118.8 . . ? 
C21 C22 C1 122.3(2) . . ? 
C21 C22 C13 118.1(2) . . ? 
C1 C22 C13 119.6(2) . . ? 
C24 C23 C1 177.5(2) . . ? 
C23 C24 Si1 177.4(2) . . ? 
C26 C25 Si1 119.55(16) . . ? 
C26 C25 H25A 107.4 . . ? 
Si1 C25 H25A 107.4 . . ? 
C26 C25 H25B 107.4 . . ? 
Si1 C25 H25B 107.4 . . ? 
H25A C25 H25B 107.0 . . ? 
C31 C26 C27 108.94(19) . . ? 
C31 C26 C25 113.14(19) . . ? 
C27 C26 C25 111.86(19) . . ? 
C31 C26 H26 107.6 . . ? 
C27 C26 H26 107.6 . . ? 
C25 C26 H26 107.6 . . ? 
C26 C27 C28 111.5(2) . . ? 
C26 C27 H27A 109.3 . . ? 
C28 C27 H27A 109.3 . . ? 
C26 C27 H27B 109.3 . . ? 
C28 C27 H27B 109.3 . . ? 
H27A C27 H27B 108.0 . . ? 
C29 C28 C27 111.2(2) . . ? 
C29 C28 H28A 109.4 . . ? 
C27 C28 H28A 109.4 . . ? 
C29 C28 H28B 109.4 . . ? 
C27 C28 H28B 109.4 . . ? 
H28A C28 H28B 108.0 . . ? 
C30 C29 C28 111.3(2) . . ? 
C30 C29 H29A 109.4 . . ? 
C28 C29 H29A 109.4 . . ? 
C30 C29 H29B 109.4 . . ? 
C28 C29 H29B 109.4 . . ? 
H29A C29 H29B 108.0 . . ? 
C29 C30 C31 111.4(2) . . ? 
C29 C30 H30A 109.4 . . ? 
C31 C30 H30A 109.4 . . ? 
C29 C30 H30B 109.4 . . ? 
C31 C30 H30B 109.4 . . ? 
H30A C30 H30B 108.0 . . ? 
C26 C31 C30 112.4(2) . . ? 
C26 C31 H31A 109.1 . . ? 
C30 C31 H31A 109.1 . . ? 
C26 C31 H31B 109.1 . . ? 
C30 C31 H31B 109.1 . . ? 
H31A C31 H31B 107.9 . . ? 
C33 C32 C34 110.2(2) . . ? 
C33 C32 Si1 114.46(17) . . ? 
C34 C32 Si1 111.46(17) . . ? 
C33 C32 H32 106.8 . . ? 
C34 C32 H32 106.8 . . ? 
Si1 C32 H32 106.8 . . ? 
C32 C33 H33A 109.5 . . ? 
C32 C33 H33B 109.5 . . ? 
H33A C33 H33B 109.5 . . ? 
C32 C33 H33C 109.5 . . ? 
H33A C33 H33C 109.5 . . ? 
H33B C33 H33C 109.5 . . ? 
C32 C34 H34A 109.5 . . ? 
C32 C34 H34B 109.5 . . ? 
H34A C34 H34B 109.5 . . ? 
C32 C34 H34C 109.5 . . ? 
H34A C34 H34C 109.5 . . ? 
H34B C34 H34C 109.5 . . ? 
C36 C35 C37 110.1(2) . . ? 
C36 C35 Si1 111.99(17) . . ? 
C37 C35 Si1 112.40(16) . . ? 
C36 C35 H35 107.4 . . ? 
C37 C35 H35 107.4 . . ? 
Si1 C35 H35 107.4 . . ? 
C35 C36 H36A 109.5 . . ? 
C35 C36 H36B 109.5 . . ? 
H36A C36 H36B 109.5 . . ? 
C35 C36 H36C 109.5 . . ? 
H36A C36 H36C 109.5 . . ? 
H36B C36 H36C 109.5 . . ? 
C35 C37 H37A 109.5 . . ? 
C35 C37 H37B 109.5 . . ? 
H37A C37 H37B 109.5 . . ? 
C35 C37 H37C 109.5 . . ? 
H37A C37 H37C 109.5 . . ? 
H37B C37 H37C 109.5 . . ? 
C39 C38 C12 179.3(3) . . ? 
C38 C39 Si2 170.0(2) . . ? 
C41 C40 Si2 116.71(15) . . ? 
C41 C40 H40A 108.1 . . ? 
Si2 C40 H40A 108.1 . . ? 
C41 C40 H40B 108.1 . . ? 
Si2 C40 H40B 108.1 . . ? 
H40A C40 H40B 107.3 . . ? 
C42 C41 C46 109.93(18) . . ? 
C42 C41 C40 111.95(18) . . ? 
C46 C41 C40 111.71(19) . . ? 
C42 C41 H41 107.7 . . ? 
C46 C41 H41 107.7 . . ? 
C40 C41 H41 107.7 . . ? 
C41 C42 C43 112.2(2) . . ? 
C41 C42 H42A 109.2 . . ? 
C43 C42 H42A 109.2 . . ? 
C41 C42 H42B 109.2 . . ? 
C43 C42 H42B 109.2 . . ? 
H42A C42 H42B 107.9 . . ? 
C44 C43 C42 111.3(2) . . ? 
C44 C43 H43A 109.4 . . ? 
C42 C43 H43A 109.4 . . ? 
C44 C43 H43B 109.4 . . ? 
C42 C43 H43B 109.4 . . ? 
H43A C43 H43B 108.0 . . ? 
C45 C44 C43 111.1(2) . . ? 
C45 C44 H44A 109.4 . . ? 
C43 C44 H44A 109.4 . . ? 
C45 C44 H44B 109.4 . . ? 
C43 C44 H44B 109.4 . . ? 
H44A C44 H44B 108.0 . . ? 
C44 C45 C46 111.3(2) . . ? 
C44 C45 H45A 109.4 . . ? 
C46 C45 H45A 109.4 . . ? 
C44 C45 H45B 109.4 . . ? 
C46 C45 H45B 109.4 . . ? 
H45A C45 H45B 108.0 . . ? 
C45 C46 C41 111.37(19) . . ? 
C45 C46 H46A 109.4 . . ? 
C41 C46 H46A 109.4 . . ? 
C45 C46 H46B 109.4 . . ? 
C41 C46 H46B 109.4 . . ? 
H46A C46 H46B 108.0 . . ? 
C48 C47 C49 109.4(2) . . ? 
C48 C47 Si2 113.36(16) . . ? 
C49 C47 Si2 111.24(16) . . ? 
C48 C47 H47 107.5 . . ? 
C49 C47 H47 107.5 . . ? 
Si2 C47 H47 107.5 . . ? 
C47 C48 H48A 109.5 . . ? 
C47 C48 H48B 109.5 . . ? 
H48A C48 H48B 109.5 . . ? 
C47 C48 H48C 109.5 . . ? 
H48A C48 H48C 109.5 . . ? 
H48B C48 H48C 109.5 . . ? 
C47 C49 H49A 109.5 . . ? 
C47 C49 H49B 109.5 . . ? 
H49A C49 H49B 109.5 . . ? 
C47 C49 H49C 109.5 . . ? 
H49A C49 H49C 109.5 . . ? 
H49B C49 H49C 109.5 . . ? 
C52 C50 C51 111.9(2) . . ? 
C52 C50 Si2 111.84(16) . . ? 
C51 C50 Si2 110.52(16) . . ? 
C52 C50 H50 107.4 . . ? 
C51 C50 H50 107.4 . . ? 
Si2 C50 H50 107.4 . . ? 
C50 C51 H51A 109.5 . . ? 
C50 C51 H51B 109.5 . . ? 
H51A C51 H51B 109.5 . . ? 
C50 C51 H51C 109.5 . . ? 
H51A C51 H51C 109.5 . . ? 
H51B C51 H51C 109.5 . . ? 
C50 C52 H52A 109.5 . . ? 
C50 C52 H52B 109.5 . . ? 
H52A C52 H52B 109.5 . . ? 
C50 C52 H52C 109.5 . . ? 
H52A C52 H52C 109.5 . . ? 
H52B C52 H52C 109.5 . . ? 
 
loop_ 
 _geom_torsion_atom_site_label_1 
 _geom_torsion_atom_site_label_2 
 _geom_torsion_atom_site_label_3 
 _geom_torsion_atom_site_label_4 
 _geom_torsion 
 _geom_torsion_site_symmetry_1 
 _geom_torsion_site_symmetry_2 
 _geom_torsion_site_symmetry_3 
 _geom_torsion_site_symmetry_4 
 _geom_torsion_publ_flag 
C22 C1 C2 C3 -179.06(19) . . . . ? 
C23 C1 C2 C3 -0.6(3) . . . . ? 
C22 C1 C2 C11 0.5(3) . . . . ? 
C23 C1 C2 C11 178.94(19) . . . . ? 
C1 C2 C3 C4 179.5(2) . . . . ? 
C11 C2 C3 C4 -0.1(3) . . . . ? 
C2 C3 C4 C5 -177.5(2) . . . . ? 
C2 C3 C4 C9 1.4(3) . . . . ? 
C3 C4 C5 C6 179.0(2) . . . . ? 
C9 C4 C5 C6 0.1(3) . . . . ? 
C4 C5 C6 C7 0.7(4) . . . . ? 
C5 C6 C7 C8 -0.7(4) . . . . ? 
C6 C7 C8 C9 -0.1(3) . . . . ? 
C7 C8 C9 C10 -177.9(2) . . . . ? 
C7 C8 C9 C4 0.8(3) . . . . ? 
C3 C4 C9 C10 -1.1(3) . . . . ? 
C5 C4 C9 C10 177.9(2) . . . . ? 
C3 C4 C9 C8 -179.8(2) . . . . ? 
C5 C4 C9 C8 -0.8(3) . . . . ? 
C8 C9 C10 C11 178.0(2) . . . . ? 
C4 C9 C10 C11 -0.7(3) . . . . ? 
C9 C10 C11 C12 -177.7(2) . . . . ? 
C9 C10 C11 C2 2.0(3) . . . . ? 
C3 C2 C11 C10 -1.6(3) . . . . ? 
C1 C2 C11 C10 178.82(19) . . . . ? 
C3 C2 C11 C12 178.17(19) . . . . ? 
C1 C2 C11 C12 -1.4(3) . . . . ? 
C10 C11 C12 C13 -178.1(2) . . . . ? 
C2 C11 C12 C13 2.2(3) . . . . ? 
C10 C11 C12 C38 0.6(3) . . . . ? 
C2 C11 C12 C38 -179.15(19) . . . . ? 
C11 C12 C13 C14 177.2(2) . . . . ? 
C38 C12 C13 C14 -1.4(3) . . . . ? 
C11 C12 C13 C22 -2.0(3) . . . . ? 
C38 C12 C13 C22 179.33(19) . . . . ? 
C12 C13 C14 C15 -179.7(2) . . . . ? 
C22 C13 C14 C15 -0.4(3) . . . . ? 
C13 C14 C15 C16 178.4(2) . . . . ? 
C13 C14 C15 C20 -2.0(3) . . . . ? 
C14 C15 C16 C17 178.7(2) . . . . ? 
C20 C15 C16 C17 -1.0(3) . . . . ? 
C15 C16 C17 C18 -0.9(4) . . . . ? 
C16 C17 C18 C19 1.7(4) . . . . ? 
C17 C18 C19 C20 -0.5(4) . . . . ? 
C18 C19 C20 C21 178.1(2) . . . . ? 
C18 C19 C20 C15 -1.4(3) . . . . ? 
C14 C15 C20 C21 2.9(3) . . . . ? 
C16 C15 C20 C21 -177.5(2) . . . . ? 
C14 C15 C20 C19 -177.6(2) . . . . ? 
C16 C15 C20 C19 2.1(3) . . . . ? 
C19 C20 C21 C22 179.2(2) . . . . ? 
C15 C20 C21 C22 -1.3(3) . . . . ? 
C20 C21 C22 C1 179.1(2) . . . . ? 
C20 C21 C22 C13 -1.1(3) . . . . ? 
C2 C1 C22 C21 179.4(2) . . . . ? 
C23 C1 C22 C21 1.0(3) . . . . ? 
C2 C1 C22 C13 -0.3(3) . . . . ? 
C23 C1 C22 C13 -178.79(19) . . . . ? 
C14 C13 C22 C21 2.0(3) . . . . ? 
C12 C13 C22 C21 -178.74(19) . . . . ? 
C14 C13 C22 C1 -178.21(19) . . . . ? 
C12 C13 C22 C1 1.1(3) . . . . ? 
C24 Si1 C25 C26 -51.1(2) . . . . ? 
C35 Si1 C25 C26 -167.96(17) . . . . ? 
C32 Si1 C25 C26 69.2(2) . . . . ? 
Si1 C25 C26 C31 77.1(2) . . . . ? 
Si1 C25 C26 C27 -159.42(17) . . . . ? 
C31 C26 C27 C28 -57.0(3) . . . . ? 
C25 C26 C27 C28 177.2(2) . . . . ? 
C26 C27 C28 C29 56.4(3) . . . . ? 
C27 C28 C29 C30 -54.0(3) . . . . ? 
C28 C29 C30 C31 53.6(3) . . . . ? 
C27 C26 C31 C30 57.0(3) . . . . ? 
C25 C26 C31 C30 -177.9(2) . . . . ? 
C29 C30 C31 C26 -56.2(3) . . . . ? 
C24 Si1 C32 C33 61.1(2) . . . . ? 
C35 Si1 C32 C33 176.4(2) . . . . ? 
C25 Si1 C32 C33 -61.3(2) . . . . ? 
C24 Si1 C32 C34 -173.05(17) . . . . ? 
C35 Si1 C32 C34 -57.7(2) . . . . ? 
C25 Si1 C32 C34 64.6(2) . . . . ? 
C24 Si1 C35 C36 68.93(19) . . . . ? 
C25 Si1 C35 C36 -171.02(17) . . . . ? 
C32 Si1 C35 C36 -47.3(2) . . . . ? 
C24 Si1 C35 C37 -55.63(19) . . . . ? 
C25 Si1 C35 C37 64.42(19) . . . . ? 
C32 Si1 C35 C37 -171.86(16) . . . . ? 
C50 Si2 C39 C38 -56.0(12) . . . . ? 
C47 Si2 C39 C38 -174.9(11) . . . . ? 
C40 Si2 C39 C38 61.7(12) . . . . ? 
C39 Si2 C40 C41 10.5(2) . . . . ? 
C50 Si2 C40 C41 124.10(17) . . . . ? 
C47 Si2 C40 C41 -111.76(18) . . . . ? 
Si2 C40 C41 C42 72.6(2) . . . . ? 
Si2 C40 C41 C46 -163.61(16) . . . . ? 
C46 C41 C42 C43 55.1(3) . . . . ? 
C40 C41 C42 C43 179.84(19) . . . . ? 
C41 C42 C43 C44 -55.1(3) . . . . ? 
C42 C43 C44 C45 54.7(3) . . . . ? 
C43 C44 C45 C46 -55.8(3) . . . . ? 
C44 C45 C46 C41 56.6(3) . . . . ? 
C42 C41 C46 C45 -55.6(3) . . . . ? 
C40 C41 C46 C45 179.5(2) . . . . ? 
C39 Si2 C47 C48 -69.29(19) . . . . ? 
C50 Si2 C47 C48 175.54(17) . . . . ? 
C40 Si2 C47 C48 51.23(19) . . . . ? 
C39 Si2 C47 C49 166.96(17) . . . . ? 
C50 Si2 C47 C49 51.8(2) . . . . ? 
C40 Si2 C47 C49 -72.53(19) . . . . ? 
C39 Si2 C50 C52 59.81(19) . . . . ? 
C47 Si2 C50 C52 178.89(16) . . . . ? 
C40 Si2 C50 C52 -55.79(19) . . . . ? 
C39 Si2 C50 C51 -65.60(18) . . . . ? 
C47 Si2 C50 C51 53.48(19) . . . . ? 
C40 Si2 C50 C51 178.80(16) . . . . ? 
 
_diffrn_measured_fraction_theta_max    1.000 
_diffrn_reflns_theta_full              26.00 
_diffrn_measured_fraction_theta_full   1.000 
_refine_diff_density_max    0.289 
_refine_diff_density_min   -0.223 
_refine_diff_density_rms    0.064 
