 
data_x10099 
 
_audit_creation_method            SHELXL-97 
_chemical_name_systematic 
; 
 ? 
; 
_chemical_name_common             ? 
_chemical_melting_point           ? 
_chemical_formula_moiety 
 'C48 H46 O4 S2 Si2' 
_chemical_formula_sum 
 'C48 H46 O4 S2 Si2' 
_chemical_formula_weight          807.15 
 
loop_ 
 _atom_type_symbol 
 _atom_type_description 
 _atom_type_scat_dispersion_real 
 _atom_type_scat_dispersion_imag 
 _atom_type_scat_source 
 'C'  'C'   0.0181   0.0091 
 'International Tables Vol C Tables 4.2.6.8 and 6.1.1.4' 
 'H'  'H'   0.0000   0.0000 
 'International Tables Vol C Tables 4.2.6.8 and 6.1.1.4' 
 'O'  'O'   0.0492   0.0322 
 'International Tables Vol C Tables 4.2.6.8 and 6.1.1.4' 
 'Si'  'Si'   0.2541   0.3302 
 'International Tables Vol C Tables 4.2.6.8 and 6.1.1.4' 
 'S'  'S'   0.3331   0.5567 
 'International Tables Vol C Tables 4.2.6.8 and 6.1.1.4' 
 
_symmetry_cell_setting            triclinic 
_symmetry_space_group_name_H-M    'P -1'
_symmetry_space_group_name_Hall   '-P 1'
 
loop_ 
 _symmetry_equiv_pos_as_xyz 
 'x, y, z' 
 '-x, -y, -z' 
 
_cell_length_a                    6.6164(2) 
_cell_length_b                    11.1867(3) 
_cell_length_c                    14.8538(3) 
_cell_angle_alpha                 98.102(1) 
_cell_angle_beta                  96.695(1) 
_cell_angle_gamma                 98.415(1) 
_cell_volume                      1066.10(5) 
_cell_formula_units_Z             1 
_cell_measurement_temperature     90.0(2) 
_cell_measurement_reflns_used     6405 
_cell_measurement_theta_min       3.04
_cell_measurement_theta_max       67.99
 
_exptl_crystal_description        lath
_exptl_crystal_colour             red
_exptl_crystal_size_max           0.40 
_exptl_crystal_size_mid           0.08 
_exptl_crystal_size_min           0.01 
_exptl_crystal_density_meas       ? 
_exptl_crystal_density_diffrn     1.257 
_exptl_crystal_density_method     'not measured' 
_exptl_crystal_F_000              426 
_exptl_absorpt_coefficient_mu     2.011 
_exptl_absorpt_correction_type    multi-scan 
_exptl_absorpt_correction_T_min   0.500
_exptl_absorpt_correction_T_max   0.980 
_exptl_absorpt_process_details    'Sadabs in APEX2 (BrukerAXS, 2006)' 
 
_exptl_special_details 
; 
 ? 
; 
 
_diffrn_ambient_temperature       90.0(2) 
_diffrn_radiation_wavelength      1.54178 
_diffrn_radiation_type            CuK\a 
_diffrn_radiation_source          'fine-focus rotating anode' 
_diffrn_radiation_monochromator   'graded multilayer optics' 
_diffrn_measurement_device_type   'Bruker X8 Proteum diffractometer'
_diffrn_measurement_method        '\f and \w scans'            
_diffrn_detector_area_resol_mean  5.6
_diffrn_standards_number          0 
_diffrn_standards_interval_count  . 
_diffrn_standards_interval_time   . 
_diffrn_standards_decay_%         ? 
_diffrn_reflns_number             14188 
_diffrn_reflns_av_R_equivalents   0.0526 
_diffrn_reflns_av_sigmaI/netI     0.0447 
_diffrn_reflns_limit_h_min        -5 
_diffrn_reflns_limit_h_max        7 
_diffrn_reflns_limit_k_min        -13 
_diffrn_reflns_limit_k_max        13 
_diffrn_reflns_limit_l_min        -17 
_diffrn_reflns_limit_l_max        17 
_diffrn_reflns_theta_min          3.03 
_diffrn_reflns_theta_max          68.24 
_reflns_number_total              3802 
_reflns_number_gt                 3137 
_reflns_threshold_expression      >2\s(I)    
 
_computing_data_collection        'APEX2 (Bruker-AXS, 2006)'            
_computing_cell_refinement        'APEX2'
_computing_data_reduction         'APEX2'
_computing_structure_solution     'SHELXS-97 (Sheldrick, 2008)' 
_computing_structure_refinement   'SHELXL-97 (Sheldrick, 2008)' 
_computing_molecular_graphics     'XP in SHELXTL (Sheldrick, 2008)'
_computing_publication_material
; 
SHELX-97 (Sheldrick, 2008) and local procedures 
; 
 
_publ_section_exptl_refinement
;
H atoms were found in difference Fourier maps and subsequently placed in
idealized positions with constrained distances of 
0.98 \%A (RCH~3~),
0.99 \%A (R~2~CH~2~),
0.95 \%A (C~Ar~H),
and with U~iso~(H) values set to either 1.2U~eq~ or 1.5U~eq~ (RCH~3~) 
of the attached atom. 

The refinement required restraints (SHELXL97 commands SAME, DELU, SIMU) 
as well as constraints (SHELXL97 commands EXYZ, EADP) to ensure that the 
disordered components remained chemically sensible and physically 
reasonable during the refinement.
;

_refine_special_details 
; 
 Refinement of F^2^ against ALL reflections.  The weighted R-factor wR and 
 goodness of fit S are based on F^2^, conventional R-factors R are based 
 on F, with F set to zero for negative F^2^. The threshold expression of 
 F^2^ > 2\s(F^2^) is used only for calculating R-factors(gt) etc. and is 
 not relevant to the choice of reflections for refinement.  R-factors based 
 on F^2^ are statistically about twice as large as those based on F, and R- 
 factors based on ALL data will be even larger. 
; 
 
_refine_ls_structure_factor_coef  Fsqd  
_refine_ls_matrix_type            full 
_refine_ls_weighting_scheme       calc  
_refine_ls_weighting_details 
 'calc w=1/[\s^2^(Fo^2^)+(0.0612P)^2^+1.1131P] where P=(Fo^2^+2Fc^2^)/3' 
_atom_sites_solution_primary      direct 
_atom_sites_solution_secondary    difmap 
_atom_sites_solution_hydrogens    geom 
_refine_ls_hydrogen_treatment     constr 
_refine_ls_extinction_method      none 
_refine_ls_extinction_coef        ? 
_refine_ls_number_reflns          3802 
_refine_ls_number_parameters      315 
_refine_ls_number_restraints      160 
_refine_ls_R_factor_all           0.0622 
_refine_ls_R_factor_gt            0.0508 
_refine_ls_wR_factor_ref          0.1345 
_refine_ls_wR_factor_gt           0.1257 
_refine_ls_goodness_of_fit_ref    1.038 
_refine_ls_restrained_S_all       1.026 
_refine_ls_shift/su_max           0.000 
_refine_ls_shift/su_mean          0.000 
 
loop_ 
 _atom_site_label 
 _atom_site_type_symbol 
 _atom_site_fract_x 
 _atom_site_fract_y 
 _atom_site_fract_z 
 _atom_site_U_iso_or_equiv 
 _atom_site_adp_type 
 _atom_site_occupancy 
 _atom_site_symmetry_multiplicity 
 _atom_site_calc_flag 
 _atom_site_refinement_flags 
 _atom_site_disorder_assembly 
 _atom_site_disorder_group 
C1 C 0.4979(3) 0.61616(19) 0.55194(14) 0.0151(4) Uani 1 1 d . . . 
C2 C 0.3323(3) 0.56434(19) 0.48223(14) 0.0147(4) Uani 1 1 d . B . 
C3 C 0.1664(3) 0.6278(2) 0.46254(15) 0.0170(4) Uani 1 1 d . . . 
H3 H 0.1643 0.7059 0.4968 0.020 Uiso 1 1 calc R A 1 
C4 C 0.0091(3) 0.5756(2) 0.39373(15) 0.0185(5) Uani 0.888(2) 1 d PDU B 1 
S5 S -0.20123(10) 0.64263(6) 0.35569(4) 0.0191(2) Uani 0.888(2) 1 d PDU B 1 
C6 C -0.292(2) 0.5116(9) 0.2726(12) 0.0210(5) Uani 0.888(2) 1 d PDU B 1 
C7 C -0.1748(5) 0.4290(3) 0.2744(2) 0.0168(6) Uani 0.888(2) 1 d PDU B 1 
H7 H -0.2066 0.3536 0.2332 0.020 Uiso 0.888(2) 1 calc PR B 1 
C8 C 0.0072(3) 0.4573(2) 0.34230(15) 0.0190(5) Uani 0.888(2) 1 d PDU B 1 
C4' C 0.0091(3) 0.5756(2) 0.39373(15) 0.0185(5) Uani 0.112(2) 1 d PDU B 2 
C5' C -0.186(3) 0.597(2) 0.3435(15) 0.0191(2) Uani 0.112(2) 1 d PDU B 2 
H5' H -0.2351 0.6714 0.3625 0.023 Uiso 0.112(2) 1 calc PR B 2 
C6' C -0.292(18) 0.522(8) 0.276(9) 0.0210(5) Uani 0.112(2) 1 d PDU B 2 
S7' S -0.1938(11) 0.3828(6) 0.2564(5) 0.0168(6) Uani 0.112(2) 1 d PDU B 2 
C8' C 0.0072(3) 0.4573(2) 0.34230(15) 0.0190(5) Uani 0.112(2) 1 d PDU B 2 
C9 C 0.1666(3) 0.3948(2) 0.36010(14) 0.0174(5) Uani 1 1 d . . . 
H9 H 0.1647 0.3163 0.3256 0.021 Uiso 1 1 calc R B 1 
C10 C 0.3340(3) 0.44631(19) 0.42948(14) 0.0148(4) Uani 1 1 d . . . 
C11 C 0.4963(3) 0.7323(2) 0.60613(15) 0.0189(5) Uani 1 1 d . C . 
C12 C 0.4941(4) 0.8279(2) 0.65373(18) 0.0277(6) Uani 1 1 d . . . 
Si1 Si 0.4791(2) 0.95895(12) 0.74713(10) 0.0232(3) Uani 0.5183(13) 1 d PDU C 1 
C13 C 0.7404(10) 1.0018(8) 0.8197(6) 0.0315(14) Uani 0.5183(13) 1 d PDU C 1 
H13A H 0.8438 1.0304 0.7809 0.038 Uiso 0.5183(13) 1 calc PR C 1 
H13B H 0.7364 1.0706 0.8689 0.038 Uiso 0.5183(13) 1 calc PR C 1 
C14 C 0.8086(9) 0.8954(5) 0.8633(4) 0.0404(13) Uani 0.5183(13) 1 d PDU C 1 
H14A H 0.7043 0.8645 0.8998 0.061 Uiso 0.5183(13) 1 calc PR C 1 
H14B H 0.9408 0.9240 0.9030 0.061 Uiso 0.5183(13) 1 calc PR C 1 
H14C H 0.8242 0.8296 0.8148 0.061 Uiso 0.5183(13) 1 calc PR C 1 
C15 C 0.2734(8) 0.9139(5) 0.8198(4) 0.0384(13) Uani 0.5183(13) 1 d PDU C 1 
H15A H 0.1397 0.8874 0.7794 0.046 Uiso 0.5183(13) 1 calc PR C 1 
H15B H 0.3069 0.8429 0.8481 0.046 Uiso 0.5183(13) 1 calc PR C 1 
C16 C 0.2492(10) 1.0153(6) 0.8955(4) 0.0531(17) Uani 0.5183(13) 1 d PDU C 1 
H16A H 0.3798 1.0411 0.9368 0.080 Uiso 0.5183(13) 1 calc PR C 1 
H16B H 0.1407 0.9850 0.9302 0.080 Uiso 0.5183(13) 1 calc PR C 1 
H16C H 0.2115 1.0852 0.8682 0.080 Uiso 0.5183(13) 1 calc PR C 1 
C17 C 0.4092(8) 1.0822(5) 0.6844(4) 0.0357(12) Uani 0.5183(13) 1 d PDU C 1 
H17A H 0.2721 1.0536 0.6471 0.043 Uiso 0.5183(13) 1 calc PR C 1 
H17B H 0.3979 1.1542 0.7295 0.043 Uiso 0.5183(13) 1 calc PR C 1 
C18 C 0.5633(15) 1.1209(10) 0.6222(8) 0.0417(17) Uani 0.5183(13) 1 d PDU C 1 
H18A H 0.6972 1.1548 0.6592 0.063 Uiso 0.5183(13) 1 calc PR C 1 
H18B H 0.5148 1.1832 0.5889 0.063 Uiso 0.5183(13) 1 calc PR C 1 
H18C H 0.5777 1.0497 0.5782 0.063 Uiso 0.5183(13) 1 calc PR C 1 
Si1' Si 0.5041(2) 0.99006(13) 0.70505(11) 0.0232(3) Uani 0.4817(13) 1 d PDU C 2 
C13' C 0.6631(11) 1.0085(9) 0.8199(6) 0.0315(14) Uani 0.4817(13) 1 d PDU C 2 
H13C H 0.8063 0.9994 0.8110 0.038 Uiso 0.4817(13) 1 calc PR C 2 
H13D H 0.6666 1.0926 0.8524 0.038 Uiso 0.4817(13) 1 calc PR C 2 
C14' C 0.5847(14) 0.9169(6) 0.8810(5) 0.0567(19) Uani 0.4817(13) 1 d PDU C 2 
H14D H 0.4431 0.9252 0.8906 0.085 Uiso 0.4817(13) 1 calc PR C 2 
H14E H 0.6737 0.9336 0.9404 0.085 Uiso 0.4817(13) 1 calc PR C 2 
H14F H 0.5875 0.8334 0.8510 0.085 Uiso 0.4817(13) 1 calc PR C 2 
C15' C 0.2289(9) 1.0091(6) 0.7124(4) 0.0391(14) Uani 0.4817(13) 1 d PDU C 2 
H15C H 0.1737 0.9568 0.7554 0.047 Uiso 0.4817(13) 1 calc PR C 2 
H15D H 0.2261 1.0952 0.7386 0.047 Uiso 0.4817(13) 1 calc PR C 2 
C16' C 0.0866(9) 0.9768(7) 0.6203(4) 0.0468(16) Uani 0.4817(13) 1 d PDU C 2 
H16D H 0.1406 1.0273 0.5769 0.070 Uiso 0.4817(13) 1 calc PR C 2 
H16E H -0.0522 0.9924 0.6294 0.070 Uiso 0.4817(13) 1 calc PR C 2 
H16F H 0.0803 0.8901 0.5958 0.070 Uiso 0.4817(13) 1 calc PR C 2 
C17' C 0.6239(16) 1.0938(11) 0.6306(9) 0.0417(17) Uani 0.4817(13) 1 d PDU C 2 
H17C H 0.5296 1.0856 0.5724 0.050 Uiso 0.4817(13) 1 calc PR C 2 
H17D H 0.6397 1.1795 0.6619 0.050 Uiso 0.4817(13) 1 calc PR C 2 
C18' C 0.8298(10) 1.0681(6) 0.6088(6) 0.057(2) Uani 0.4817(13) 1 d PDU C 2 
H18D H 0.9272 1.0817 0.6657 0.086 Uiso 0.4817(13) 1 calc PR C 2 
H18E H 0.8809 1.1228 0.5674 0.086 Uiso 0.4817(13) 1 calc PR C 2 
H18F H 0.8164 0.9828 0.5790 0.086 Uiso 0.4817(13) 1 calc PR C 2 
O1 O -0.5538(3) 0.41786(16) 0.15013(12) 0.0311(4) Uani 1 1 d . B . 
O2 O -0.5352(2) 0.61795(16) 0.20882(11) 0.0251(4) Uani 1 1 d . B . 
C19 C -0.4750(3) 0.5074(2) 0.20404(16) 0.0220(5) Uani 1 1 d . . . 
C20 C -0.6959(3) 0.6319(2) 0.14159(16) 0.0214(5) Uani 1 1 d . . . 
C21 C -0.8780(3) 0.6541(2) 0.17117(17) 0.0240(5) Uani 1 1 d . B . 
H21 H -0.8967 0.6544 0.2336 0.029 Uiso 1 1 calc R . . 
C22 C -1.0336(4) 0.6761(2) 0.10791(19) 0.0307(6) Uani 1 1 d . . . 
H22 H -1.1609 0.6912 0.1270 0.037 Uiso 1 1 calc R B . 
C23 C -1.0049(4) 0.6761(2) 0.01746(19) 0.0321(6) Uani 1 1 d . B . 
H23 H -1.1122 0.6912 -0.0257 0.039 Uiso 1 1 calc R . . 
C24 C -0.8199(4) 0.6543(3) -0.01018(18) 0.0345(6) Uani 1 1 d . . . 
H24 H -0.8007 0.6541 -0.0726 0.041 Uiso 1 1 calc R B . 
C25 C -0.6619(4) 0.6325(3) 0.05198(17) 0.0303(6) Uani 1 1 d . B . 
H25 H -0.5337 0.6185 0.0333 0.036 Uiso 1 1 calc R . . 
 
loop_ 
 _atom_site_aniso_label 
 _atom_site_aniso_U_11 
 _atom_site_aniso_U_22 
 _atom_site_aniso_U_33 
 _atom_site_aniso_U_23 
 _atom_site_aniso_U_13 
 _atom_site_aniso_U_12 
C1 0.0158(11) 0.0156(10) 0.0149(10) 0.0035(8) 0.0048(8) 0.0033(8) 
C2 0.0140(10) 0.0139(10) 0.0170(10) 0.0038(8) 0.0047(8) 0.0019(8) 
C3 0.0153(11) 0.0177(11) 0.0201(11) 0.0045(9) 0.0062(8) 0.0054(8) 
C4 0.0154(10) 0.0240(11) 0.0190(10) 0.0083(9) 0.0056(8) 0.0056(8) 
S5 0.0141(3) 0.0230(4) 0.0209(3) 0.0025(3) 0.0011(2) 0.0075(2) 
C6 0.0136(10) 0.027(2) 0.0228(18) 0.0055(16) 0.0031(10) 0.0023(16) 
C7 0.0154(11) 0.0138(18) 0.0177(15) -0.0036(14) 0.0012(10) -0.0017(15) 
C8 0.0146(10) 0.0252(11) 0.0172(10) 0.0050(9) 0.0031(8) 0.0008(8) 
C4' 0.0154(10) 0.0240(11) 0.0190(10) 0.0083(9) 0.0056(8) 0.0056(8) 
C5' 0.0141(3) 0.0230(4) 0.0209(3) 0.0025(3) 0.0011(2) 0.0075(2) 
C6' 0.0136(10) 0.027(2) 0.0228(18) 0.0055(16) 0.0031(10) 0.0023(16) 
S7' 0.0154(11) 0.0138(18) 0.0177(15) -0.0036(14) 0.0012(10) -0.0017(15) 
C8' 0.0146(10) 0.0252(11) 0.0172(10) 0.0050(9) 0.0031(8) 0.0008(8) 
C9 0.0155(11) 0.0206(11) 0.0155(10) 0.0020(9) 0.0013(8) 0.0024(8) 
C10 0.0134(10) 0.0155(11) 0.0164(10) 0.0041(8) 0.0040(8) 0.0024(8) 
C11 0.0171(11) 0.0193(12) 0.0205(11) 0.0041(9) 0.0000(8) 0.0053(8) 
C12 0.0201(12) 0.0220(13) 0.0385(14) -0.0017(11) -0.0025(10) 0.0069(9) 
Si1 0.0242(5) 0.0165(6) 0.0273(7) -0.0030(4) 0.0020(5) 0.0061(4) 
C13 0.033(4) 0.0265(18) 0.0326(16) -0.0033(13) 0.000(3) 0.008(3) 
C14 0.050(3) 0.043(3) 0.026(3) 0.003(2) -0.010(2) 0.015(3) 
C15 0.035(3) 0.040(3) 0.038(3) -0.008(2) 0.012(2) 0.006(2) 
C16 0.041(3) 0.064(4) 0.049(4) -0.015(3) 0.018(3) 0.008(3) 
C17 0.039(3) 0.024(3) 0.043(3) -0.001(2) -0.003(2) 0.012(2) 
C18 0.050(5) 0.031(5) 0.042(3) 0.007(2) -0.002(4) 0.002(3) 
Si1' 0.0242(5) 0.0165(6) 0.0273(7) -0.0030(4) 0.0020(5) 0.0061(4) 
C13' 0.033(4) 0.0265(18) 0.0326(16) -0.0033(13) 0.000(3) 0.008(3) 
C14' 0.091(6) 0.036(4) 0.037(3) 0.004(3) -0.011(3) 0.009(4) 
C15' 0.036(3) 0.041(3) 0.043(3) -0.003(3) 0.007(2) 0.021(3) 
C16' 0.029(3) 0.061(4) 0.047(4) -0.009(3) 0.001(2) 0.019(3) 
C17' 0.050(5) 0.031(5) 0.042(3) 0.007(2) -0.002(4) 0.002(3) 
C18' 0.039(4) 0.037(4) 0.102(6) 0.031(4) 0.020(4) 0.000(3) 
O1 0.0265(9) 0.0305(10) 0.0321(10) 0.0024(8) -0.0087(7) 0.0037(7) 
O2 0.0174(8) 0.0313(9) 0.0256(9) 0.0034(7) -0.0035(6) 0.0074(7) 
C19 0.0144(11) 0.0293(13) 0.0222(12) 0.0054(10) 0.0025(9) 0.0018(9) 
C20 0.0153(11) 0.0245(12) 0.0216(12) 0.0044(9) -0.0068(8) 0.0006(9) 
C21 0.0165(11) 0.0295(13) 0.0259(12) 0.0098(10) 0.0003(9) 0.0005(9) 
C22 0.0144(12) 0.0347(14) 0.0429(15) 0.0122(12) -0.0027(10) 0.0033(10) 
C23 0.0279(14) 0.0271(14) 0.0372(15) 0.0082(11) -0.0151(11) 0.0038(10) 
C24 0.0424(16) 0.0375(15) 0.0230(13) 0.0067(11) -0.0038(11) 0.0099(12) 
C25 0.0253(13) 0.0414(16) 0.0260(13) 0.0065(11) 0.0044(10) 0.0098(11) 
 
_geom_special_details 
; 
 All esds (except the esd in the dihedral angle between two l.s. planes) 
 are estimated using the full covariance matrix.  The cell esds are taken 
 into account individually in the estimation of esds in distances, angles 
 and torsion angles; correlations between esds in cell parameters are only 
 used when they are defined by crystal symmetry.  An approximate (isotropic) 
 treatment of cell esds is used for estimating esds involving l.s. planes. 
; 
 
loop_ 
 _geom_bond_atom_site_label_1 
 _geom_bond_atom_site_label_2 
 _geom_bond_distance 
 _geom_bond_site_symmetry_2 
 _geom_bond_publ_flag 
C1 C2 1.410(3) . ? 
C1 C10 1.418(3) 2_666 ? 
C1 C11 1.431(3) . ? 
C2 C3 1.417(3) . ? 
C2 C10 1.440(3) . ? 
C3 C4 1.369(3) . ? 
C3 H3 0.9500 . ? 
C4 C8 1.430(3) . ? 
C4 S5 1.749(2) . ? 
S5 C6 1.759(4) . ? 
C6 C7 1.293(5) . ? 
C6 C19 1.477(4) . ? 
C7 C8 1.443(4) . ? 
C7 H7 0.9500 . ? 
C8 C9 1.369(3) . ? 
C5' C6' 1.276(19) . ? 
C5' H5' 0.9500 . ? 
C6' C19 1.49(2) . ? 
C6' S7' 1.77(2) . ? 
C9 C10 1.415(3) . ? 
C9 H9 0.9500 . ? 
C10 C1 1.418(3) 2_666 ? 
C11 C12 1.199(3) . ? 
C12 Si1' 1.854(3) . ? 
C12 Si1 1.893(3) . ? 
Si1 C17 1.852(5) . ? 
Si1 C13 1.886(7) . ? 
Si1 C15 1.889(5) . ? 
C13 C14 1.532(8) . ? 
C13 H13A 0.9900 . ? 
C13 H13B 0.9900 . ? 
C14 H14A 0.9800 . ? 
C14 H14B 0.9800 . ? 
C14 H14C 0.9800 . ? 
C15 C16 1.520(7) . ? 
C15 H15A 0.9900 . ? 
C15 H15B 0.9900 . ? 
C16 H16A 0.9800 . ? 
C16 H16B 0.9800 . ? 
C16 H16C 0.9800 . ? 
C17 C18 1.511(12) . ? 
C17 H17A 0.9900 . ? 
C17 H17B 0.9900 . ? 
C18 H18A 0.9800 . ? 
C18 H18B 0.9800 . ? 
C18 H18C 0.9800 . ? 
Si1' C13' 1.866(8) . ? 
Si1' C17' 1.869(10) . ? 
Si1' C15' 1.878(6) . ? 
C13' C14' 1.536(10) . ? 
C13' H13C 0.9900 . ? 
C13' H13D 0.9900 . ? 
C14' H14D 0.9800 . ? 
C14' H14E 0.9800 . ? 
C14' H14F 0.9800 . ? 
C15' C16' 1.533(8) . ? 
C15' H15C 0.9900 . ? 
C15' H15D 0.9900 . ? 
C16' H16D 0.9800 . ? 
C16' H16E 0.9800 . ? 
C16' H16F 0.9800 . ? 
C17' C18' 1.495(11) . ? 
C17' H17C 0.9900 . ? 
C17' H17D 0.9900 . ? 
C18' H18D 0.9800 . ? 
C18' H18E 0.9800 . ? 
C18' H18F 0.9800 . ? 
O1 C19 1.200(3) . ? 
O2 C19 1.349(3) . ? 
O2 C20 1.413(3) . ? 
C20 C21 1.374(3) . ? 
C20 C25 1.376(3) . ? 
C21 C22 1.384(3) . ? 
C21 H21 0.9500 . ? 
C22 C23 1.379(4) . ? 
C22 H22 0.9500 . ? 
C23 C24 1.380(4) . ? 
C23 H23 0.9500 . ? 
C24 C25 1.385(4) . ? 
C24 H24 0.9500 . ? 
C25 H25 0.9500 . ? 
 
loop_ 
 _geom_angle_atom_site_label_1 
 _geom_angle_atom_site_label_2 
 _geom_angle_atom_site_label_3 
 _geom_angle 
 _geom_angle_site_symmetry_1 
 _geom_angle_site_symmetry_3 
 _geom_angle_publ_flag 
C2 C1 C10 120.9(2) . 2_666 ? 
C2 C1 C11 120.02(19) . . ? 
C10 C1 C11 119.1(2) 2_666 . ? 
C1 C2 C3 120.9(2) . . ? 
C1 C2 C10 119.4(2) . . ? 
C3 C2 C10 119.7(2) . . ? 
C4 C3 C2 119.4(2) . . ? 
C4 C3 H3 120.3 . . ? 
C2 C3 H3 120.3 . . ? 
C3 C4 C8 121.3(2) . . ? 
C3 C4 S5 126.10(18) . . ? 
C8 C4 S5 112.61(16) . . ? 
C4 S5 C6 89.63(14) . . ? 
C7 C6 C19 125.8(4) . . ? 
C7 C6 S5 113.2(3) . . ? 
C19 C6 S5 120.7(3) . . ? 
C6 C7 C8 116.5(3) . . ? 
C6 C7 H7 121.7 . . ? 
C8 C7 H7 121.7 . . ? 
C9 C8 C4 120.1(2) . . ? 
C9 C8 C7 131.8(2) . . ? 
C4 C8 C7 108.0(2) . . ? 
C6' C5' H5' 118.2 . . ? 
C5' C6' C19 142.6(18) . . ? 
C5' C6' S7' 112.5(16) . . ? 
C19 C6' S7' 104.9(14) . . ? 
C8 C9 C10 120.4(2) . . ? 
C8 C9 H9 119.8 . . ? 
C10 C9 H9 119.8 . . ? 
C9 C10 C1 121.3(2) . 2_666 ? 
C9 C10 C2 119.0(2) . . ? 
C1 C10 C2 119.7(2) 2_666 . ? 
C12 C11 C1 178.0(2) . . ? 
C11 C12 Si1' 167.6(2) . . ? 
C11 C12 Si1 168.4(2) . . ? 
C17 Si1 C13 112.9(3) . . ? 
C17 Si1 C15 110.0(3) . . ? 
C13 Si1 C15 110.6(3) . . ? 
C17 Si1 C12 104.5(2) . . ? 
C13 Si1 C12 107.6(3) . . ? 
C15 Si1 C12 111.12(19) . . ? 
C14 C13 Si1 112.9(5) . . ? 
C14 C13 H13A 109.0 . . ? 
Si1 C13 H13A 109.0 . . ? 
C14 C13 H13B 109.0 . . ? 
Si1 C13 H13B 109.0 . . ? 
H13A C13 H13B 107.8 . . ? 
C16 C15 Si1 114.3(4) . . ? 
C16 C15 H15A 108.7 . . ? 
Si1 C15 H15A 108.7 . . ? 
C16 C15 H15B 108.7 . . ? 
Si1 C15 H15B 108.7 . . ? 
H15A C15 H15B 107.6 . . ? 
C18 C17 Si1 113.3(4) . . ? 
C18 C17 H17A 108.9 . . ? 
Si1 C17 H17A 108.9 . . ? 
C18 C17 H17B 108.9 . . ? 
Si1 C17 H17B 108.9 . . ? 
H17A C17 H17B 107.7 . . ? 
C12 Si1' C13' 105.0(3) . . ? 
C12 Si1' C17' 110.0(4) . . ? 
C13' Si1' C17' 111.6(5) . . ? 
C12 Si1' C15' 105.7(2) . . ? 
C13' Si1' C15' 113.0(3) . . ? 
C17' Si1' C15' 111.1(3) . . ? 
C14' C13' Si1' 114.2(6) . . ? 
C14' C13' H13C 108.7 . . ? 
Si1' C13' H13C 108.7 . . ? 
C14' C13' H13D 108.7 . . ? 
Si1' C13' H13D 108.7 . . ? 
H13C C13' H13D 107.6 . . ? 
C13' C14' H14D 109.5 . . ? 
C13' C14' H14E 109.5 . . ? 
H14D C14' H14E 109.5 . . ? 
C13' C14' H14F 109.5 . . ? 
H14D C14' H14F 109.5 . . ? 
H14E C14' H14F 109.5 . . ? 
C16' C15' Si1' 114.4(4) . . ? 
C16' C15' H15C 108.7 . . ? 
Si1' C15' H15C 108.7 . . ? 
C16' C15' H15D 108.7 . . ? 
Si1' C15' H15D 108.7 . . ? 
H15C C15' H15D 107.6 . . ? 
C15' C16' H16D 109.5 . . ? 
C15' C16' H16E 109.5 . . ? 
H16D C16' H16E 109.5 . . ? 
C15' C16' H16F 109.5 . . ? 
H16D C16' H16F 109.5 . . ? 
H16E C16' H16F 109.5 . . ? 
C18' C17' Si1' 113.6(5) . . ? 
C18' C17' H17C 108.8 . . ? 
Si1' C17' H17C 108.8 . . ? 
C18' C17' H17D 108.8 . . ? 
Si1' C17' H17D 108.8 . . ? 
H17C C17' H17D 107.7 . . ? 
C17' C18' H18D 109.5 . . ? 
C17' C18' H18E 109.5 . . ? 
H18D C18' H18E 109.5 . . ? 
C17' C18' H18F 109.5 . . ? 
H18D C18' H18F 109.5 . . ? 
H18E C18' H18F 109.5 . . ? 
C19 O2 C20 117.57(18) . . ? 
O1 C19 O2 125.3(2) . . ? 
O1 C19 C6 123.9(3) . . ? 
O2 C19 C6 110.8(3) . . ? 
O1 C19 C6' 128.5(13) . . ? 
O2 C19 C6' 106.2(14) . . ? 
C21 C20 C25 122.4(2) . . ? 
C21 C20 O2 117.2(2) . . ? 
C25 C20 O2 120.2(2) . . ? 
C20 C21 C22 118.5(2) . . ? 
C20 C21 H21 120.7 . . ? 
C22 C21 H21 120.7 . . ? 
C23 C22 C21 120.4(2) . . ? 
C23 C22 H22 119.8 . . ? 
C21 C22 H22 119.8 . . ? 
C22 C23 C24 119.8(2) . . ? 
C22 C23 H23 120.1 . . ? 
C24 C23 H23 120.1 . . ? 
C23 C24 C25 120.8(2) . . ? 
C23 C24 H24 119.6 . . ? 
C25 C24 H24 119.6 . . ? 
C20 C25 C24 118.1(2) . . ? 
C20 C25 H25 121.0 . . ? 
C24 C25 H25 121.0 . . ? 
 
loop_ 
 _geom_torsion_atom_site_label_1 
 _geom_torsion_atom_site_label_2 
 _geom_torsion_atom_site_label_3 
 _geom_torsion_atom_site_label_4 
 _geom_torsion 
 _geom_torsion_site_symmetry_1 
 _geom_torsion_site_symmetry_2 
 _geom_torsion_site_symmetry_3 
 _geom_torsion_site_symmetry_4 
 _geom_torsion_publ_flag 
C10 C1 C2 C3 -178.79(19) 2_666 . . . ? 
C11 C1 C2 C3 2.3(3) . . . . ? 
C10 C1 C2 C10 0.1(3) 2_666 . . . ? 
C11 C1 C2 C10 -178.76(18) . . . . ? 
C1 C2 C3 C4 179.25(19) . . . . ? 
C10 C2 C3 C4 0.3(3) . . . . ? 
C2 C3 C4 C8 1.0(3) . . . . ? 
C2 C3 C4 S5 -176.62(16) . . . . ? 
C3 C4 S5 C6 178.7(9) . . . . ? 
C8 C4 S5 C6 0.8(8) . . . . ? 
C4 S5 C6 C7 -0.4(16) . . . . ? 
C4 S5 C6 C19 -175.0(17) . . . . ? 
C19 C6 C7 C8 174.1(15) . . . . ? 
S5 C6 C7 C8 0(2) . . . . ? 
C3 C4 C8 C9 -1.3(3) . . . . ? 
S5 C4 C8 C9 176.66(17) . . . . ? 
C3 C4 C8 C7 -179.0(2) . . . . ? 
S5 C4 C8 C7 -1.0(2) . . . . ? 
C6 C7 C8 C9 -176.5(13) . . . . ? 
C6 C7 C8 C4 0.8(13) . . . . ? 
C4 C8 C9 C10 0.1(3) . . . . ? 
C7 C8 C9 C10 177.2(3) . . . . ? 
C8 C9 C10 C1 -179.0(2) . . . 2_666 ? 
C8 C9 C10 C2 1.2(3) . . . . ? 
C1 C2 C10 C9 179.62(18) . . . . ? 
C3 C2 C10 C9 -1.4(3) . . . . ? 
C1 C2 C10 C1 -0.1(3) . . . 2_666 ? 
C3 C2 C10 C1 178.81(19) . . . 2_666 ? 
C11 C12 Si1 C17 -154.9(11) . . . . ? 
Si1' C12 Si1 C17 25.5(2) . . . . ? 
C11 C12 Si1 C13 84.8(11) . . . . ? 
Si1' C12 Si1 C13 -94.8(3) . . . . ? 
C11 C12 Si1 C15 -36.3(11) . . . . ? 
Si1' C12 Si1 C15 144.1(3) . . . . ? 
C17 Si1 C13 C14 -173.8(4) . . . . ? 
C15 Si1 C13 C14 62.5(6) . . . . ? 
C12 Si1 C13 C14 -59.0(5) . . . . ? 
C17 Si1 C15 C16 -63.7(5) . . . . ? 
C13 Si1 C15 C16 61.7(6) . . . . ? 
C12 Si1 C15 C16 -179.0(4) . . . . ? 
C13 Si1 C17 C18 57.7(7) . . . . ? 
C15 Si1 C17 C18 -178.3(6) . . . . ? 
C12 Si1 C17 C18 -58.9(6) . . . . ? 
C11 C12 Si1' C13' -133.5(10) . . . . ? 
Si1 C12 Si1' C13' 46.1(3) . . . . ? 
C11 C12 Si1' C17' -13.3(11) . . . . ? 
Si1 C12 Si1' C17' 166.4(4) . . . . ? 
C11 C12 Si1' C15' 106.8(10) . . . . ? 
Si1 C12 Si1' C15' -73.6(3) . . . . ? 
C12 Si1' C13' C14' -54.9(6) . . . . ? 
C17' Si1' C13' C14' -174.2(6) . . . . ? 
C15' Si1' C13' C14' 59.8(7) . . . . ? 
C12 Si1' C15' C16' -57.4(5) . . . . ? 
C13' Si1' C15' C16' -171.8(5) . . . . ? 
C17' Si1' C15' C16' 61.9(7) . . . . ? 
C12 Si1' C17' C18' -53.4(10) . . . . ? 
C13' Si1' C17' C18' 62.9(10) . . . . ? 
C15' Si1' C17' C18' -170.1(7) . . . . ? 
C20 O2 C19 O1 -4.1(3) . . . . ? 
C20 O2 C19 C6 174.0(11) . . . . ? 
C20 O2 C19 C6' 174(8) . . . . ? 
C7 C6 C19 O1 12(3) . . . . ? 
S5 C6 C19 O1 -174.2(9) . . . . ? 
C7 C6 C19 O2 -166.1(18) . . . . ? 
S5 C6 C19 O2 7.7(19) . . . . ? 
C5' C6' C19 O1 -174(20) . . . . ? 
S7' C6' C19 O1 7(16) . . . . ? 
C5' C6' C19 O2 8(29) . . . . ? 
S7' C6' C19 O2 -171(7) . . . . ? 
C19 O2 C20 C21 114.7(2) . . . . ? 
C19 O2 C20 C25 -70.3(3) . . . . ? 
C25 C20 C21 C22 1.0(4) . . . . ? 
O2 C20 C21 C22 175.9(2) . . . . ? 
C20 C21 C22 C23 -0.3(4) . . . . ? 
C21 C22 C23 C24 -0.1(4) . . . . ? 
C22 C23 C24 C25 -0.2(4) . . . . ? 
C21 C20 C25 C24 -1.2(4) . . . . ? 
O2 C20 C25 C24 -176.0(2) . . . . ? 
C23 C24 C25 C20 0.8(4) . . . . ? 
 
_diffrn_measured_fraction_theta_max    0.974 
_diffrn_reflns_theta_full              68.24 
_diffrn_measured_fraction_theta_full   0.974 
_refine_diff_density_max    0.438 
_refine_diff_density_min   -0.347 
_refine_diff_density_rms    0.062 
