 
data_x10142 
 
_audit_creation_method            SHELXL-97 
_chemical_name_systematic 
; 
 ? 
; 
_chemical_name_common             ? 
_chemical_melting_point           ? 
_chemical_formula_moiety 
 'C42 H38 F12 O4 S2 Si2' 
_chemical_formula_sum 
 'C42 H38 F12 O4 S2 Si2' 
_chemical_formula_weight          955.02 
 
loop_ 
 _atom_type_symbol 
 _atom_type_description 
 _atom_type_scat_dispersion_real 
 _atom_type_scat_dispersion_imag 
 _atom_type_scat_source 
 'C'  'C'   0.0181   0.0091 
 'International Tables Vol C Tables 4.2.6.8 and 6.1.1.4' 
 'H'  'H'   0.0000   0.0000 
 'International Tables Vol C Tables 4.2.6.8 and 6.1.1.4' 
 'O'  'O'   0.0492   0.0322 
 'International Tables Vol C Tables 4.2.6.8 and 6.1.1.4' 
 'F'  'F'   0.0727   0.0534 
 'International Tables Vol C Tables 4.2.6.8 and 6.1.1.4' 
 'Si'  'Si'   0.2541   0.3302 
 'International Tables Vol C Tables 4.2.6.8 and 6.1.1.4' 
 'S'  'S'   0.3331   0.5567 
 'International Tables Vol C Tables 4.2.6.8 and 6.1.1.4' 
 
_symmetry_cell_setting            triclinic 
_symmetry_space_group_name_H-M    'P -1'
_symmetry_space_group_name_Hall   '-P 1'
 
loop_ 
 _symmetry_equiv_pos_as_xyz 
 'x, y, z' 
 '-x, -y, -z' 
 
_cell_length_a                    6.3369(2) 
_cell_length_b                    10.9733(3) 
_cell_length_c                    16.8510(4) 
_cell_angle_alpha                 74.665(1) 
_cell_angle_beta                  83.637(1) 
_cell_angle_gamma                 76.389(1) 
_cell_volume                      1096.83(5) 
_cell_formula_units_Z             1 
_cell_measurement_temperature     90.0(2) 
_cell_measurement_reflns_used     9915 
_cell_measurement_theta_min       2.72
_cell_measurement_theta_max       68.03
 
_exptl_crystal_description        lath
_exptl_crystal_colour             red 
_exptl_crystal_size_max           0.30 
_exptl_crystal_size_mid           0.12 
_exptl_crystal_size_min           0.03 
_exptl_crystal_density_meas       ? 
_exptl_crystal_density_diffrn     1.446 
_exptl_crystal_density_method     'not measured' 
_exptl_crystal_F_000              490 
_exptl_absorpt_coefficient_mu     2.450 
_exptl_absorpt_correction_type    multi-scan 
_exptl_absorpt_correction_T_min   0.706 
_exptl_absorpt_correction_T_max   0.930 
_exptl_absorpt_process_details    'Sadabs in APEX2 (BrukerAXS, 2006)' 
 
_exptl_special_details 
; 
 ? 
; 
 
_diffrn_ambient_temperature       90.0(2) 
_diffrn_radiation_wavelength      1.54178 
_diffrn_radiation_type            CuK\a 
_diffrn_radiation_source          'fine-focus rotating anode' 
_diffrn_radiation_monochromator   'graded multilayer optics' 
_diffrn_measurement_device_type   'Bruker X8 Proteum diffractometer'
_diffrn_measurement_method        '\f and \w scans'            
_diffrn_detector_area_resol_mean  5.6
_diffrn_standards_number          0 
_diffrn_standards_interval_count  . 
_diffrn_standards_interval_time   . 
_diffrn_standards_decay_%         ? 
_diffrn_reflns_number             14925 
_diffrn_reflns_av_R_equivalents   0.0408 
_diffrn_reflns_av_sigmaI/netI     0.0321 
_diffrn_reflns_limit_h_min        -7 
_diffrn_reflns_limit_h_max        5 
_diffrn_reflns_limit_k_min        -13 
_diffrn_reflns_limit_k_max        13 
_diffrn_reflns_limit_l_min        -19 
_diffrn_reflns_limit_l_max        20 
_diffrn_reflns_theta_min          2.72 
_diffrn_reflns_theta_max          68.53 
_reflns_number_total              3949 
_reflns_number_gt                 3429 
_reflns_threshold_expression      >2\s(I)    
 
_computing_data_collection        'APEX2 (Bruker-AXS, 2006)'            
_computing_cell_refinement        'APEX2'
_computing_data_reduction         'APEX2'
_computing_structure_solution     'SHELXS-97 (Sheldrick, 2008)' 
_computing_structure_refinement   'SHELXL-97 (Sheldrick, 2008)' 
_computing_molecular_graphics     'XP in SHELXTL (Sheldrick, 2008)'
_computing_publication_material
; 
SHELX-97 (Sheldrick, 2008) and local procedures 
; 
 
_publ_section_exptl_refinement
;
H atoms were found in difference Fourier maps and subsequently placed in
idealized positions with constrained distances of 
0.98 \%A (RCH~3~),
0.99 \%A (R~2~CH~2~),
1.00 \%A (R~3~CH),
0.95 \%A (C~Ar~H),
and with U~iso~(H) values set to either 1.2U~eq~ or 1.5U~eq~ (RCH~3~) 
of the attached atom. 
;

_refine_special_details 
; 
 Refinement of F^2^ against ALL reflections.  The weighted R-factor wR and 
 goodness of fit S are based on F^2^, conventional R-factors R are based 
 on F, with F set to zero for negative F^2^. The threshold expression of 
 F^2^ > 2\s(F^2^) is used only for calculating R-factors(gt) etc. and is 
 not relevant to the choice of reflections for refinement.  R-factors based 
 on F^2^ are statistically about twice as large as those based on F, and R- 
 factors based on ALL data will be even larger. 
; 
 
_refine_ls_structure_factor_coef  Fsqd  
_refine_ls_matrix_type            full 
_refine_ls_weighting_scheme       calc  
_refine_ls_weighting_details 
 'calc w=1/[\s^2^(Fo^2^)+(0.0652P)^2^+1.4421P] where P=(Fo^2^+2Fc^2^)/3' 
_atom_sites_solution_primary      direct 
_atom_sites_solution_secondary    difmap 
_atom_sites_solution_hydrogens    geom 
_refine_ls_hydrogen_treatment     constr 
_refine_ls_extinction_method      none 
_refine_ls_extinction_coef        ? 
_refine_ls_number_reflns          3949 
_refine_ls_number_parameters      365 
_refine_ls_number_restraints      196 
_refine_ls_R_factor_all           0.0671 
_refine_ls_R_factor_gt            0.0584 
_refine_ls_wR_factor_ref          0.1554 
_refine_ls_wR_factor_gt           0.1452 
_refine_ls_goodness_of_fit_ref    1.055 
_refine_ls_restrained_S_all       1.147 
_refine_ls_shift/su_max           0.002 
_refine_ls_shift/su_mean          0.000 
 
loop_ 
 _atom_site_label 
 _atom_site_type_symbol 
 _atom_site_fract_x 
 _atom_site_fract_y 
 _atom_site_fract_z 
 _atom_site_U_iso_or_equiv 
 _atom_site_adp_type 
 _atom_site_occupancy 
 _atom_site_symmetry_multiplicity 
 _atom_site_calc_flag 
 _atom_site_refinement_flags 
 _atom_site_disorder_assembly 
 _atom_site_disorder_group 
Si1 Si 0.05509(13) 0.85558(8) 0.70420(5) 0.0368(2) Uani 1 1 d . . . 
C1 C 0.4039(4) 0.5836(2) 0.55151(16) 0.0314(6) Uani 1 1 d . . . 
C2 C 0.2888(4) 0.5803(2) 0.48535(16) 0.0306(6) Uani 1 1 d . B . 
C3 C 0.0794(4) 0.6586(3) 0.46943(17) 0.0336(6) Uani 1 1 d . . . 
H3 H 0.0122 0.7137 0.5043 0.040 Uiso 1 1 calc R A 1 
C4 C -0.0267(4) 0.6552(3) 0.40408(17) 0.0337(6) Uani 0.756(2) 1 d PDU B 1 
S5 S -0.28713(17) 0.74957(10) 0.37829(6) 0.0359(3) Uani 0.756(2) 1 d PDU B 1 
C6 C -0.2698(13) 0.6777(8) 0.2969(5) 0.0308(17) Uani 0.756(2) 1 d PDU B 1 
C7 C -0.0798(9) 0.5915(5) 0.2883(3) 0.0286(8) Uani 0.756(2) 1 d PDU B 1 
H7 H -0.0493 0.5480 0.2452 0.034 Uiso 0.756(2) 1 calc PR B 1 
C8 C 0.0700(5) 0.5729(3) 0.35100(17) 0.0349(6) Uani 0.756(2) 1 d PDU B 1 
C19 C -0.4584(8) 0.7217(4) 0.2487(3) 0.0385(10) Uani 0.756(2) 1 d PDU B 1 
O1 O -0.6265(5) 0.7883(3) 0.2647(2) 0.0505(8) Uani 0.756(2) 1 d PDU B 1 
O2 O -0.4195(7) 0.6763(5) 0.1784(2) 0.0474(10) Uani 0.756(2) 1 d PDU B 1 
C20 C -0.5952(9) 0.7115(5) 0.1262(3) 0.0589(12) Uani 0.756(2) 1 d PDU B 1 
H20 H -0.7330 0.7356 0.1590 0.071 Uiso 0.756(2) 1 calc PR B 1 
C21 C -0.5663(12) 0.8279(7) 0.0579(4) 0.087(2) Uani 0.756(2) 1 d PDU B 1 
F1 F -0.5568(7) 0.9264(4) 0.0876(2) 0.0946(12) Uani 0.756(2) 1 d PDU B 1 
F2 F -0.7321(9) 0.8671(5) 0.0090(3) 0.132(2) Uani 0.756(2) 1 d PDU B 1 
F3 F -0.3816(10) 0.8049(5) 0.0123(3) 0.1164(15) Uani 0.756(2) 1 d PDU B 1 
C22 C -0.6031(11) 0.5932(8) 0.0975(4) 0.0603(15) Uani 0.756(2) 1 d PDU B 1 
F4 F -0.7666(6) 0.6152(4) 0.0512(2) 0.0790(10) Uani 0.756(2) 1 d PDU B 1 
F5 F -0.4189(7) 0.5546(4) 0.0546(2) 0.0858(11) Uani 0.756(2) 1 d PDU B 1 
F6 F -0.6234(5) 0.4976(3) 0.16307(18) 0.0683(8) Uani 0.756(2) 1 d PDU B 1 
C4' C -0.0267(4) 0.6552(3) 0.40408(17) 0.0337(6) Uani 0.244(2) 1 d PDU B 2 
C5' C -0.221(2) 0.7087(13) 0.3657(8) 0.0359(3) Uani 0.244(2) 1 d PDU B 2 
H5' H -0.3371 0.7552 0.3939 0.043 Uiso 0.244(2) 1 calc PR B 2 
C6' C -0.254(5) 0.698(3) 0.2889(18) 0.0308(17) Uani 0.244(2) 1 d PDU B 2 
S7' S -0.0550(6) 0.5764(4) 0.2591(2) 0.0286(8) Uani 0.244(2) 1 d PDU B 2 
C8' C 0.0700(5) 0.5729(3) 0.35100(17) 0.0349(6) Uani 0.244(2) 1 d PDU B 2 
C19' C -0.429(3) 0.7529(15) 0.2255(10) 0.0385(10) Uani 0.244(2) 1 d PDU B 2 
O1' O -0.5767(16) 0.8377(10) 0.2295(7) 0.0505(8) Uani 0.244(2) 1 d PDU B 2 
O2' O -0.381(3) 0.6969(19) 0.1607(8) 0.0474(10) Uani 0.244(2) 1 d PDU B 2 
C20' C -0.516(2) 0.7515(17) 0.0920(9) 0.0589(12) Uani 0.244(2) 1 d PDU B 2 
H20' H -0.6088 0.8369 0.0966 0.071 Uiso 0.244(2) 1 calc PR B 2 
C21' C -0.360(4) 0.769(2) 0.0166(13) 0.1164(15) Uani 0.244(2) 1 d PDU B 2 
F1' F -0.234(2) 0.6611(16) 0.0089(7) 0.114(4) Uani 0.244(2) 1 d PDU B 2 
F2' F -0.475(2) 0.8233(16) -0.0498(8) 0.118(4) Uani 0.244(2) 1 d PDU B 2 
F3' F -0.234(2) 0.8476(16) 0.0234(9) 0.127(4) Uani 0.244(2) 1 d PDU B 2 
C22' C -0.656(3) 0.6574(18) 0.0935(10) 0.0603(15) Uani 0.244(2) 1 d PDU B 2 
F4' F -0.795(2) 0.6607(19) 0.1573(9) 0.135(5) Uani 0.244(2) 1 d PDU B 2 
F5' F -0.789(3) 0.7082(19) 0.0288(10) 0.127(5) Uani 0.244(2) 1 d PDU B 2 
F6' F -0.550(4) 0.5434(18) 0.0871(16) 0.120(6) Uani 0.244(2) 1 d PDU B 2 
C9 C 0.2711(5) 0.4936(3) 0.36596(17) 0.0342(6) Uani 1 1 d . . . 
H9 H 0.3331 0.4372 0.3314 0.041 Uiso 1 1 calc R B 1 
C10 C 0.3867(4) 0.4953(2) 0.43243(16) 0.0316(6) Uani 1 1 d . . . 
C11 C 0.3043(5) 0.6695(3) 0.60293(17) 0.0340(6) Uani 1 1 d . . . 
C12 C 0.2160(5) 0.7413(3) 0.64504(18) 0.0381(6) Uani 1 1 d . . . 
C13 C -0.1197(6) 0.7654(4) 0.7832(2) 0.0541(9) Uani 1 1 d . . . 
H13A H -0.2285 0.8279 0.8077 0.065 Uiso 1 1 calc R . . 
H13B H -0.1994 0.7216 0.7559 0.065 Uiso 1 1 calc R . . 
C14 C 0.0079(9) 0.6649(4) 0.8518(3) 0.0798(14) Uani 1 1 d . . . 
H14A H 0.1257 0.6079 0.8277 0.120 Uiso 1 1 calc R . . 
H14B H -0.0892 0.6135 0.8874 0.120 Uiso 1 1 calc R . . 
H14C H 0.0695 0.7087 0.8845 0.120 Uiso 1 1 calc R . . 
C15 C 0.2426(5) 0.9146(3) 0.7557(2) 0.0465(7) Uani 1 1 d . . . 
H15A H 0.3400 0.8392 0.7896 0.056 Uiso 1 1 calc R . . 
H15B H 0.3342 0.9623 0.7130 0.056 Uiso 1 1 calc R . . 
C16 C 0.1241(6) 1.0032(3) 0.8108(2) 0.0499(8) Uani 1 1 d . . . 
H16A H 0.0274 1.0783 0.7777 0.075 Uiso 1 1 calc R . . 
H16B H 0.2309 1.0325 0.8350 0.075 Uiso 1 1 calc R . . 
H16C H 0.0384 0.9555 0.8549 0.075 Uiso 1 1 calc R . . 
C17 C -0.1107(7) 0.9912(4) 0.6290(2) 0.0626(11) Uani 1 1 d . . . 
H17A H -0.1992 1.0531 0.6594 0.075 Uiso 1 1 calc R . . 
H17B H -0.0104 1.0371 0.5895 0.075 Uiso 1 1 calc R . . 
C18 C -0.2615(7) 0.9534(4) 0.5804(2) 0.0685(12) Uani 1 1 d . . . 
H18A H -0.1762 0.8941 0.5485 0.103 Uiso 1 1 calc R . . 
H18B H -0.3401 1.0312 0.5428 0.103 Uiso 1 1 calc R . . 
H18C H -0.3658 0.9107 0.6184 0.103 Uiso 1 1 calc R . . 
 
loop_ 
 _atom_site_aniso_label 
 _atom_site_aniso_U_11 
 _atom_site_aniso_U_22 
 _atom_site_aniso_U_33 
 _atom_site_aniso_U_23 
 _atom_site_aniso_U_13 
 _atom_site_aniso_U_12 
Si1 0.0367(4) 0.0378(4) 0.0372(4) -0.0146(3) -0.0072(3) -0.0023(3) 
C1 0.0393(15) 0.0240(13) 0.0307(13) -0.0056(10) -0.0054(11) -0.0058(11) 
C2 0.0352(14) 0.0244(12) 0.0311(13) -0.0027(10) -0.0073(11) -0.0063(10) 
C3 0.0367(14) 0.0251(13) 0.0377(15) -0.0050(11) -0.0047(11) -0.0059(11) 
C4 0.0361(14) 0.0259(13) 0.0368(14) -0.0004(11) -0.0069(11) -0.0083(11) 
S5 0.0353(5) 0.0315(6) 0.0416(5) -0.0128(4) -0.0097(4) -0.0005(4) 
C6 0.0331(19) 0.025(3) 0.036(2) -0.005(2) -0.0075(18) -0.010(2) 
C7 0.0318(12) 0.0297(13) 0.028(2) -0.0136(14) -0.0054(15) -0.0058(9) 
C8 0.0439(15) 0.0275(13) 0.0353(14) -0.0025(11) -0.0108(12) -0.0132(11) 
C19 0.041(2) 0.033(3) 0.040(3) 0.0023(19) -0.0106(19) -0.0125(17) 
O1 0.0384(16) 0.0390(19) 0.068(2) -0.0024(15) -0.0147(15) -0.0027(12) 
O2 0.044(2) 0.068(2) 0.035(2) -0.0076(18) -0.0145(16) -0.0210(15) 
C20 0.060(3) 0.073(3) 0.047(3) 0.005(2) -0.031(2) -0.030(2) 
C21 0.103(5) 0.105(5) 0.056(3) 0.021(3) -0.042(3) -0.055(4) 
F1 0.114(3) 0.085(2) 0.085(2) 0.0261(18) -0.052(2) -0.053(2) 
F2 0.168(4) 0.132(3) 0.098(3) 0.049(2) -0.101(3) -0.079(3) 
F3 0.144(3) 0.148(4) 0.0573(19) 0.010(2) 0.000(2) -0.075(3) 
C22 0.062(4) 0.072(4) 0.053(3) -0.016(3) -0.019(2) -0.019(3) 
F4 0.085(2) 0.103(3) 0.0633(19) -0.0102(18) -0.0381(16) -0.043(2) 
F5 0.084(2) 0.135(3) 0.0581(19) -0.042(2) -0.0048(17) -0.041(2) 
F6 0.088(2) 0.0767(19) 0.0503(16) -0.0077(14) -0.0201(14) -0.0393(16) 
C4' 0.0361(14) 0.0259(13) 0.0368(14) -0.0004(11) -0.0069(11) -0.0083(11) 
C5' 0.0353(5) 0.0315(6) 0.0416(5) -0.0128(4) -0.0097(4) -0.0005(4) 
C6' 0.0331(19) 0.025(3) 0.036(2) -0.005(2) -0.0075(18) -0.010(2) 
S7' 0.0318(12) 0.0297(13) 0.028(2) -0.0136(14) -0.0054(15) -0.0058(9) 
C8' 0.0439(15) 0.0275(13) 0.0353(14) -0.0025(11) -0.0108(12) -0.0132(11) 
C19' 0.041(2) 0.033(3) 0.040(3) 0.0023(19) -0.0106(19) -0.0125(17) 
O1' 0.0384(16) 0.0390(19) 0.068(2) -0.0024(15) -0.0147(15) -0.0027(12) 
O2' 0.044(2) 0.068(2) 0.035(2) -0.0076(18) -0.0145(16) -0.0210(15) 
C20' 0.060(3) 0.073(3) 0.047(3) 0.005(2) -0.031(2) -0.030(2) 
C21' 0.144(3) 0.148(4) 0.0573(19) 0.010(2) 0.000(2) -0.075(3) 
F1' 0.098(7) 0.171(7) 0.072(6) -0.032(6) -0.001(5) -0.026(6) 
F2' 0.107(8) 0.171(9) 0.073(5) -0.022(6) -0.022(5) -0.022(6) 
F3' 0.107(8) 0.168(9) 0.111(8) -0.007(7) -0.009(6) -0.067(7) 
C22' 0.062(4) 0.072(4) 0.053(3) -0.016(3) -0.019(2) -0.019(3) 
F4' 0.120(8) 0.196(10) 0.105(7) -0.040(7) 0.027(6) -0.075(7) 
F5' 0.112(8) 0.178(10) 0.118(7) -0.047(8) -0.062(6) -0.045(7) 
F6' 0.125(10) 0.124(8) 0.135(11) -0.050(8) -0.033(7) -0.039(7) 
C9 0.0433(15) 0.0285(13) 0.0319(14) -0.0060(11) -0.0080(11) -0.0084(11) 
C10 0.0386(14) 0.0256(13) 0.0307(13) -0.0043(10) -0.0081(11) -0.0074(11) 
C11 0.0390(15) 0.0300(14) 0.0331(14) -0.0074(11) -0.0083(11) -0.0050(11) 
C12 0.0387(15) 0.0347(15) 0.0408(15) -0.0098(12) -0.0094(12) -0.0039(12) 
C13 0.056(2) 0.070(2) 0.0468(18) -0.0242(17) -0.0007(15) -0.0242(17) 
C14 0.126(4) 0.073(3) 0.051(2) -0.005(2) -0.023(2) -0.045(3) 
C15 0.0410(16) 0.0463(18) 0.0580(19) -0.0235(15) -0.0057(14) -0.0071(13) 
C16 0.0537(19) 0.0501(19) 0.0537(19) -0.0250(16) -0.0130(15) -0.0079(15) 
C17 0.082(3) 0.048(2) 0.052(2) -0.0217(16) -0.0229(18) 0.0165(18) 
C18 0.061(2) 0.084(3) 0.049(2) -0.026(2) -0.0210(17) 0.026(2) 
 
_geom_special_details 
; 
 All esds (except the esd in the dihedral angle between two l.s. planes) 
 are estimated using the full covariance matrix.  The cell esds are taken 
 into account individually in the estimation of esds in distances, angles 
 and torsion angles; correlations between esds in cell parameters are only 
 used when they are defined by crystal symmetry.  An approximate (isotropic) 
 treatment of cell esds is used for estimating esds involving l.s. planes. 
; 
 
loop_ 
 _geom_bond_atom_site_label_1 
 _geom_bond_atom_site_label_2 
 _geom_bond_distance 
 _geom_bond_site_symmetry_2 
 _geom_bond_publ_flag 
Si1 C12 1.855(3) . ? 
Si1 C13 1.863(4) . ? 
Si1 C15 1.864(3) . ? 
Si1 C17 1.867(4) . ? 
C1 C2 1.411(4) . ? 
C1 C10 1.414(4) 2_666 ? 
C1 C11 1.439(4) . ? 
C2 C3 1.411(4) . ? 
C2 C10 1.447(4) . ? 
C3 C4 1.365(4) . ? 
C3 H3 0.9500 . ? 
C4 C8 1.428(4) . ? 
C4 S5 1.761(3) . ? 
S5 C6 1.736(9) . ? 
C6 C7 1.365(9) . ? 
C6 C19 1.435(8) . ? 
C7 C8 1.441(6) . ? 
C7 H7 0.9500 . ? 
C8 C9 1.370(4) . ? 
C19 O1 1.190(5) . ? 
C19 O2 1.379(6) . ? 
O2 C20 1.413(6) . ? 
C20 C21 1.508(8) . ? 
C20 C22 1.512(9) . ? 
C20 H20 1.0000 . ? 
C21 F1 1.322(8) . ? 
C21 F2 1.327(7) . ? 
C21 F3 1.337(9) . ? 
C22 F4 1.305(7) . ? 
C22 F6 1.326(8) . ? 
C22 F5 1.345(8) . ? 
C5' C6' 1.37(2) . ? 
C5' H5' 0.9500 . ? 
C6' C19' 1.53(2) . ? 
C6' S7' 1.75(3) . ? 
C19' O1' 1.164(15) . ? 
C19' O2' 1.363(16) . ? 
O2' C20' 1.429(15) . ? 
C20' C22' 1.504(17) . ? 
C20' C21' 1.52(2) . ? 
C20' H20' 1.0000 . ? 
C21' F1' 1.29(2) . ? 
C21' F2' 1.33(2) . ? 
C21' F3' 1.34(2) . ? 
C22' F6' 1.299(18) . ? 
C22' F4' 1.316(17) . ? 
C22' F5' 1.371(16) . ? 
C9 C10 1.411(4) . ? 
C9 H9 0.9500 . ? 
C10 C1 1.414(4) 2_666 ? 
C11 C12 1.199(4) . ? 
C13 C14 1.523(6) . ? 
C13 H13A 0.9900 . ? 
C13 H13B 0.9900 . ? 
C14 H14A 0.9800 . ? 
C14 H14B 0.9800 . ? 
C14 H14C 0.9800 . ? 
C15 C16 1.532(4) . ? 
C15 H15A 0.9900 . ? 
C15 H15B 0.9900 . ? 
C16 H16A 0.9800 . ? 
C16 H16B 0.9800 . ? 
C16 H16C 0.9800 . ? 
C17 C18 1.515(6) . ? 
C17 H17A 0.9900 . ? 
C17 H17B 0.9900 . ? 
C18 H18A 0.9800 . ? 
C18 H18B 0.9800 . ? 
C18 H18C 0.9800 . ? 
 
loop_ 
 _geom_angle_atom_site_label_1 
 _geom_angle_atom_site_label_2 
 _geom_angle_atom_site_label_3 
 _geom_angle 
 _geom_angle_site_symmetry_1 
 _geom_angle_site_symmetry_3 
 _geom_angle_publ_flag 
C12 Si1 C13 107.44(16) . . ? 
C12 Si1 C15 109.50(14) . . ? 
C13 Si1 C15 109.81(16) . . ? 
C12 Si1 C17 106.89(15) . . ? 
C13 Si1 C17 111.6(2) . . ? 
C15 Si1 C17 111.44(17) . . ? 
C2 C1 C10 121.2(2) . 2_666 ? 
C2 C1 C11 118.7(2) . . ? 
C10 C1 C11 120.1(2) 2_666 . ? 
C1 C2 C3 121.3(2) . . ? 
C1 C2 C10 119.6(2) . . ? 
C3 C2 C10 119.1(2) . . ? 
C4 C3 C2 120.1(3) . . ? 
C4 C3 H3 119.9 . . ? 
C2 C3 H3 119.9 . . ? 
C3 C4 C8 121.1(2) . . ? 
C3 C4 S5 123.8(2) . . ? 
C8 C4 S5 115.1(2) . . ? 
C6 S5 C4 88.0(2) . . ? 
C7 C6 C19 130.8(7) . . ? 
C7 C6 S5 115.4(4) . . ? 
C19 C6 S5 113.7(6) . . ? 
C6 C7 C8 113.5(5) . . ? 
C6 C7 H7 123.3 . . ? 
C8 C7 H7 123.3 . . ? 
C9 C8 C4 120.1(2) . . ? 
C9 C8 C7 131.9(3) . . ? 
C4 C8 C7 108.0(3) . . ? 
O1 C19 O2 123.1(5) . . ? 
O1 C19 C6 126.6(6) . . ? 
O2 C19 C6 110.3(5) . . ? 
C19 O2 C20 115.7(5) . . ? 
O2 C20 C21 108.9(4) . . ? 
O2 C20 C22 107.2(5) . . ? 
C21 C20 C22 114.7(5) . . ? 
O2 C20 H20 108.6 . . ? 
C21 C20 H20 108.6 . . ? 
C22 C20 H20 108.6 . . ? 
F1 C21 F2 107.1(6) . . ? 
F1 C21 F3 106.0(6) . . ? 
F2 C21 F3 108.9(6) . . ? 
F1 C21 C20 111.3(5) . . ? 
F2 C21 C20 111.0(5) . . ? 
F3 C21 C20 112.4(6) . . ? 
F4 C22 F6 109.0(5) . . ? 
F4 C22 F5 108.4(5) . . ? 
F6 C22 F5 108.0(6) . . ? 
F4 C22 C20 111.6(6) . . ? 
F6 C22 C20 108.7(5) . . ? 
F5 C22 C20 111.2(5) . . ? 
C6' C5' H5' 118.3 . . ? 
C5' C6' C19' 138(2) . . ? 
C5' C6' S7' 111.4(13) . . ? 
C19' C6' S7' 110.4(16) . . ? 
O1' C19' O2' 124.2(17) . . ? 
O1' C19' C6' 124.2(17) . . ? 
O2' C19' C6' 111.3(16) . . ? 
C19' O2' C20' 116.9(16) . . ? 
O2' C20' C22' 106.9(13) . . ? 
O2' C20' C21' 105.4(14) . . ? 
C22' C20' C21' 113.4(14) . . ? 
O2' C20' H20' 110.3 . . ? 
C22' C20' H20' 110.3 . . ? 
C21' C20' H20' 110.3 . . ? 
F1' C21' F2' 110.1(19) . . ? 
F1' C21' F3' 107.3(19) . . ? 
F2' C21' F3' 109.0(18) . . ? 
F1' C21' C20' 112.5(17) . . ? 
F2' C21' C20' 108.8(17) . . ? 
F3' C21' C20' 109.0(17) . . ? 
F6' C22' F4' 116(2) . . ? 
F6' C22' F5' 107.4(17) . . ? 
F4' C22' F5' 102.0(15) . . ? 
F6' C22' C20' 115.1(17) . . ? 
F4' C22' C20' 106.9(14) . . ? 
F5' C22' C20' 108.1(14) . . ? 
C8 C9 C10 120.4(3) . . ? 
C8 C9 H9 119.8 . . ? 
C10 C9 H9 119.8 . . ? 
C9 C10 C1 121.7(3) . 2_666 ? 
C9 C10 C2 119.2(2) . . ? 
C1 C10 C2 119.2(2) 2_666 . ? 
C12 C11 C1 178.2(3) . . ? 
C11 C12 Si1 174.3(3) . . ? 
C14 C13 Si1 113.2(3) . . ? 
C14 C13 H13A 108.9 . . ? 
Si1 C13 H13A 108.9 . . ? 
C14 C13 H13B 108.9 . . ? 
Si1 C13 H13B 108.9 . . ? 
H13A C13 H13B 107.7 . . ? 
C13 C14 H14A 109.5 . . ? 
C13 C14 H14B 109.5 . . ? 
H14A C14 H14B 109.5 . . ? 
C13 C14 H14C 109.5 . . ? 
H14A C14 H14C 109.5 . . ? 
H14B C14 H14C 109.5 . . ? 
C16 C15 Si1 113.4(2) . . ? 
C16 C15 H15A 108.9 . . ? 
Si1 C15 H15A 108.9 . . ? 
C16 C15 H15B 108.9 . . ? 
Si1 C15 H15B 108.9 . . ? 
H15A C15 H15B 107.7 . . ? 
C15 C16 H16A 109.5 . . ? 
C15 C16 H16B 109.5 . . ? 
H16A C16 H16B 109.5 . . ? 
C15 C16 H16C 109.5 . . ? 
H16A C16 H16C 109.5 . . ? 
H16B C16 H16C 109.5 . . ? 
C18 C17 Si1 116.0(3) . . ? 
C18 C17 H17A 108.3 . . ? 
Si1 C17 H17A 108.3 . . ? 
C18 C17 H17B 108.3 . . ? 
Si1 C17 H17B 108.3 . . ? 
H17A C17 H17B 107.4 . . ? 
C17 C18 H18A 109.5 . . ? 
C17 C18 H18B 109.5 . . ? 
H18A C18 H18B 109.5 . . ? 
C17 C18 H18C 109.5 . . ? 
H18A C18 H18C 109.5 . . ? 
H18B C18 H18C 109.5 . . ? 
 
loop_ 
 _geom_torsion_atom_site_label_1 
 _geom_torsion_atom_site_label_2 
 _geom_torsion_atom_site_label_3 
 _geom_torsion_atom_site_label_4 
 _geom_torsion 
 _geom_torsion_site_symmetry_1 
 _geom_torsion_site_symmetry_2 
 _geom_torsion_site_symmetry_3 
 _geom_torsion_site_symmetry_4 
 _geom_torsion_publ_flag 
C10 C1 C2 C3 179.7(2) 2_666 . . . ? 
C11 C1 C2 C3 -0.4(4) . . . . ? 
C10 C1 C2 C10 -0.4(4) 2_666 . . . ? 
C11 C1 C2 C10 179.5(2) . . . . ? 
C1 C2 C3 C4 178.8(2) . . . . ? 
C10 C2 C3 C4 -1.1(4) . . . . ? 
C2 C3 C4 C8 0.3(4) . . . . ? 
C2 C3 C4 S5 -179.5(2) . . . . ? 
C3 C4 S5 C6 -179.4(4) . . . . ? 
C8 C4 S5 C6 0.7(4) . . . . ? 
C4 S5 C6 C7 -1.5(6) . . . . ? 
C4 S5 C6 C19 179.6(6) . . . . ? 
C19 C6 C7 C8 -179.4(7) . . . . ? 
S5 C6 C7 C8 2.0(8) . . . . ? 
C3 C4 C8 C9 1.1(4) . . . . ? 
S5 C4 C8 C9 -179.0(2) . . . . ? 
C3 C4 C8 C7 -179.7(3) . . . . ? 
S5 C4 C8 C7 0.2(4) . . . . ? 
C6 C7 C8 C9 177.7(5) . . . . ? 
C6 C7 C8 C4 -1.3(6) . . . . ? 
C7 C6 C19 O1 172.4(7) . . . . ? 
S5 C6 C19 O1 -8.9(9) . . . . ? 
C7 C6 C19 O2 -8.0(11) . . . . ? 
S5 C6 C19 O2 170.6(4) . . . . ? 
O1 C19 O2 C20 -1.4(6) . . . . ? 
C6 C19 O2 C20 179.0(5) . . . . ? 
C19 O2 C20 C21 97.4(6) . . . . ? 
C19 O2 C20 C22 -137.9(5) . . . . ? 
O2 C20 C21 F1 -58.7(7) . . . . ? 
C22 C20 C21 F1 -178.8(5) . . . . ? 
O2 C20 C21 F2 -177.8(6) . . . . ? 
C22 C20 C21 F2 62.1(9) . . . . ? 
O2 C20 C21 F3 60.0(7) . . . . ? 
C22 C20 C21 F3 -60.1(7) . . . . ? 
O2 C20 C22 F4 177.5(5) . . . . ? 
C21 C20 C22 F4 -61.3(7) . . . . ? 
O2 C20 C22 F6 57.4(6) . . . . ? 
C21 C20 C22 F6 178.5(5) . . . . ? 
O2 C20 C22 F5 -61.3(6) . . . . ? 
C21 C20 C22 F5 59.8(7) . . . . ? 
C5' C6' C19' O1' 10(6) . . . . ? 
S7' C6' C19' O1' -177.6(17) . . . . ? 
C5' C6' C19' O2' -174(4) . . . . ? 
S7' C6' C19' O2' -2(3) . . . . ? 
O1' C19' O2' C20' 3(3) . . . . ? 
C6' C19' O2' C20' -172(2) . . . . ? 
C19' O2' C20' C22' -107.4(17) . . . . ? 
C19' O2' C20' C21' 131.6(17) . . . . ? 
O2' C20' C21' F1' 60(2) . . . . ? 
C22' C20' C21' F1' -57(2) . . . . ? 
O2' C20' C21' F2' -178.2(17) . . . . ? 
C22' C20' C21' F2' 65(2) . . . . ? 
O2' C20' C21' F3' -59(2) . . . . ? 
C22' C20' C21' F3' -175.9(16) . . . . ? 
O2' C20' C22' F6' -61(2) . . . . ? 
C21' C20' C22' F6' 55(2) . . . . ? 
O2' C20' C22' F4' 70.0(18) . . . . ? 
C21' C20' C22' F4' -174.3(16) . . . . ? 
O2' C20' C22' F5' 179.2(15) . . . . ? 
C21' C20' C22' F5' -65.1(19) . . . . ? 
C4 C8 C9 C10 -1.7(4) . . . . ? 
C7 C8 C9 C10 179.3(4) . . . . ? 
C8 C9 C10 C1 -178.9(2) . . . 2_666 ? 
C8 C9 C10 C2 0.9(4) . . . . ? 
C1 C2 C10 C9 -179.4(2) . . . . ? 
C3 C2 C10 C9 0.5(4) . . . . ? 
C1 C2 C10 C1 0.4(4) . . . 2_666 ? 
C3 C2 C10 C1 -179.7(2) . . . 2_666 ? 
C12 Si1 C13 C14 70.3(3) . . . . ? 
C15 Si1 C13 C14 -48.7(3) . . . . ? 
C17 Si1 C13 C14 -172.8(3) . . . . ? 
C12 Si1 C15 C16 -176.3(2) . . . . ? 
C13 Si1 C15 C16 -58.6(3) . . . . ? 
C17 Si1 C15 C16 65.7(3) . . . . ? 
C12 Si1 C17 C18 57.6(3) . . . . ? 
C13 Si1 C17 C18 -59.6(3) . . . . ? 
C15 Si1 C17 C18 177.2(3) . . . . ? 
 
_diffrn_measured_fraction_theta_max    0.974 
_diffrn_reflns_theta_full              68.53 
_diffrn_measured_fraction_theta_full   0.974 
_refine_diff_density_max    0.358 
_refine_diff_density_min   -0.360 
_refine_diff_density_rms    0.061 
