 
data_k04207 
 
_audit_creation_method            SHELXL-97 
_chemical_name_systematic 
; 
 ? 
; 
_chemical_name_common             ? 
_chemical_melting_point           ? 
_chemical_formula_moiety          ? 
_chemical_formula_sum 
 'C54 H74 O S2 Si2' 
_chemical_formula_weight          859.43 
 
loop_ 
 _atom_type_symbol 
 _atom_type_description 
 _atom_type_scat_dispersion_real 
 _atom_type_scat_dispersion_imag 
 _atom_type_scat_source 
 'C'  'C'    .0033    .0016 
 'International Tables Vol C Tables 4.2.6.8 and 6.1.1.4' 
 'H'  'H'    .0000    .0000 
 'International Tables Vol C Tables 4.2.6.8 and 6.1.1.4' 
 'Si'  'Si'    .0817    .0704 
 'International Tables Vol C Tables 4.2.6.8 and 6.1.1.4' 
 'S'  'S'    .1246    .1234 
 'International Tables Vol C Tables 4.2.6.8 and 6.1.1.4' 
 'O'  'O'    .0106    .0060 
 'International Tables Vol C Tables 4.2.6.8 and 6.1.1.4' 
 
_symmetry_cell_setting            triclinic
_symmetry_space_group_name_H-M    'P -1'
 
loop_ 
 _symmetry_equiv_pos_as_xyz 
 'x, y, z' 
 '-x, -y, -z' 
 
_cell_length_a                    12.1861(3) 
_cell_length_b                    13.1744(3) 
_cell_length_c                    17.6042(4) 
_cell_angle_alpha                 100.0786(10) 
_cell_angle_beta                  110.0423(11) 
_cell_angle_gamma                 99.2075(11) 
_cell_volume                      2539.11(10) 
_cell_formula_units_Z             2 
_cell_measurement_temperature     90.0(2) 
_cell_measurement_reflns_used     11442
_cell_measurement_theta_min       1.00
_cell_measurement_theta_max       27.48
 
_exptl_crystal_description        rod
_exptl_crystal_colour             red
_exptl_crystal_size_max           0.40 
_exptl_crystal_size_mid           0.15 
_exptl_crystal_size_min           0.12 
_exptl_crystal_density_meas       ? 
_exptl_crystal_density_diffrn     1.124 
_exptl_crystal_density_method     'not measured' 
_exptl_crystal_F_000              932 
_exptl_absorpt_coefficient_mu     0.188 
_exptl_absorpt_correction_type    none
_exptl_absorpt_correction_T_min   ? 
_exptl_absorpt_correction_T_max   ?
_exptl_absorpt_process_details    ? 
 
_exptl_special_details 
; 
 ? 
; 
 
_diffrn_ambient_temperature       90.0(2) 
_diffrn_radiation_wavelength      0.71073 
_diffrn_radiation_type            MoK\a 
_diffrn_radiation_source          'fine-focus sealed tube' 
_diffrn_radiation_monochromator   graphite 
_diffrn_measurement_device_type   'Nonius KappaCCD diffractometer
_diffrn_measurement_method        '\w scans at fixed \c = 55\%'
_diffrn_detector_area_resol_mean  18
_diffrn_standards_number          ? 
_diffrn_standards_interval_count  ? 
_diffrn_standards_interval_time   ? 
_diffrn_standards_decay_%         ? 
_diffrn_reflns_number             22747 
_diffrn_reflns_av_R_equivalents   0.0608 
_diffrn_reflns_av_sigmaI/netI     0.0867 
_diffrn_reflns_limit_h_min        -15 
_diffrn_reflns_limit_h_max        15 
_diffrn_reflns_limit_k_min        -17 
_diffrn_reflns_limit_k_max        17 
_diffrn_reflns_limit_l_min        -22 
_diffrn_reflns_limit_l_max        22 
_diffrn_reflns_theta_min          1.27 
_diffrn_reflns_theta_max          27.47 
_reflns_number_total              11586 
_reflns_number_gt                 7149 
_reflns_threshold_expression      >2\s(I)    
 
_computing_data_collection        'COLLECT (Nonius, 1998)'
_computing_cell_refinement        'SCALEPACK (Otwinowski & Minor, 1997)'
_computing_data_reduction         'DENZO-SMN (Otwinowski & Minor, 1997)'
_computing_structure_solution     'SHELXS-97 (Sheldrick, 1990)' 
_computing_structure_refinement   'SHELXL-97 (Sheldrick, 1997)' 
_computing_molecular_graphics     'XP in SHELXTL (Sheldrick, 1994)'
_computing_publication_material
; 
SHELX97-2 (Sheldrick, 1997) and local procedures 
; 
 
_refine_special_details 
; 
 Refinement of F^2^ against ALL reflections.  The weighted R-factor wR and 
 goodness of fit S are based on F^2^, conventional R-factors R are based 
 on F, with F set to zero for negative F^2^. The threshold expression of 
 F^2^ > 2sigma(F^2^) is used only for calculating R-factors(gt) etc. and is 
 not relevant to the choice of reflections for refinement.  R-factors based 
 on F^2^ are statistically about twice as large as those based on F, and R- 
 factors based on ALL data will be even larger. 
; 
 
_refine_ls_structure_factor_coef  Fsqd  
_refine_ls_matrix_type            full 
_refine_ls_weighting_scheme       calc  
_refine_ls_weighting_details 
 'calc w=1/[\s^2^(Fo^2^)+(0.0742P)^2^+2.0060P] where P=(Fo^2^+2Fc^2^)/3' 
_atom_sites_solution_primary      direct 
_atom_sites_solution_secondary    difmap 
_atom_sites_solution_hydrogens    geom 
_refine_ls_hydrogen_treatment     constr 
_refine_ls_extinction_method      none 
_refine_ls_extinction_coef        ? 
_refine_ls_number_reflns          11586 
_refine_ls_number_parameters      583 
_refine_ls_number_restraints      62 
_refine_ls_R_factor_all           0.1211 
_refine_ls_R_factor_gt            0.0662 
_refine_ls_wR_factor_ref          0.1805 
_refine_ls_wR_factor_gt           0.1585 
_refine_ls_goodness_of_fit_ref    1.043 
_refine_ls_restrained_S_all       1.046 
_refine_ls_shift/su_max           0.003 
_refine_ls_shift/su_mean          0.000 
 
loop_ 
 _atom_site_label 
 _atom_site_type_symbol 
 _atom_site_fract_x 
 _atom_site_fract_y 
 _atom_site_fract_z 
 _atom_site_U_iso_or_equiv 
 _atom_site_adp_type 
 _atom_site_occupancy 
 _atom_site_symmetry_multiplicity 
 _atom_site_calc_flag 
 _atom_site_refinement_flags 
 _atom_site_disorder_assembly 
 _atom_site_disorder_group 
Si1 Si 1.27141(7) -0.31658(6) 0.23663(5) 0.02296(19) Uani 1 1 d . . . 
Si2 Si 0.66124(7) 0.28761(6) 0.27028(5) 0.02281(19) Uani 1 1 d . B . 
C1 C 1.0486(2) -0.0786(2) 0.25079(17) 0.0233(6) Uani 1 1 d . . . 
C2 C 0.9849(2) -0.0787(2) 0.30522(16) 0.0227(6) Uani 1 1 d . . . 
C3 C 0.9875(2) -0.1523(2) 0.35400(17) 0.0244(6) Uani 1 1 d . . . 
H3 H 1.0314 -0.2050 0.3495 0.029 Uiso 1 1 calc R . . 
C4 C 0.9280(2) -0.1508(2) 0.40892(16) 0.0245(6) Uani 1 1 d . B . 
C5 C 0.9311(2) -0.2245(2) 0.45933(16) 0.0233(6) Uani 1 1 d . . . 
H5 H 0.9734 -0.2783 0.4545 0.028 Uiso 1 1 calc R A 1 
C6 C 0.8759(2) -0.2202(2) 0.51348(15) 0.0290(6) Uani 0.587(3) 1 d PDU B 1 
S7 S 0.8720(4) -0.2990(3) 0.5819(3) 0.0361(5) Uani 0.587(3) 1 d PDU B 1 
C8 C 0.7859(17) -0.2248(11) 0.6213(10) 0.027(2) Uani 0.413(3) 1 d PDU B 1 
H8 H 0.7583 -0.2412 0.6630 0.032 Uiso 0.413(3) 1 calc PR B 1 
C9 C 0.7627(13) -0.1425(12) 0.5869(9) 0.0352(7) Uani 0.587(3) 1 d PDU B 1 
H9 H 0.7199 -0.0938 0.6024 0.042 Uiso 0.587(3) 1 calc PR B 1 
C10 C 0.8124(2) -0.1392(2) 0.52289(16) 0.0276(6) Uani 0.587(3) 1 d PDU B 1 
C6' C 0.8759(2) -0.2202(2) 0.51348(15) 0.0290(6) Uani 0.413(3) 1 d PDU B 2 
C7' C 0.877(3) -0.289(2) 0.5744(17) 0.0361(5) Uani 0.413(3) 1 d PDU B 2 
H7' H 0.9182 -0.3437 0.5830 0.043 Uiso 0.413(3) 1 calc PR B 2 
C8' C 0.8020(14) -0.2536(10) 0.6165(9) 0.049(2) Uani 0.587(3) 1 d PDU B 2 
H8' H 0.7866 -0.2874 0.6564 0.059 Uiso 0.587(3) 1 calc PR B 2 
S9' S 0.7434(4) -0.1523(4) 0.5934(3) 0.0352(7) Uani 0.413(3) 1 d PDU B 2 
C10' C 0.8124(2) -0.1392(2) 0.52289(16) 0.0276(6) Uani 0.413(3) 1 d PDU B 2 
C11 C 0.8061(2) -0.0657(2) 0.47572(16) 0.0231(6) Uani 1 1 d . . . 
H11 H 0.7640 -0.0122 0.4824 0.028 Uiso 1 1 calc R B 1 
C12 C 0.8627(2) -0.0695(2) 0.41678(16) 0.0230(6) Uani 1 1 d . B . 
C13 C 0.8576(2) 0.0018(2) 0.36708(17) 0.0242(6) Uani 1 1 d . . . 
H13 H 0.8127 0.0537 0.3711 0.029 Uiso 1 1 calc R B . 
C14 C 0.9164(2) 0.0002(2) 0.31108(16) 0.0221(6) Uani 1 1 d . B . 
C15 C 0.9102(2) 0.0736(2) 0.26079(16) 0.0221(6) Uani 1 1 d . . . 
C16 C 0.9758(2) 0.0747(2) 0.20826(16) 0.0231(6) Uani 1 1 d . B . 
C17 C 0.9744(2) 0.1504(2) 0.16000(17) 0.0247(6) Uani 1 1 d . . . 
H17 H 0.9289 0.2022 0.1627 0.030 Uiso 1 1 calc R B 1 
C18 C 1.0388(2) 0.1491(2) 0.10936(15) 0.0270(6) Uani 0.587(3) 1 d PD B 1 
S19 S 1.0509(3) 0.2305(2) 0.04405(16) 0.0284(4) Uani 0.587(3) 1 d PD B 1 
C20 C 1.1464(5) 0.1610(4) 0.0118(4) 0.0297(14) Uani 0.587(3) 1 d PDU B 1 
H20 H 1.1810 0.1805 -0.0259 0.036 Uiso 0.587(3) 1 calc PR B 1 
C21 C 1.1659(15) 0.0776(12) 0.0455(10) 0.0388(8) Uani 0.587(3) 1 d PD B 1 
H21 H 1.2110 0.0297 0.0322 0.047 Uiso 0.587(3) 1 calc PR B 1 
C22 C 1.1081(2) 0.0716(2) 0.10502(16) 0.0268(6) Uani 0.587(3) 1 d PD B 1 
C18' C 1.0388(2) 0.1491(2) 0.10936(15) 0.0270(6) Uani 0.413(3) 1 d PD B 2 
C19' C 1.0470(18) 0.2185(14) 0.0578(11) 0.0284(4) Uani 0.413(3) 1 d PD B 2 
H19' H 1.0061 0.2742 0.0553 0.034 Uiso 0.413(3) 1 calc PR B 2 
C20' C 1.1139(8) 0.2035(7) 0.0130(6) 0.037(2) Uani 0.413(3) 1 d PDU B 2 
H20' H 1.1259 0.2433 -0.0248 0.044 Uiso 0.413(3) 1 calc PR B 2 
S21' S 1.1762(5) 0.0951(4) 0.0370(4) 0.0388(8) Uani 0.413(3) 1 d PD B 2 
C22' C 1.1081(2) 0.0716(2) 0.10502(16) 0.0268(6) Uani 0.413(3) 1 d PD B 2 
C23 C 1.1119(2) -0.0012(2) 0.15073(17) 0.0253(6) Uani 1 1 d . . . 
H23 H 1.1590 -0.0516 0.1476 0.030 Uiso 1 1 calc R B 1 
C24 C 1.0460(2) -0.0030(2) 0.20343(16) 0.0228(6) Uani 1 1 d . B . 
C25 C 1.1174(2) -0.1565(2) 0.24541(17) 0.0253(6) Uani 1 1 d . . . 
C26 C 1.1763(2) -0.2214(2) 0.24112(17) 0.0267(6) Uani 1 1 d . . . 
C27 C 1.2660(3) -0.3432(2) 0.12401(17) 0.0281(6) Uani 1 1 d . . . 
C28 C 1.1453(3) -0.4161(3) 0.06216(19) 0.0409(8) Uani 1 1 d . . . 
H28A H 1.0794 -0.3854 0.0676 0.061 Uiso 1 1 calc R . . 
H28B H 1.1369 -0.4861 0.0743 0.061 Uiso 1 1 calc R . . 
H28C H 1.1424 -0.4233 0.0051 0.061 Uiso 1 1 calc R . . 
C29 C 1.2770(3) -0.2395(3) 0.09473(19) 0.0381(8) Uani 1 1 d . . . 
H29A H 1.2777 -0.2549 0.0384 0.057 Uiso 1 1 calc R . . 
H29B H 1.3518 -0.1887 0.1331 0.057 Uiso 1 1 calc R . . 
H29C H 1.2084 -0.2092 0.0941 0.057 Uiso 1 1 calc R . . 
C30 C 1.3654(3) -0.3967(3) 0.11482(19) 0.0388(8) Uani 1 1 d . . . 
H30A H 1.3567 -0.4643 0.1308 0.058 Uiso 1 1 calc R . . 
H30B H 1.4442 -0.3503 0.1511 0.058 Uiso 1 1 calc R . . 
H30C H 1.3587 -0.4099 0.0567 0.058 Uiso 1 1 calc R . . 
C31 C 1.4283(3) -0.2445(2) 0.32038(18) 0.0304(7) Uani 1 1 d . . . 
C32 C 1.4910(3) -0.1594(3) 0.2893(2) 0.0437(8) Uani 1 1 d . . . 
H32A H 1.5688 -0.1212 0.3333 0.066 Uiso 1 1 calc R . . 
H32B H 1.4406 -0.1093 0.2748 0.066 Uiso 1 1 calc R . . 
H32C H 1.5036 -0.1935 0.2398 0.066 Uiso 1 1 calc R . . 
C33 C 1.5117(3) -0.3205(3) 0.3426(2) 0.0393(8) Uani 1 1 d . . . 
H33A H 1.5178 -0.3588 0.2918 0.059 Uiso 1 1 calc R . . 
H33B H 1.4786 -0.3714 0.3682 0.059 Uiso 1 1 calc R . . 
H33C H 1.5918 -0.2795 0.3819 0.059 Uiso 1 1 calc R . . 
C34 C 1.4190(3) -0.1849(3) 0.4002(2) 0.0455(9) Uani 1 1 d . . . 
H34A H 1.3850 -0.2360 0.4253 0.068 Uiso 1 1 calc R . . 
H34B H 1.3667 -0.1360 0.3864 0.068 Uiso 1 1 calc R . . 
H34C H 1.4992 -0.1447 0.4398 0.068 Uiso 1 1 calc R . . 
C35 C 1.1980(3) -0.4409(2) 0.26161(19) 0.0309(7) Uani 1 1 d . . . 
C36 C 1.2482(3) -0.5370(2) 0.2397(2) 0.0405(8) Uani 1 1 d . . . 
H36A H 1.2100 -0.5979 0.2543 0.061 Uiso 1 1 calc R . . 
H36B H 1.3353 -0.5197 0.2710 0.061 Uiso 1 1 calc R . . 
H36C H 1.2313 -0.5547 0.1797 0.061 Uiso 1 1 calc R . . 
C37 C 1.2201(3) -0.4189(3) 0.3554(2) 0.0489(9) Uani 1 1 d . . . 
H37A H 1.1975 -0.3529 0.3722 0.073 Uiso 1 1 calc R . . 
H37B H 1.3054 -0.4118 0.3880 0.073 Uiso 1 1 calc R . . 
H37C H 1.1714 -0.4778 0.3655 0.073 Uiso 1 1 calc R . . 
C38 C 1.0610(3) -0.4711(3) 0.2144(2) 0.0487(9) Uani 1 1 d . . . 
H38A H 1.0259 -0.5327 0.2299 0.073 Uiso 1 1 calc R . . 
H38B H 1.0420 -0.4888 0.1542 0.073 Uiso 1 1 calc R . . 
H38C H 1.0275 -0.4112 0.2291 0.073 Uiso 1 1 calc R . . 
C39 C 0.8337(2) 0.1453(2) 0.26226(16) 0.0235(6) Uani 1 1 d . B . 
C40 C 0.7646(2) 0.2020(2) 0.26340(16) 0.0237(6) Uani 1 1 d . . . 
C41 C 0.6303(2) 0.3469(2) 0.17452(18) 0.0275(6) Uani 1 1 d . . . 
C42 C 0.5403(3) 0.2668(2) 0.09404(18) 0.0341(7) Uani 1 1 d . B . 
H42A H 0.5312 0.2984 0.0465 0.051 Uiso 1 1 calc R . . 
H42B H 0.4622 0.2483 0.0988 0.051 Uiso 1 1 calc R . . 
H42C H 0.5701 0.2026 0.0855 0.051 Uiso 1 1 calc R . . 
C43 C 0.7471(3) 0.3770(2) 0.15910(19) 0.0331(7) Uani 1 1 d . B . 
H43A H 0.7774 0.3135 0.1489 0.050 Uiso 1 1 calc R . . 
H43B H 0.8075 0.4295 0.2082 0.050 Uiso 1 1 calc R . . 
H43C H 0.7305 0.4071 0.1104 0.050 Uiso 1 1 calc R . . 
C44 C 0.5802(3) 0.4463(2) 0.1853(2) 0.0336(7) Uani 1 1 d . B . 
H44A H 0.6405 0.5023 0.2321 0.050 Uiso 1 1 calc R . . 
H44B H 0.5070 0.4287 0.1966 0.050 Uiso 1 1 calc R . . 
H44C H 0.5613 0.4713 0.1341 0.050 Uiso 1 1 calc R . . 
C45 C 0.7478(3) 0.3927(2) 0.37438(18) 0.0317(7) Uani 1 1 d . . . 
C46 C 0.8481(3) 0.4735(3) 0.3684(2) 0.0411(8) Uani 1 1 d . B . 
H46A H 0.8125 0.5156 0.3300 0.062 Uiso 1 1 calc R . . 
H46B H 0.8993 0.4359 0.3476 0.062 Uiso 1 1 calc R . . 
H46C H 0.8966 0.5205 0.4237 0.062 Uiso 1 1 calc R . . 
C47 C 0.6651(3) 0.4522(3) 0.4038(2) 0.0404(8) Uani 1 1 d . B . 
H47A H 0.7130 0.5047 0.4568 0.061 Uiso 1 1 calc R . . 
H47B H 0.6042 0.4015 0.4116 0.061 Uiso 1 1 calc R . . 
H47C H 0.6255 0.4883 0.3617 0.061 Uiso 1 1 calc R . . 
C48 C 0.8120(3) 0.3390(3) 0.44277(18) 0.0391(8) Uani 1 1 d . B . 
H48A H 0.8603 0.3933 0.4946 0.059 Uiso 1 1 calc R . . 
H48B H 0.8645 0.3001 0.4247 0.059 Uiso 1 1 calc R . . 
H48C H 0.7519 0.2895 0.4523 0.059 Uiso 1 1 calc R . . 
C49 C 0.5190(3) 0.1961(2) 0.26951(18) 0.0284(6) Uani 1 1 d . . . 
C50 C 0.4817(3) 0.0924(2) 0.2021(2) 0.0335(7) Uani 1 1 d . B . 
H50A H 0.5464 0.0547 0.2145 0.050 Uiso 1 1 calc R . . 
H50B H 0.4665 0.1083 0.1475 0.050 Uiso 1 1 calc R . . 
H50C H 0.4084 0.0477 0.2010 0.050 Uiso 1 1 calc R . . 
C51 C 0.5427(3) 0.1640(3) 0.3520(2) 0.0375(7) Uani 1 1 d . B . 
H51A H 0.4722 0.1117 0.3473 0.056 Uiso 1 1 calc R . . 
H51B H 0.5584 0.2268 0.3968 0.056 Uiso 1 1 calc R . . 
H51C H 0.6128 0.1328 0.3649 0.056 Uiso 1 1 calc R . . 
C52 C 0.4121(3) 0.2490(2) 0.2527(2) 0.0355(7) Uani 1 1 d . B . 
H52A H 0.3425 0.2006 0.2532 0.053 Uiso 1 1 calc R . . 
H52B H 0.3919 0.2654 0.1981 0.053 Uiso 1 1 calc R . . 
H52C H 0.4338 0.3147 0.2962 0.053 Uiso 1 1 calc R . . 
O1S O 0.71673(18) 0.81752(17) 0.11094(13) 0.0385(5) Uani 1 1 d . . . 
C1S C 0.6391(3) 0.8835(3) 0.1225(2) 0.0387(8) Uani 1 1 d . . . 
H1S1 H 0.6656 0.9190 0.1824 0.046 Uiso 1 1 calc R . . 
H1S2 H 0.5558 0.8404 0.1032 0.046 Uiso 1 1 calc R . . 
C2S C 0.6439(3) 0.9650(3) 0.0729(2) 0.0397(8) Uani 1 1 d . . . 
H2S1 H 0.7265 1.0075 0.0927 0.060 Uiso 1 1 calc R . . 
H2S2 H 0.5909 1.0114 0.0799 0.060 Uiso 1 1 calc R . . 
H2S3 H 0.6173 0.9292 0.0137 0.060 Uiso 1 1 calc R . . 
C3S C 0.7157(3) 0.7371(3) 0.1553(2) 0.0440(8) Uani 1 1 d . . . 
H3S1 H 0.6329 0.6929 0.1364 0.053 Uiso 1 1 calc R . . 
H3S2 H 0.7438 0.7697 0.2159 0.053 Uiso 1 1 calc R . . 
C4S C 0.7974(3) 0.6699(3) 0.1389(3) 0.0545(10) Uani 1 1 d . . . 
H4S1 H 0.7688 0.6379 0.0789 0.082 Uiso 1 1 calc R . . 
H4S2 H 0.7976 0.6137 0.1688 0.082 Uiso 1 1 calc R . . 
H4S3 H 0.8791 0.7142 0.1584 0.082 Uiso 1 1 calc R . . 
 
loop_ 
 _atom_site_aniso_label 
 _atom_site_aniso_U_11 
 _atom_site_aniso_U_22 
 _atom_site_aniso_U_33 
 _atom_site_aniso_U_23 
 _atom_site_aniso_U_13 
 _atom_site_aniso_U_12 
Si1 0.0242(4) 0.0238(4) 0.0240(4) 0.0063(3) 0.0104(3) 0.0111(3) 
Si2 0.0240(4) 0.0223(4) 0.0229(4) 0.0046(3) 0.0081(3) 0.0107(3) 
C1 0.0193(13) 0.0220(14) 0.0252(15) 0.0014(11) 0.0057(11) 0.0070(11) 
C2 0.0197(13) 0.0218(14) 0.0238(14) 0.0016(11) 0.0065(11) 0.0056(11) 
C3 0.0225(14) 0.0226(15) 0.0255(15) 0.0031(12) 0.0063(12) 0.0083(11) 
C4 0.0226(14) 0.0236(15) 0.0224(14) 0.0021(12) 0.0047(12) 0.0049(11) 
C5 0.0232(14) 0.0200(14) 0.0218(14) 0.0031(11) 0.0028(11) 0.0070(11) 
C6 0.0271(15) 0.0274(16) 0.0252(15) 0.0057(12) 0.0031(12) 0.0026(12) 
S7 0.0416(9) 0.0332(11) 0.0339(11) 0.0095(6) 0.0165(7) 0.0039(9) 
C8 0.024(5) 0.037(7) 0.023(4) 0.012(5) 0.006(3) 0.014(4) 
C9 0.0373(18) 0.0396(13) 0.0288(11) 0.0106(8) 0.0141(9) 0.0037(13) 
C10 0.0225(14) 0.0311(16) 0.0221(15) 0.0024(12) 0.0037(12) 0.0024(12) 
C6' 0.0271(15) 0.0274(16) 0.0252(15) 0.0057(12) 0.0031(12) 0.0026(12) 
C7' 0.0416(9) 0.0332(11) 0.0339(11) 0.0095(6) 0.0165(7) 0.0039(9) 
C8' 0.044(6) 0.065(8) 0.041(4) 0.023(5) 0.017(3) 0.006(4) 
S9' 0.0373(18) 0.0396(13) 0.0288(11) 0.0106(8) 0.0141(9) 0.0037(13) 
C10' 0.0225(14) 0.0311(16) 0.0221(15) 0.0024(12) 0.0037(12) 0.0024(12) 
C11 0.0195(13) 0.0249(15) 0.0204(14) 0.0003(11) 0.0046(11) 0.0061(11) 
C12 0.0175(13) 0.0238(15) 0.0228(14) 0.0023(11) 0.0031(11) 0.0056(11) 
C13 0.0212(13) 0.0226(15) 0.0268(15) 0.0029(12) 0.0070(12) 0.0079(11) 
C14 0.0188(13) 0.0207(14) 0.0227(14) 0.0015(11) 0.0044(11) 0.0059(11) 
C15 0.0201(13) 0.0188(14) 0.0235(14) 0.0008(11) 0.0055(11) 0.0052(11) 
C16 0.0208(13) 0.0234(14) 0.0208(14) 0.0013(11) 0.0048(11) 0.0047(11) 
C17 0.0252(14) 0.0218(14) 0.0249(15) 0.0055(12) 0.0065(12) 0.0066(11) 
C18 0.0241(14) 0.0273(16) 0.0235(15) 0.0039(12) 0.0047(12) 0.0020(12) 
S19 0.0349(7) 0.0283(9) 0.0268(12) 0.0135(6) 0.0138(7) 0.0090(6) 
C20 0.035(4) 0.026(4) 0.027(3) 0.019(3) 0.006(2) 0.006(3) 
C21 0.0297(13) 0.046(2) 0.0377(15) 0.0053(11) 0.0142(8) 0.0039(15) 
C22 0.0209(14) 0.0291(16) 0.0231(15) 0.0010(12) 0.0046(12) 0.0004(12) 
C18' 0.0241(14) 0.0273(16) 0.0235(15) 0.0039(12) 0.0047(12) 0.0020(12) 
C19' 0.0349(7) 0.0283(9) 0.0268(12) 0.0135(6) 0.0138(7) 0.0090(6) 
C20' 0.035(5) 0.033(6) 0.035(4) 0.013(4) 0.004(4) 0.003(4) 
S21' 0.0297(13) 0.046(2) 0.0377(15) 0.0053(11) 0.0142(8) 0.0039(15) 
C22' 0.0209(14) 0.0291(16) 0.0231(15) 0.0010(12) 0.0046(12) 0.0004(12) 
C23 0.0195(13) 0.0270(15) 0.0253(15) 0.0013(12) 0.0065(12) 0.0049(11) 
C24 0.0182(13) 0.0219(14) 0.0233(14) 0.0010(11) 0.0043(11) 0.0041(11) 
C25 0.0254(14) 0.0264(15) 0.0237(15) 0.0057(12) 0.0092(12) 0.0059(12) 
C26 0.0274(15) 0.0295(16) 0.0247(15) 0.0068(12) 0.0117(12) 0.0073(13) 
C27 0.0294(15) 0.0319(16) 0.0261(15) 0.0083(13) 0.0113(12) 0.0130(13) 
C28 0.0392(18) 0.046(2) 0.0280(17) 0.0041(15) 0.0028(14) 0.0121(16) 
C29 0.0466(19) 0.045(2) 0.0318(17) 0.0158(15) 0.0198(15) 0.0169(16) 
C30 0.0454(19) 0.050(2) 0.0309(17) 0.0097(15) 0.0205(15) 0.0247(16) 
C31 0.0290(15) 0.0272(16) 0.0297(16) 0.0033(13) 0.0050(13) 0.0100(13) 
C32 0.0332(17) 0.039(2) 0.047(2) 0.0076(16) 0.0059(15) -0.0002(15) 
C33 0.0301(16) 0.0404(19) 0.0372(18) 0.0054(15) 0.0004(14) 0.0134(14) 
C34 0.053(2) 0.043(2) 0.0303(18) -0.0022(15) 0.0053(16) 0.0189(17) 
C35 0.0309(15) 0.0291(16) 0.0407(18) 0.0150(14) 0.0187(14) 0.0106(13) 
C36 0.0419(18) 0.0302(18) 0.056(2) 0.0167(16) 0.0211(17) 0.0131(15) 
C37 0.071(2) 0.044(2) 0.056(2) 0.0286(18) 0.041(2) 0.0225(19) 
C38 0.0341(18) 0.040(2) 0.080(3) 0.0234(19) 0.0265(18) 0.0094(15) 
C39 0.0272(14) 0.0218(14) 0.0193(14) 0.0040(11) 0.0067(11) 0.0058(12) 
C40 0.0263(14) 0.0224(15) 0.0208(14) 0.0044(11) 0.0067(12) 0.0073(12) 
C41 0.0278(15) 0.0254(15) 0.0320(16) 0.0090(13) 0.0122(13) 0.0100(12) 
C42 0.0380(17) 0.0365(18) 0.0272(16) 0.0095(14) 0.0097(14) 0.0118(14) 
C43 0.0355(17) 0.0344(17) 0.0372(18) 0.0154(14) 0.0181(14) 0.0129(14) 
C44 0.0360(17) 0.0295(17) 0.0402(18) 0.0151(14) 0.0140(14) 0.0156(14) 
C45 0.0309(16) 0.0306(17) 0.0275(16) 0.0007(13) 0.0050(13) 0.0121(13) 
C46 0.0365(17) 0.0319(18) 0.0409(19) -0.0028(15) 0.0056(15) 0.0037(14) 
C47 0.0431(19) 0.0410(19) 0.0326(18) -0.0019(14) 0.0102(15) 0.0194(15) 
C48 0.0398(18) 0.049(2) 0.0245(16) 0.0042(14) 0.0060(14) 0.0178(16) 
C49 0.0304(15) 0.0289(16) 0.0305(16) 0.0086(13) 0.0147(13) 0.0109(13) 
C50 0.0323(16) 0.0262(16) 0.0441(19) 0.0087(14) 0.0182(14) 0.0050(13) 
C51 0.0421(18) 0.0401(19) 0.0401(19) 0.0161(15) 0.0222(15) 0.0145(15) 
C52 0.0288(16) 0.0341(18) 0.0415(19) 0.0040(14) 0.0131(14) 0.0088(13) 
O1S 0.0347(12) 0.0386(13) 0.0417(13) 0.0086(10) 0.0141(10) 0.0099(10) 
C1S 0.0314(17) 0.046(2) 0.0375(18) 0.0039(15) 0.0147(14) 0.0101(15) 
C2S 0.0365(18) 0.045(2) 0.0334(18) 0.0025(15) 0.0108(15) 0.0125(15) 
C3S 0.0364(18) 0.044(2) 0.052(2) 0.0191(17) 0.0168(16) 0.0036(15) 
C4S 0.052(2) 0.040(2) 0.073(3) 0.0202(19) 0.023(2) 0.0087(17) 
 
_geom_special_details 
; 
 All esds (except the esd in the dihedral angle between two l.s. planes) 
 are estimated using the full covariance matrix.  The cell esds are taken 
 into account individually in the estimation of esds in distances, angles 
 and torsion angles; correlations between esds in cell parameters are only 
 used when they are defined by crystal symmetry.  An approximate (isotropic) 
 treatment of cell esds is used for estimating esds involving l.s. planes. 
; 
 
loop_ 
 _geom_bond_atom_site_label_1 
 _geom_bond_atom_site_label_2 
 _geom_bond_distance 
 _geom_bond_site_symmetry_2 
 _geom_bond_publ_flag 
Si1 C26 1.848(3) . ? 
Si1 C27 1.928(3) . ? 
Si1 C31 1.931(3) . ? 
Si1 C35 1.931(3) . ? 
Si2 C40 1.839(3) . ? 
Si2 C45 1.925(3) . ? 
Si2 C41 1.927(3) . ? 
Si2 C49 1.941(3) . ? 
C1 C24 1.403(4) . ? 
C1 C2 1.425(4) . ? 
C1 C25 1.436(4) . ? 
C2 C3 1.400(4) . ? 
C2 C14 1.445(4) . ? 
C3 C4 1.393(4) . ? 
C3 H3 0.9500 . ? 
C4 C5 1.423(4) . ? 
C4 C12 1.448(4) . ? 
C5 C6 1.340(4) . ? 
C5 H5 0.9500 . ? 
C6 C10 1.434(3) . ? 
C6 S7 1.730(3) . ? 
S7 C8 1.769(6) . ? 
C8 C9 1.353(12) . ? 
C8 H8 0.9500 . ? 
C9 C10 1.455(10) . ? 
C9 H9 0.9500 . ? 
C10 C11 1.376(4) . ? 
C7' C8' 1.440(18) . ? 
C7' H7' 0.9500 . ? 
C8' S9' 1.659(9) . ? 
C8' H8' 0.9500 . ? 
C11 C12 1.427(4) . ? 
C11 H11 0.9500 . ? 
C12 C13 1.385(4) . ? 
C13 C14 1.403(4) . ? 
C13 H13 0.9500 . ? 
C14 C15 1.415(4) . ? 
C15 C16 1.415(4) . ? 
C15 C39 1.431(4) . ? 
C16 C17 1.417(4) . ? 
C16 C24 1.445(4) . ? 
C17 C18 1.374(4) . ? 
C17 H17 0.9500 . ? 
C18 C22 1.434(3) . ? 
C18 S19 1.729(2) . ? 
S19 C20 1.768(6) . ? 
C20 C21 1.353(12) . ? 
C20 H20 0.9500 . ? 
C21 C22 1.454(10) . ? 
C21 H21 0.9500 . ? 
C22 C23 1.353(4) . ? 
C19' C20' 1.328(15) . ? 
C19' H19' 0.9500 . ? 
C20' S21' 1.771(9) . ? 
C20' H20' 0.9500 . ? 
C23 C24 1.421(4) . ? 
C23 H23 0.9500 . ? 
C25 C26 1.209(4) . ? 
C27 C28 1.535(4) . ? 
C27 C30 1.536(4) . ? 
C27 C29 1.544(4) . ? 
C28 H28A 0.9800 . ? 
C28 H28B 0.9800 . ? 
C28 H28C 0.9800 . ? 
C29 H29A 0.9800 . ? 
C29 H29B 0.9800 . ? 
C29 H29C 0.9800 . ? 
C30 H30A 0.9800 . ? 
C30 H30B 0.9800 . ? 
C30 H30C 0.9800 . ? 
C31 C34 1.535(4) . ? 
C31 C32 1.539(4) . ? 
C31 C33 1.542(4) . ? 
C32 H32A 0.9800 . ? 
C32 H32B 0.9800 . ? 
C32 H32C 0.9800 . ? 
C33 H33A 0.9800 . ? 
C33 H33B 0.9800 . ? 
C33 H33C 0.9800 . ? 
C34 H34A 0.9800 . ? 
C34 H34B 0.9800 . ? 
C34 H34C 0.9800 . ? 
C35 C38 1.536(4) . ? 
C35 C36 1.538(4) . ? 
C35 C37 1.544(4) . ? 
C36 H36A 0.9800 . ? 
C36 H36B 0.9800 . ? 
C36 H36C 0.9800 . ? 
C37 H37A 0.9800 . ? 
C37 H37B 0.9800 . ? 
C37 H37C 0.9800 . ? 
C38 H38A 0.9800 . ? 
C38 H38B 0.9800 . ? 
C38 H38C 0.9800 . ? 
C39 C40 1.216(4) . ? 
C41 C42 1.538(4) . ? 
C41 C44 1.540(4) . ? 
C41 C43 1.542(4) . ? 
C42 H42A 0.9800 . ? 
C42 H42B 0.9800 . ? 
C42 H42C 0.9800 . ? 
C43 H43A 0.9800 . ? 
C43 H43B 0.9800 . ? 
C43 H43C 0.9800 . ? 
C44 H44A 0.9800 . ? 
C44 H44B 0.9800 . ? 
C44 H44C 0.9800 . ? 
C45 C46 1.532(4) . ? 
C45 C47 1.539(4) . ? 
C45 C48 1.546(4) . ? 
C46 H46A 0.9800 . ? 
C46 H46B 0.9800 . ? 
C46 H46C 0.9800 . ? 
C47 H47A 0.9800 . ? 
C47 H47B 0.9800 . ? 
C47 H47C 0.9800 . ? 
C48 H48A 0.9800 . ? 
C48 H48B 0.9800 . ? 
C48 H48C 0.9800 . ? 
C49 C51 1.530(4) . ? 
C49 C50 1.533(4) . ? 
C49 C52 1.539(4) . ? 
C50 H50A 0.9800 . ? 
C50 H50B 0.9800 . ? 
C50 H50C 0.9800 . ? 
C51 H51A 0.9800 . ? 
C51 H51B 0.9800 . ? 
C51 H51C 0.9800 . ? 
C52 H52A 0.9800 . ? 
C52 H52B 0.9800 . ? 
C52 H52C 0.9800 . ? 
O1S C1S 1.424(4) . ? 
O1S C3S 1.424(4) . ? 
C1S C2S 1.504(5) . ? 
C1S H1S1 0.9900 . ? 
C1S H1S2 0.9900 . ? 
C2S H2S1 0.9800 . ? 
C2S H2S2 0.9800 . ? 
C2S H2S3 0.9800 . ? 
C3S C4S 1.499(5) . ? 
C3S H3S1 0.9900 . ? 
C3S H3S2 0.9900 . ? 
C4S H4S1 0.9800 . ? 
C4S H4S2 0.9800 . ? 
C4S H4S3 0.9800 . ? 
 
loop_ 
 _geom_angle_atom_site_label_1 
 _geom_angle_atom_site_label_2 
 _geom_angle_atom_site_label_3 
 _geom_angle 
 _geom_angle_site_symmetry_1 
 _geom_angle_site_symmetry_3 
 _geom_angle_publ_flag 
C26 Si1 C27 104.92(12) . . ? 
C26 Si1 C31 104.91(13) . . ? 
C27 Si1 C31 113.96(13) . . ? 
C26 Si1 C35 105.97(12) . . ? 
C27 Si1 C35 112.85(13) . . ? 
C31 Si1 C35 113.18(13) . . ? 
C40 Si2 C45 104.69(12) . . ? 
C40 Si2 C41 106.07(12) . . ? 
C45 Si2 C41 113.00(13) . . ? 
C40 Si2 C49 106.05(12) . . ? 
C45 Si2 C49 112.86(13) . . ? 
C41 Si2 C49 113.27(12) . . ? 
C24 C1 C2 121.0(2) . . ? 
C24 C1 C25 119.9(2) . . ? 
C2 C1 C25 119.1(2) . . ? 
C3 C2 C1 122.1(2) . . ? 
C3 C2 C14 118.8(2) . . ? 
C1 C2 C14 119.1(2) . . ? 
C4 C3 C2 122.2(2) . . ? 
C4 C3 H3 118.9 . . ? 
C2 C3 H3 118.9 . . ? 
C3 C4 C5 122.6(2) . . ? 
C3 C4 C12 119.0(2) . . ? 
C5 C4 C12 118.4(2) . . ? 
C6 C5 C4 121.9(2) . . ? 
C6 C5 H5 119.1 . . ? 
C4 C5 H5 119.1 . . ? 
C5 C6 C10 120.4(2) . . ? 
C5 C6 S7 129.2(2) . . ? 
C10 C6 S7 110.43(17) . . ? 
C6 S7 C8 91.2(2) . . ? 
C9 C8 S7 114.3(6) . . ? 
C9 C8 H8 122.8 . . ? 
S7 C8 H8 122.8 . . ? 
C8 C9 C10 110.5(9) . . ? 
C8 C9 H9 124.7 . . ? 
C10 C9 H9 124.7 . . ? 
C11 C10 C6 120.4(2) . . ? 
C11 C10 C9 126.1(6) . . ? 
C6 C10 C9 113.5(5) . . ? 
C8' C7' H7' 127.1 . . ? 
C7' C8' S9' 118.3(7) . . ? 
C7' C8' H8' 120.9 . . ? 
S9' C8' H8' 120.8 . . ? 
C10 C11 C12 120.3(2) . . ? 
C10 C11 H11 119.8 . . ? 
C12 C11 H11 119.8 . . ? 
C13 C12 C11 122.5(2) . . ? 
C13 C12 C4 118.9(2) . . ? 
C11 C12 C4 118.6(2) . . ? 
C12 C13 C14 122.5(2) . . ? 
C12 C13 H13 118.7 . . ? 
C14 C13 H13 118.7 . . ? 
C13 C14 C15 121.7(2) . . ? 
C13 C14 C2 118.6(2) . . ? 
C15 C14 C2 119.7(2) . . ? 
C16 C15 C14 120.8(2) . . ? 
C16 C15 C39 120.4(2) . . ? 
C14 C15 C39 118.8(2) . . ? 
C15 C16 C17 121.6(2) . . ? 
C15 C16 C24 119.5(2) . . ? 
C17 C16 C24 119.0(2) . . ? 
C18 C17 C16 120.2(2) . . ? 
C18 C17 H17 119.9 . . ? 
C16 C17 H17 119.9 . . ? 
C17 C18 C22 120.4(2) . . ? 
C17 C18 S19 129.3(2) . . ? 
C22 C18 S19 110.24(17) . . ? 
C18 S19 C20 91.4(2) . . ? 
C21 C20 S19 114.2(6) . . ? 
C21 C20 H20 122.9 . . ? 
S19 C20 H20 122.9 . . ? 
C20 C21 C22 110.4(9) . . ? 
C20 C21 H21 124.8 . . ? 
C22 C21 H21 124.8 . . ? 
C23 C22 C18 120.8(2) . . ? 
C23 C22 C21 125.5(6) . . ? 
C18 C22 C21 113.6(5) . . ? 
C20' C19' H19' 121.1 . . ? 
C19' C20' S21' 106.9(8) . . ? 
C19' C20' H20' 126.5 . . ? 
S21' C20' H20' 126.5 . . ? 
C22 C23 C24 120.5(3) . . ? 
C22 C23 H23 119.7 . . ? 
C24 C23 H23 119.7 . . ? 
C1 C24 C23 121.0(2) . . ? 
C1 C24 C16 119.8(2) . . ? 
C23 C24 C16 119.1(2) . . ? 
C26 C25 C1 179.4(3) . . ? 
C25 C26 Si1 177.9(3) . . ? 
C28 C27 C30 107.3(3) . . ? 
C28 C27 C29 105.7(2) . . ? 
C30 C27 C29 109.0(2) . . ? 
C28 C27 Si1 111.3(2) . . ? 
C30 C27 Si1 112.08(19) . . ? 
C29 C27 Si1 111.2(2) . . ? 
C27 C28 H28A 109.5 . . ? 
C27 C28 H28B 109.5 . . ? 
H28A C28 H28B 109.5 . . ? 
C27 C28 H28C 109.5 . . ? 
H28A C28 H28C 109.5 . . ? 
H28B C28 H28C 109.5 . . ? 
C27 C29 H29A 109.5 . . ? 
C27 C29 H29B 109.5 . . ? 
H29A C29 H29B 109.5 . . ? 
C27 C29 H29C 109.5 . . ? 
H29A C29 H29C 109.5 . . ? 
H29B C29 H29C 109.5 . . ? 
C27 C30 H30A 109.5 . . ? 
C27 C30 H30B 109.5 . . ? 
H30A C30 H30B 109.5 . . ? 
C27 C30 H30C 109.5 . . ? 
H30A C30 H30C 109.5 . . ? 
H30B C30 H30C 109.5 . . ? 
C34 C31 C32 105.8(3) . . ? 
C34 C31 C33 109.2(2) . . ? 
C32 C31 C33 107.2(3) . . ? 
C34 C31 Si1 111.3(2) . . ? 
C32 C31 Si1 110.4(2) . . ? 
C33 C31 Si1 112.6(2) . . ? 
C31 C32 H32A 109.5 . . ? 
C31 C32 H32B 109.5 . . ? 
H32A C32 H32B 109.5 . . ? 
C31 C32 H32C 109.5 . . ? 
H32A C32 H32C 109.5 . . ? 
H32B C32 H32C 109.5 . . ? 
C31 C33 H33A 109.5 . . ? 
C31 C33 H33B 109.5 . . ? 
H33A C33 H33B 109.5 . . ? 
C31 C33 H33C 109.5 . . ? 
H33A C33 H33C 109.5 . . ? 
H33B C33 H33C 109.5 . . ? 
C31 C34 H34A 109.5 . . ? 
C31 C34 H34B 109.5 . . ? 
H34A C34 H34B 109.5 . . ? 
C31 C34 H34C 109.5 . . ? 
H34A C34 H34C 109.5 . . ? 
H34B C34 H34C 109.5 . . ? 
C38 C35 C36 108.6(3) . . ? 
C38 C35 C37 106.2(3) . . ? 
C36 C35 C37 108.1(2) . . ? 
C38 C35 Si1 111.3(2) . . ? 
C36 C35 Si1 112.0(2) . . ? 
C37 C35 Si1 110.4(2) . . ? 
C35 C36 H36A 109.5 . . ? 
C35 C36 H36B 109.5 . . ? 
H36A C36 H36B 109.5 . . ? 
C35 C36 H36C 109.5 . . ? 
H36A C36 H36C 109.5 . . ? 
H36B C36 H36C 109.5 . . ? 
C35 C37 H37A 109.5 . . ? 
C35 C37 H37B 109.5 . . ? 
H37A C37 H37B 109.5 . . ? 
C35 C37 H37C 109.5 . . ? 
H37A C37 H37C 109.5 . . ? 
H37B C37 H37C 109.5 . . ? 
C35 C38 H38A 109.5 . . ? 
C35 C38 H38B 109.5 . . ? 
H38A C38 H38B 109.5 . . ? 
C35 C38 H38C 109.5 . . ? 
H38A C38 H38C 109.5 . . ? 
H38B C38 H38C 109.5 . . ? 
C40 C39 C15 176.8(3) . . ? 
C39 C40 Si2 177.3(2) . . ? 
C42 C41 C44 107.7(2) . . ? 
C42 C41 C43 105.8(2) . . ? 
C44 C41 C43 108.7(2) . . ? 
C42 C41 Si2 112.12(19) . . ? 
C44 C41 Si2 112.2(2) . . ? 
C43 C41 Si2 110.02(19) . . ? 
C41 C42 H42A 109.5 . . ? 
C41 C42 H42B 109.5 . . ? 
H42A C42 H42B 109.5 . . ? 
C41 C42 H42C 109.5 . . ? 
H42A C42 H42C 109.5 . . ? 
H42B C42 H42C 109.5 . . ? 
C41 C43 H43A 109.5 . . ? 
C41 C43 H43B 109.5 . . ? 
H43A C43 H43B 109.5 . . ? 
C41 C43 H43C 109.5 . . ? 
H43A C43 H43C 109.5 . . ? 
H43B C43 H43C 109.5 . . ? 
C41 C44 H44A 109.5 . . ? 
C41 C44 H44B 109.5 . . ? 
H44A C44 H44B 109.5 . . ? 
C41 C44 H44C 109.5 . . ? 
H44A C44 H44C 109.5 . . ? 
H44B C44 H44C 109.5 . . ? 
C46 C45 C47 109.0(3) . . ? 
C46 C45 C48 105.5(2) . . ? 
C47 C45 C48 108.5(3) . . ? 
C46 C45 Si2 111.3(2) . . ? 
C47 C45 Si2 112.4(2) . . ? 
C48 C45 Si2 109.8(2) . . ? 
C45 C46 H46A 109.5 . . ? 
C45 C46 H46B 109.5 . . ? 
H46A C46 H46B 109.5 . . ? 
C45 C46 H46C 109.5 . . ? 
H46A C46 H46C 109.5 . . ? 
H46B C46 H46C 109.5 . . ? 
C45 C47 H47A 109.5 . . ? 
C45 C47 H47B 109.5 . . ? 
H47A C47 H47B 109.5 . . ? 
C45 C47 H47C 109.5 . . ? 
H47A C47 H47C 109.5 . . ? 
H47B C47 H47C 109.5 . . ? 
C45 C48 H48A 109.5 . . ? 
C45 C48 H48B 109.5 . . ? 
H48A C48 H48B 109.5 . . ? 
C45 C48 H48C 109.5 . . ? 
H48A C48 H48C 109.5 . . ? 
H48B C48 H48C 109.5 . . ? 
C51 C49 C50 105.9(2) . . ? 
C51 C49 C52 108.4(2) . . ? 
C50 C49 C52 108.4(2) . . ? 
C51 C49 Si2 111.7(2) . . ? 
C50 C49 Si2 110.12(19) . . ? 
C52 C49 Si2 112.1(2) . . ? 
C49 C50 H50A 109.5 . . ? 
C49 C50 H50B 109.5 . . ? 
H50A C50 H50B 109.5 . . ? 
C49 C50 H50C 109.5 . . ? 
H50A C50 H50C 109.5 . . ? 
H50B C50 H50C 109.5 . . ? 
C49 C51 H51A 109.5 . . ? 
C49 C51 H51B 109.5 . . ? 
H51A C51 H51B 109.5 . . ? 
C49 C51 H51C 109.5 . . ? 
H51A C51 H51C 109.5 . . ? 
H51B C51 H51C 109.5 . . ? 
C49 C52 H52A 109.5 . . ? 
C49 C52 H52B 109.5 . . ? 
H52A C52 H52B 109.5 . . ? 
C49 C52 H52C 109.5 . . ? 
H52A C52 H52C 109.5 . . ? 
H52B C52 H52C 109.5 . . ? 
C1S O1S C3S 111.3(2) . . ? 
O1S C1S C2S 108.0(2) . . ? 
O1S C1S H1S1 110.1 . . ? 
C2S C1S H1S1 110.1 . . ? 
O1S C1S H1S2 110.1 . . ? 
C2S C1S H1S2 110.1 . . ? 
H1S1 C1S H1S2 108.4 . . ? 
C1S C2S H2S1 109.5 . . ? 
C1S C2S H2S2 109.5 . . ? 
H2S1 C2S H2S2 109.5 . . ? 
C1S C2S H2S3 109.5 . . ? 
H2S1 C2S H2S3 109.5 . . ? 
H2S2 C2S H2S3 109.5 . . ? 
O1S C3S C4S 108.2(3) . . ? 
O1S C3S H3S1 110.1 . . ? 
C4S C3S H3S1 110.1 . . ? 
O1S C3S H3S2 110.1 . . ? 
C4S C3S H3S2 110.1 . . ? 
H3S1 C3S H3S2 108.4 . . ? 
C3S C4S H4S1 109.5 . . ? 
C3S C4S H4S2 109.5 . . ? 
H4S1 C4S H4S2 109.5 . . ? 
C3S C4S H4S3 109.5 . . ? 
H4S1 C4S H4S3 109.5 . . ? 
H4S2 C4S H4S3 109.5 . . ? 
 
loop_ 
 _geom_torsion_atom_site_label_1 
 _geom_torsion_atom_site_label_2 
 _geom_torsion_atom_site_label_3 
 _geom_torsion_atom_site_label_4 
 _geom_torsion 
 _geom_torsion_site_symmetry_1 
 _geom_torsion_site_symmetry_2 
 _geom_torsion_site_symmetry_3 
 _geom_torsion_site_symmetry_4 
 _geom_torsion_publ_flag 
C24 C1 C2 C3 -179.1(2) . . . . ? 
C25 C1 C2 C3 0.2(4) . . . . ? 
C24 C1 C2 C14 0.2(4) . . . . ? 
C25 C1 C2 C14 179.5(2) . . . . ? 
C1 C2 C3 C4 178.2(2) . . . . ? 
C14 C2 C3 C4 -1.1(4) . . . . ? 
C2 C3 C4 C5 -179.4(2) . . . . ? 
C2 C3 C4 C12 -0.9(4) . . . . ? 
C3 C4 C5 C6 178.2(3) . . . . ? 
C12 C4 C5 C6 -0.2(4) . . . . ? 
C4 C5 C6 C10 -0.7(4) . . . . ? 
C4 C5 C6 S7 -178.0(3) . . . . ? 
C5 C6 S7 C8 178.0(8) . . . . ? 
C10 C6 S7 C8 0.4(8) . . . . ? 
C6 S7 C8 C9 -1.5(16) . . . . ? 
S7 C8 C9 C10 2(2) . . . . ? 
C5 C6 C10 C11 0.8(4) . . . . ? 
S7 C6 C10 C11 178.6(3) . . . . ? 
C5 C6 C10 C9 -177.2(8) . . . . ? 
S7 C6 C10 C9 0.6(8) . . . . ? 
C8 C9 C10 C11 -179.6(11) . . . . ? 
C8 C9 C10 C6 -1.7(16) . . . . ? 
C6 C10 C11 C12 0.1(4) . . . . ? 
C9 C10 C11 C12 177.8(9) . . . . ? 
C10 C11 C12 C13 179.2(2) . . . . ? 
C10 C11 C12 C4 -1.0(4) . . . . ? 
C3 C4 C12 C13 2.4(4) . . . . ? 
C5 C4 C12 C13 -179.1(2) . . . . ? 
C3 C4 C12 C11 -177.4(2) . . . . ? 
C5 C4 C12 C11 1.1(4) . . . . ? 
C11 C12 C13 C14 177.9(2) . . . . ? 
C4 C12 C13 C14 -1.9(4) . . . . ? 
C12 C13 C14 C15 180.0(2) . . . . ? 
C12 C13 C14 C2 -0.1(4) . . . . ? 
C3 C2 C14 C13 1.6(4) . . . . ? 
C1 C2 C14 C13 -177.7(2) . . . . ? 
C3 C2 C14 C15 -178.4(2) . . . . ? 
C1 C2 C14 C15 2.2(4) . . . . ? 
C13 C14 C15 C16 176.3(2) . . . . ? 
C2 C14 C15 C16 -3.7(4) . . . . ? 
C13 C14 C15 C39 -5.3(4) . . . . ? 
C2 C14 C15 C39 174.7(2) . . . . ? 
C14 C15 C16 C17 -177.4(2) . . . . ? 
C39 C15 C16 C17 4.2(4) . . . . ? 
C14 C15 C16 C24 2.6(4) . . . . ? 
C39 C15 C16 C24 -175.8(2) . . . . ? 
C15 C16 C17 C18 -179.8(2) . . . . ? 
C24 C16 C17 C18 0.2(4) . . . . ? 
C16 C17 C18 C22 -0.2(4) . . . . ? 
C16 C17 C18 S19 179.2(2) . . . . ? 
C17 C18 S19 C20 -179.2(3) . . . . ? 
C22 C18 S19 C20 0.2(3) . . . . ? 
C18 S19 C20 C21 2.2(10) . . . . ? 
S19 C20 C21 C22 -3.9(15) . . . . ? 
C17 C18 C22 C23 -0.2(4) . . . . ? 
S19 C18 C22 C23 -179.7(2) . . . . ? 
C17 C18 C22 C21 177.1(9) . . . . ? 
S19 C18 C22 C21 -2.4(9) . . . . ? 
C20 C21 C22 C23 -178.8(7) . . . . ? 
C20 C21 C22 C18 4.1(15) . . . . ? 
C18 C22 C23 C24 0.7(4) . . . . ? 
C21 C22 C23 C24 -176.3(10) . . . . ? 
C2 C1 C24 C23 178.4(2) . . . . ? 
C25 C1 C24 C23 -0.9(4) . . . . ? 
C2 C1 C24 C16 -1.3(4) . . . . ? 
C25 C1 C24 C16 179.4(2) . . . . ? 
C22 C23 C24 C1 179.6(2) . . . . ? 
C22 C23 C24 C16 -0.6(4) . . . . ? 
C15 C16 C24 C1 -0.1(4) . . . . ? 
C17 C16 C24 C1 179.9(2) . . . . ? 
C15 C16 C24 C23 -179.8(2) . . . . ? 
C17 C16 C24 C23 0.2(4) . . . . ? 
C24 C1 C25 C26 59(26) . . . . ? 
C2 C1 C25 C26 -120(26) . . . . ? 
C1 C25 C26 Si1 11(32) . . . . ? 
C27 Si1 C26 C25 -103(7) . . . . ? 
C31 Si1 C26 C25 18(7) . . . . ? 
C35 Si1 C26 C25 138(7) . . . . ? 
C26 Si1 C27 C28 -75.1(2) . . . . ? 
C31 Si1 C27 C28 170.7(2) . . . . ? 
C35 Si1 C27 C28 39.8(2) . . . . ? 
C26 Si1 C27 C30 164.8(2) . . . . ? 
C31 Si1 C27 C30 50.6(2) . . . . ? 
C35 Si1 C27 C30 -80.3(2) . . . . ? 
C26 Si1 C27 C29 42.5(2) . . . . ? 
C31 Si1 C27 C29 -71.7(2) . . . . ? 
C35 Si1 C27 C29 157.4(2) . . . . ? 
C26 Si1 C31 C34 41.8(2) . . . . ? 
C27 Si1 C31 C34 156.0(2) . . . . ? 
C35 Si1 C31 C34 -73.3(2) . . . . ? 
C26 Si1 C31 C32 -75.3(2) . . . . ? 
C27 Si1 C31 C32 38.8(2) . . . . ? 
C35 Si1 C31 C32 169.6(2) . . . . ? 
C26 Si1 C31 C33 164.9(2) . . . . ? 
C27 Si1 C31 C33 -80.9(2) . . . . ? 
C35 Si1 C31 C33 49.8(3) . . . . ? 
C26 Si1 C35 C38 44.3(3) . . . . ? 
C27 Si1 C35 C38 -69.9(3) . . . . ? 
C31 Si1 C35 C38 158.8(2) . . . . ? 
C26 Si1 C35 C36 166.1(2) . . . . ? 
C27 Si1 C35 C36 51.9(2) . . . . ? 
C31 Si1 C35 C36 -79.4(2) . . . . ? 
C26 Si1 C35 C37 -73.3(2) . . . . ? 
C27 Si1 C35 C37 172.4(2) . . . . ? 
C31 Si1 C35 C37 41.1(2) . . . . ? 
C16 C15 C39 C40 136(5) . . . . ? 
C14 C15 C39 C40 -43(5) . . . . ? 
C15 C39 C40 Si2 72(8) . . . . ? 
C45 Si2 C40 C39 48(5) . . . . ? 
C41 Si2 C40 C39 168(5) . . . . ? 
C49 Si2 C40 C39 -72(5) . . . . ? 
C40 Si2 C41 C42 77.3(2) . . . . ? 
C45 Si2 C41 C42 -168.57(19) . . . . ? 
C49 Si2 C41 C42 -38.6(2) . . . . ? 
C40 Si2 C41 C44 -161.3(2) . . . . ? 
C45 Si2 C41 C44 -47.2(2) . . . . ? 
C49 Si2 C41 C44 82.7(2) . . . . ? 
C40 Si2 C41 C43 -40.2(2) . . . . ? 
C45 Si2 C41 C43 73.9(2) . . . . ? 
C49 Si2 C41 C43 -156.15(19) . . . . ? 
C40 Si2 C45 C46 73.6(2) . . . . ? 
C41 Si2 C45 C46 -41.4(2) . . . . ? 
C49 Si2 C45 C46 -171.5(2) . . . . ? 
C40 Si2 C45 C47 -163.7(2) . . . . ? 
C41 Si2 C45 C47 81.3(2) . . . . ? 
C49 Si2 C45 C47 -48.8(3) . . . . ? 
C40 Si2 C45 C48 -42.8(2) . . . . ? 
C41 Si2 C45 C48 -157.8(2) . . . . ? 
C49 Si2 C45 C48 72.1(2) . . . . ? 
C40 Si2 C49 C51 72.5(2) . . . . ? 
C45 Si2 C49 C51 -41.5(2) . . . . ? 
C41 Si2 C49 C51 -171.5(2) . . . . ? 
C40 Si2 C49 C50 -44.8(2) . . . . ? 
C45 Si2 C49 C50 -158.85(19) . . . . ? 
C41 Si2 C49 C50 71.1(2) . . . . ? 
C40 Si2 C49 C52 -165.6(2) . . . . ? 
C45 Si2 C49 C52 80.3(2) . . . . ? 
C41 Si2 C49 C52 -49.7(2) . . . . ? 
C3S O1S C1S C2S -179.2(3) . . . . ? 
C1S O1S C3S C4S 179.0(3) . . . . ? 
 
_diffrn_measured_fraction_theta_max     .997 
_diffrn_reflns_theta_full              27.47 
_diffrn_measured_fraction_theta_full    .997 
_refine_diff_density_max    1.106 
_refine_diff_density_min    -.343 
_refine_diff_density_rms     .069 
