 
data_x08016t5 
 
_audit_creation_method            SHELXL-97 
_chemical_name_systematic 
; 
 ? 
; 
_chemical_name_common             ? 
_chemical_melting_point           ? 
_chemical_formula_moiety 
 'C84 H78 S6 Si6' 
_chemical_formula_sum 
 'C84 H78 S6 Si6' 
_chemical_formula_weight          1448.36 
 
loop_ 
 _atom_type_symbol 
 _atom_type_description 
 _atom_type_scat_dispersion_real 
 _atom_type_scat_dispersion_imag 
 _atom_type_scat_source 
 'C'  'C'   0.0033   0.0016 
 'International Tables Vol C Tables 4.2.6.8 and 6.1.1.4' 
 'H'  'H'   0.0000   0.0000 
 'International Tables Vol C Tables 4.2.6.8 and 6.1.1.4' 
 'S'  'S'   0.1246   0.1234 
 'International Tables Vol C Tables 4.2.6.8 and 6.1.1.4' 
 'Si'  'Si'   0.0817   0.0704 
 'International Tables Vol C Tables 4.2.6.8 and 6.1.1.4' 
 
_symmetry_cell_setting            triclinic
_symmetry_space_group_name_H-M    'P -1'
_symmetry_space_group_name_Hall   '-P 1'
 
loop_ 
 _symmetry_equiv_pos_as_xyz 
 'x, y, z' 
 '-x, -y, -z' 
 
_cell_length_a                    6.3376(6) 
_cell_length_b                    13.0927(12) 
_cell_length_c                    23.146(2) 
_cell_angle_alpha                 87.710(5) 
_cell_angle_beta                  87.460(5) 
_cell_angle_gamma                 81.200(5) 
_cell_volume                      1895.0(3) 
_cell_formula_units_Z             1 
_cell_measurement_temperature     90.0(2) 
_cell_measurement_reflns_used     9853
_cell_measurement_theta_min       3.83
_cell_measurement_theta_max       68.66
 
_exptl_crystal_description        needle
_exptl_crystal_colour             yellow
_exptl_crystal_size_max           0.43 
_exptl_crystal_size_mid           0.03 
_exptl_crystal_size_min           0.02 
_exptl_crystal_density_meas       ? 
_exptl_crystal_density_diffrn     1.269 
_exptl_crystal_density_method     'not measured' 
_exptl_crystal_F_000              762 
_exptl_absorpt_coefficient_mu     0.320 
_exptl_absorpt_correction_type    multi-scan 
_exptl_absorpt_correction_T_min   0.650 
_exptl_absorpt_correction_T_max   0.864 
_exptl_absorpt_process_details    'Scalepack (Otwinowski & Minor, 1997)' 
 
_exptl_special_details 
; 
 ? 
; 
 
_diffrn_ambient_temperature       90.0(2) 
_diffrn_radiation_wavelength      0.71073 
_diffrn_radiation_type            MoK\a 
_diffrn_radiation_source          'fine-focus sealed tube'    
_diffrn_radiation_monochromator   'graphite'                 
_diffrn_measurement_device_type   'Nonius KappaCCD diffractometer'  
_diffrn_measurement_method        '\w scans at fixed \c = 55\%'
_diffrn_detector_area_resol_mean  18
_diffrn_standards_number          0 
_diffrn_standards_interval_count  . 
_diffrn_standards_interval_time   . 
_diffrn_standards_decay_%         ? 
_diffrn_reflns_number             38394
_diffrn_reflns_av_R_equivalents   0.155 
_diffrn_reflns_av_sigmaI/netI     0.093 
_diffrn_reflns_limit_h_min        -7 
_diffrn_reflns_limit_h_max        7 
_diffrn_reflns_limit_k_min        -15 
_diffrn_reflns_limit_k_max        15 
_diffrn_reflns_limit_l_min        -7 
_diffrn_reflns_limit_l_max        27 
_diffrn_reflns_theta_min          0.88 
_diffrn_reflns_theta_max          25.52 
_reflns_number_total              6948 
_reflns_number_gt                 5959 
_reflns_threshold_expression      >2\s(I)    
 
_computing_data_collection        'COLLECT (Nonius, 1998)'
_computing_cell_refinement        'SCALEPACK (Otwinowski & Minor, 1997)'
_computing_data_reduction         'DENZO-SMN (Otwinowski & Minor, 1997)'
_computing_structure_solution     'SHELXS-97 (Sheldrick, 2008)' 
_computing_structure_refinement   'SHELXL-97 (Sheldrick, 2008)' 
_computing_molecular_graphics     'XP in SHELXTL (Sheldrick, 2008)'
_computing_publication_material
; 
SHELX97-2 (Sheldrick, 2008) and local procedures 
; 
 
_publ_section_exptl_refinement
;
H atoms were found in difference Fourier maps and subsequently placed 
in idealized positions with constrained C-H distances of 0.98 \%A (RCH~3~)
and 0.95 \%A (C~Ar~H) with U~iso~(H) values set to 1.5U~eq~ (RCH~3~) or 
1.2U~eq~ of the attached C atom.
;  
 
_refine_special_details 
; 
 Refinement of F^2^ against ALL reflections.  The weighted R-factor wR and 
 goodness of fit S are based on F^2^, conventional R-factors R are based 
 on F, with F set to zero for negative F^2^. The threshold expression of 
 F^2^ > 2\s(F^2^) is used only for calculating R-factors(gt) etc. and is 
 not relevant to the choice of reflections for refinement.  R-factors based 
 on F^2^ are statistically about twice as large as those based on F, and R- 
 factors based on ALL data will be even larger. 
; 
 
_refine_ls_structure_factor_coef  Fsqd  
_refine_ls_matrix_type            full 
_refine_ls_weighting_scheme       calc  
_refine_ls_weighting_details 
 'calc w=1/[\s^2^(Fo^2^)+(0.0573P)^2^+34.1699P] where P=(Fo^2^+2Fc^2^)/3' 
_atom_sites_solution_primary      direct 
_atom_sites_solution_secondary    difmap 
_atom_sites_solution_hydrogens    geom 
_refine_ls_hydrogen_treatment     constr 
_refine_ls_extinction_method      none 
_refine_ls_extinction_coef        ? 
_refine_ls_number_reflns          6948 
_refine_ls_number_parameters      438 
_refine_ls_number_restraints      408 
_refine_ls_R_factor_all           0.1478 
_refine_ls_R_factor_gt            0.1345 
_refine_ls_wR_factor_ref          0.3493 
_refine_ls_wR_factor_gt           0.3405 
_refine_ls_goodness_of_fit_ref    1.132 
_refine_ls_restrained_S_all       1.121 
_refine_ls_shift/su_max           0.008 
_refine_ls_shift/su_mean          0.001 
 
loop_ 
 _atom_site_label 
 _atom_site_type_symbol 
 _atom_site_fract_x 
 _atom_site_fract_y 
 _atom_site_fract_z 
 _atom_site_U_iso_or_equiv 
 _atom_site_adp_type 
 _atom_site_occupancy 
 _atom_site_symmetry_multiplicity 
 _atom_site_calc_flag 
 _atom_site_refinement_flags 
 _atom_site_disorder_assembly 
 _atom_site_disorder_group 
Si1B Si -0.2099(5) 0.6692(2) 0.56111(12) 0.0212(6) Uani 1 1 d U . . 
C1B C 0.0236(17) 0.7796(7) 0.3879(4) 0.0167(16) Uani 1 1 d U . . 
Si2B Si 0.4459(5) 0.9629(2) 0.11113(12) 0.0209(6) Uani 1 1 d U . . 
C2B C 0.1874(16) 0.8366(8) 0.3875(4) 0.0172(16) Uani 1 1 d U . . 
S3B S 0.3122(4) 0.8616(2) 0.45011(10) 0.0183(5) Uani 1 1 d U . . 
C4B C 0.4822(17) 0.9315(8) 0.4101(4) 0.0189(17) Uani 1 1 d U . . 
C5B C 0.6474(17) 0.9749(8) 0.4332(5) 0.0221(18) Uani 1 1 d U . . 
H5B H 0.6757 0.9666 0.4733 0.026 Uiso 1 1 calc R . . 
C6B C 0.7695(18) 1.0311(8) 0.3955(5) 0.0239(19) Uani 1 1 d U . . 
H6B H 0.8773 1.0646 0.4104 0.029 Uiso 1 1 calc R . . 
C7B C 0.7355(17) 1.0380(8) 0.3380(5) 0.0230(19) Uani 1 1 d U . . 
H7B H 0.8243 1.0743 0.3133 0.028 Uiso 1 1 calc R . . 
C8B C 0.5752(16) 0.9939(8) 0.3141(5) 0.0211(18) Uani 1 1 d U . . 
H8B H 0.5513 1.0014 0.2739 0.025 Uiso 1 1 calc R . . 
C9B C 0.4502(16) 0.9382(7) 0.3507(4) 0.0167(16) Uani 1 1 d U . . 
C10B C 0.2751(16) 0.8812(7) 0.3378(4) 0.0159(16) Uani 1 1 d U . . 
C11B C 0.1939(16) 0.8644(7) 0.2839(4) 0.0163(16) Uani 1 1 d U . . 
C12B C 0.0305(16) 0.8077(8) 0.2844(4) 0.0177(16) Uani 1 1 d U . . 
S13B S -0.0899(4) 0.7798(2) 0.22095(11) 0.0218(6) Uani 1 1 d U . . 
C14B C -0.2633(18) 0.7110(8) 0.2605(4) 0.0221(18) Uani 1 1 d U . . 
C15B C -0.4195(19) 0.6641(9) 0.2376(5) 0.027(2) Uani 1 1 d U . . 
H15B H -0.4383 0.6666 0.1971 0.032 Uiso 1 1 calc R . . 
C16B C -0.5487(19) 0.6131(9) 0.2749(5) 0.027(2) Uani 1 1 d U . . 
H16B H -0.6554 0.5794 0.2597 0.033 Uiso 1 1 calc R . . 
C17B C -0.5246(19) 0.6107(8) 0.3338(5) 0.025(2) Uani 1 1 d U . . 
H17B H -0.6189 0.5777 0.3586 0.030 Uiso 1 1 calc R . . 
C18B C -0.3661(18) 0.6553(8) 0.3575(5) 0.025(2) Uani 1 1 d U . . 
H18B H -0.3471 0.6504 0.3981 0.030 Uiso 1 1 calc R . . 
C19B C -0.2338(16) 0.7078(8) 0.3211(4) 0.0185(17) Uani 1 1 d U . . 
C20B C -0.0618(16) 0.7635(7) 0.3342(4) 0.0166(16) Uani 1 1 d U . . 
C21B C -0.0606(16) 0.7396(8) 0.4421(4) 0.0180(18) Uani 1 1 d U . . 
C22B C -0.1106(17) 0.7148(8) 0.4891(4) 0.0199(18) Uani 1 1 d U . . 
C23B C -0.487(2) 0.6399(11) 0.5548(5) 0.036(2) Uani 1 1 d U . . 
H23A H -0.4874 0.5892 0.5248 0.055 Uiso 1 1 calc R . . 
H23B H -0.5821 0.7035 0.5445 0.055 Uiso 1 1 calc R . . 
H23C H -0.5361 0.6115 0.5920 0.055 Uiso 1 1 calc R . . 
C24B C -0.031(2) 0.5519(9) 0.5846(5) 0.030(2) Uani 1 1 d U . . 
H24A H -0.0512 0.4941 0.5609 0.045 Uiso 1 1 calc R . . 
H24B H -0.0634 0.5353 0.6254 0.045 Uiso 1 1 calc R . . 
H24C H 0.1181 0.5641 0.5800 0.045 Uiso 1 1 calc R . . 
C25B C -0.203(2) 0.7731(9) 0.6124(5) 0.034(2) Uani 1 1 d U . . 
H25A H -0.2664 0.7538 0.6500 0.051 Uiso 1 1 calc R . . 
H25B H -0.2854 0.8375 0.5974 0.051 Uiso 1 1 calc R . . 
H25C H -0.0551 0.7830 0.6171 0.051 Uiso 1 1 calc R . . 
C26B C 0.2733(17) 0.9034(8) 0.2300(4) 0.0201(19) Uani 1 1 d U . . 
C27B C 0.3371(17) 0.9303(8) 0.1831(4) 0.0222(19) Uani 1 1 d U . . 
C28B C 0.211(2) 1.0025(10) 0.0645(5) 0.033(2) Uani 1 1 d U . . 
H28A H 0.1155 0.9501 0.0683 0.050 Uiso 1 1 calc R . . 
H28B H 0.2607 1.0090 0.0241 0.050 Uiso 1 1 calc R . . 
H28C H 0.1333 1.0692 0.0768 0.050 Uiso 1 1 calc R . . 
C29B C 0.6137(19) 0.8460(9) 0.0828(5) 0.028(2) Uani 1 1 d U . . 
H29A H 0.7583 0.8409 0.0971 0.043 Uiso 1 1 calc R . . 
H29B H 0.6198 0.8506 0.0404 0.043 Uiso 1 1 calc R . . 
H29C H 0.5517 0.7845 0.0959 0.043 Uiso 1 1 calc R . . 
C30B C 0.607(2) 1.0666(9) 0.1182(6) 0.037(2) Uani 1 1 d U . . 
H30A H 0.5215 1.1246 0.1380 0.055 Uiso 1 1 calc R . . 
H30B H 0.6540 1.0902 0.0797 0.055 Uiso 1 1 calc R . . 
H30C H 0.7328 1.0404 0.1408 0.055 Uiso 1 1 calc R . . 
Si1A Si 0.8624(5) 0.3391(2) 0.22149(12) 0.0192(6) Uani 1 1 d U . . 
C1A C 0.5834(15) 0.4705(8) 0.0555(4) 0.0162(17) Uani 1 1 d U . . 
C2A C 0.4116(16) 0.4278(8) 0.0345(4) 0.0175(17) Uani 1 1 d U . . 
S3A S 0.2851(4) 0.3387(2) 0.07290(11) 0.0208(6) Uani 1 1 d U . . 
C4A C 0.1102(18) 0.3349(8) 0.0163(4) 0.021(2) Uiso 1 1 d U . . 
C5A C -0.0488(18) 0.2748(9) 0.0173(5) 0.028(2) Uani 1 1 d U . . 
H5A H -0.0733 0.2313 0.0499 0.033 Uiso 1 1 calc R . . 
C6A C -0.1743(18) 0.2795(8) -0.0314(5) 0.024(2) Uani 1 1 d U . . 
H6A H -0.2902 0.2413 -0.0315 0.028 Uiso 1 1 calc R . . 
C7A C -0.1284(18) 0.3400(9) -0.0790(5) 0.027(2) Uani 1 1 d U . . 
H7A H -0.2089 0.3391 -0.1126 0.032 Uiso 1 1 calc R . . 
C8A C 0.0289(17) 0.4013(8) -0.0798(4) 0.0211(19) Uani 1 1 d U . . 
H8A H 0.0527 0.4443 -0.1128 0.025 Uiso 1 1 calc R . . 
C9A C 0.1567(17) 0.3996(8) -0.0303(4) 0.0207(18) Uani 1 1 d U . . 
C10A C 0.3290(16) 0.4565(7) -0.0205(4) 0.0152(17) Uani 1 1 d U . . 
C11A C 0.6637(17) 0.4337(8) 0.1105(4) 0.0197(19) Uani 1 1 d U . . 
C12A C 0.7325(18) 0.3946(8) 0.1556(5) 0.024(2) Uani 1 1 d U . . 
C13A C 1.041(2) 0.4283(9) 0.2426(5) 0.033(2) Uani 1 1 d U . . 
H13A H 1.1417 0.4389 0.2102 0.050 Uiso 1 1 calc R . . 
H13B H 1.1209 0.3987 0.2762 0.050 Uiso 1 1 calc R . . 
H13C H 0.9565 0.4947 0.2525 0.050 Uiso 1 1 calc R . . 
C14A C 0.657(2) 0.3214(9) 0.2781(5) 0.030(2) Uani 1 1 d U . . 
H14A H 0.5702 0.3882 0.2860 0.044 Uiso 1 1 calc R . . 
H14B H 0.7264 0.2928 0.3135 0.044 Uiso 1 1 calc R . . 
H14C H 0.5657 0.2736 0.2650 0.044 Uiso 1 1 calc R . . 
C15A C 1.0209(19) 0.2121(9) 0.2050(5) 0.029(2) Uani 1 1 d U . . 
H15A H 0.9271 0.1667 0.1907 0.043 Uiso 1 1 calc R . . 
H15C H 1.0873 0.1808 0.2403 0.043 Uiso 1 1 calc R . . 
H15D H 1.1324 0.2216 0.1755 0.043 Uiso 1 1 calc R . . 
 
loop_ 
 _atom_site_aniso_label 
 _atom_site_aniso_U_11 
 _atom_site_aniso_U_22 
 _atom_site_aniso_U_33 
 _atom_site_aniso_U_23 
 _atom_site_aniso_U_13 
 _atom_site_aniso_U_12 
Si1B 0.0145(14) 0.0246(14) 0.0248(13) 0.0027(11) 0.0026(11) -0.0060(11) 
C1B 0.014(3) 0.015(4) 0.021(3) -0.002(3) 0.001(2) -0.001(3) 
Si2B 0.0096(14) 0.0251(15) 0.0269(14) 0.0017(11) 0.0041(10) -0.0017(11) 
C2B 0.010(3) 0.020(4) 0.022(3) -0.001(3) 0.000(3) -0.003(3) 
S3B 0.0104(12) 0.0230(12) 0.0227(12) -0.0014(9) -0.0002(9) -0.0063(10) 
C4B 0.013(3) 0.019(4) 0.025(3) -0.002(3) 0.000(3) -0.003(3) 
C5B 0.014(4) 0.023(4) 0.030(3) -0.004(3) -0.002(3) -0.003(3) 
C6B 0.018(4) 0.020(4) 0.035(3) -0.005(3) 0.001(3) -0.004(3) 
C7B 0.014(4) 0.022(4) 0.034(3) -0.001(3) 0.004(3) -0.006(3) 
C8B 0.010(3) 0.023(4) 0.030(3) 0.001(3) 0.003(3) -0.003(3) 
C9B 0.012(3) 0.014(3) 0.023(3) -0.003(3) 0.003(3) -0.002(3) 
C10B 0.008(3) 0.017(4) 0.021(2) -0.003(3) 0.002(2) 0.000(3) 
C11B 0.013(3) 0.014(3) 0.021(3) -0.002(3) 0.001(2) -0.001(3) 
C12B 0.011(3) 0.023(4) 0.020(3) -0.002(3) -0.002(3) -0.002(3) 
S13B 0.0115(12) 0.0304(14) 0.0244(12) -0.0037(10) -0.0038(9) -0.0042(10) 
C14B 0.017(4) 0.022(4) 0.027(3) -0.005(3) -0.003(3) -0.003(3) 
C15B 0.020(4) 0.028(4) 0.034(3) -0.003(3) -0.008(3) -0.008(3) 
C16B 0.018(4) 0.026(4) 0.040(3) -0.002(3) -0.007(3) -0.007(3) 
C17B 0.020(4) 0.020(4) 0.037(3) -0.001(3) -0.002(3) -0.007(3) 
C18B 0.020(4) 0.025(4) 0.032(3) 0.001(3) -0.003(3) -0.009(3) 
C19B 0.013(3) 0.017(4) 0.026(3) -0.006(3) 0.001(3) -0.002(3) 
C20B 0.013(3) 0.015(4) 0.022(2) -0.002(3) 0.000(3) -0.002(3) 
C21B 0.014(4) 0.019(4) 0.022(3) 0.001(3) -0.002(3) -0.003(3) 
C22B 0.014(4) 0.021(4) 0.024(3) 0.000(3) 0.000(3) -0.002(3) 
C23B 0.023(3) 0.050(5) 0.038(4) 0.008(4) -0.001(3) -0.012(3) 
C24B 0.027(4) 0.030(3) 0.033(4) 0.005(3) 0.004(3) -0.005(3) 
C25B 0.037(4) 0.035(4) 0.031(4) -0.003(3) 0.006(3) -0.005(3) 
C26B 0.014(4) 0.023(4) 0.022(3) 0.000(3) 0.001(3) 0.001(3) 
C27B 0.011(4) 0.027(4) 0.027(3) 0.001(3) 0.003(3) 0.000(3) 
C28B 0.029(4) 0.036(4) 0.033(4) 0.005(3) -0.003(3) 0.001(3) 
C29B 0.023(4) 0.033(3) 0.029(4) -0.005(3) 0.002(3) -0.001(3) 
C30B 0.033(4) 0.032(4) 0.046(5) 0.003(3) 0.004(3) -0.012(3) 
Si1A 0.0086(13) 0.0241(14) 0.0249(13) 0.0004(11) -0.0018(10) -0.0023(11) 
C1A 0.007(3) 0.019(4) 0.022(3) -0.002(3) 0.002(3) -0.001(3) 
C2A 0.011(3) 0.020(4) 0.023(3) -0.003(3) 0.002(2) -0.005(3) 
S3A 0.0077(11) 0.0227(13) 0.0317(13) 0.0025(10) 0.0008(10) -0.0027(10) 
C5A 0.019(4) 0.030(4) 0.035(4) -0.002(3) -0.001(3) -0.007(3) 
C6A 0.012(4) 0.021(4) 0.037(4) -0.008(3) 0.001(3) -0.001(3) 
C7A 0.020(4) 0.031(4) 0.032(3) -0.008(3) -0.003(3) -0.007(3) 
C8A 0.015(4) 0.022(4) 0.026(4) -0.005(3) -0.004(3) -0.002(3) 
C9A 0.014(4) 0.022(4) 0.026(3) -0.006(3) -0.002(3) -0.002(3) 
C10A 0.014(3) 0.012(3) 0.021(3) -0.004(3) 0.001(3) -0.005(3) 
C11A 0.014(4) 0.024(4) 0.022(3) 0.001(3) 0.001(3) -0.007(3) 
C12A 0.015(4) 0.029(4) 0.028(3) 0.002(3) -0.002(3) -0.004(3) 
C13A 0.033(4) 0.032(4) 0.038(4) -0.003(3) -0.009(3) -0.012(3) 
C14A 0.028(4) 0.028(4) 0.032(3) 0.001(3) 0.005(3) -0.002(3) 
C15A 0.023(4) 0.029(3) 0.034(4) -0.001(3) 0.001(3) -0.002(3) 
 
_geom_special_details 
; 
 All esds (except the esd in the dihedral angle between two l.s. planes) 
 are estimated using the full covariance matrix.  The cell esds are taken 
 into account individually in the estimation of esds in distances, angles 
 and torsion angles; correlations between esds in cell parameters are only 
 used when they are defined by crystal symmetry.  An approximate (isotropic) 
 treatment of cell esds is used for estimating esds involving l.s. planes. 
; 
 
loop_ 
 _geom_bond_atom_site_label_1 
 _geom_bond_atom_site_label_2 
 _geom_bond_distance 
 _geom_bond_site_symmetry_2 
 _geom_bond_publ_flag 
Si1B C24B 1.843(12) . ? 
Si1B C25B 1.847(12) . ? 
Si1B C22B 1.864(10) . ? 
Si1B C23B 1.865(13) . ? 
C1B C2B 1.368(14) . ? 
C1B C20B 1.412(14) . ? 
C1B C21B 1.452(14) . ? 
Si2B C27B 1.834(11) . ? 
Si2B C30B 1.838(13) . ? 
Si2B C29B 1.851(11) . ? 
Si2B C28B 1.875(12) . ? 
C2B C10B 1.399(14) . ? 
C2B S3B 1.747(10) . ? 
S3B C4B 1.733(11) . ? 
C4B C9B 1.395(14) . ? 
C4B C5B 1.401(15) . ? 
C5B C6B 1.401(15) . ? 
C5B H5B 0.9500 . ? 
C6B C7B 1.355(15) . ? 
C6B H6B 0.9500 . ? 
C7B C8B 1.388(15) . ? 
C7B H7B 0.9500 . ? 
C8B C9B 1.394(14) . ? 
C8B H8B 0.9500 . ? 
C9B C10B 1.477(14) . ? 
C10B C11B 1.408(14) . ? 
C11B C12B 1.363(14) . ? 
C11B C26B 1.429(14) . ? 
C12B C20B 1.415(14) . ? 
C12B S13B 1.759(10) . ? 
S13B C14B 1.734(11) . ? 
C14B C15B 1.377(15) . ? 
C14B C19B 1.420(14) . ? 
C15B C16B 1.386(16) . ? 
C15B H15B 0.9500 . ? 
C16B C17B 1.377(16) . ? 
C16B H16B 0.9500 . ? 
C17B C18B 1.381(16) . ? 
C17B H17B 0.9500 . ? 
C18B C19B 1.398(15) . ? 
C18B H18B 0.9500 . ? 
C19B C20B 1.451(14) . ? 
C21B C22B 1.167(14) . ? 
C23B H23A 0.9800 . ? 
C23B H23B 0.9800 . ? 
C23B H23C 0.9800 . ? 
C24B H24A 0.9800 . ? 
C24B H24B 0.9800 . ? 
C24B H24C 0.9800 . ? 
C25B H25A 0.9800 . ? 
C25B H25B 0.9800 . ? 
C25B H25C 0.9800 . ? 
C26B C27B 1.200(14) . ? 
C28B H28A 0.9800 . ? 
C28B H28B 0.9800 . ? 
C28B H28C 0.9800 . ? 
C29B H29A 0.9800 . ? 
C29B H29B 0.9800 . ? 
C29B H29C 0.9800 . ? 
C30B H30A 0.9800 . ? 
C30B H30B 0.9800 . ? 
C30B H30C 0.9800 . ? 
Si1A C12A 1.837(11) . ? 
Si1A C14A 1.838(12) . ? 
Si1A C13A 1.840(12) . ? 
Si1A C15A 1.851(11) . ? 
C1A C10A 1.392(13) 2_665 ? 
C1A C2A 1.409(14) . ? 
C1A C11A 1.432(14) . ? 
C2A C10A 1.414(14) . ? 
C2A S3A 1.713(10) . ? 
S3A C4A 1.761(11) . ? 
C4A C5A 1.369(16) . ? 
C4A C9A 1.394(15) . ? 
C5A C6A 1.401(16) . ? 
C5A H5A 0.9500 . ? 
C6A C7A 1.378(16) . ? 
C6A H6A 0.9500 . ? 
C7A C8A 1.372(15) . ? 
C7A H7A 0.9500 . ? 
C8A C9A 1.430(14) . ? 
C8A H8A 0.9500 . ? 
C9A C10A 1.443(14) . ? 
C10A C1A 1.392(13) 2_665 ? 
C11A C12A 1.211(15) . ? 
C13A H13A 0.9800 . ? 
C13A H13B 0.9800 . ? 
C13A H13C 0.9800 . ? 
C14A H14A 0.9800 . ? 
C14A H14B 0.9800 . ? 
C14A H14C 0.9800 . ? 
C15A H15A 0.9800 . ? 
C15A H15C 0.9800 . ? 
C15A H15D 0.9800 . ? 
 
loop_ 
 _geom_angle_atom_site_label_1 
 _geom_angle_atom_site_label_2 
 _geom_angle_atom_site_label_3 
 _geom_angle 
 _geom_angle_site_symmetry_1 
 _geom_angle_site_symmetry_3 
 _geom_angle_publ_flag 
C24B Si1B C25B 109.8(6) . . ? 
C24B Si1B C22B 108.8(5) . . ? 
C25B Si1B C22B 107.5(5) . . ? 
C24B Si1B C23B 110.2(6) . . ? 
C25B Si1B C23B 111.3(6) . . ? 
C22B Si1B C23B 109.2(5) . . ? 
C2B C1B C20B 117.7(9) . . ? 
C2B C1B C21B 120.4(9) . . ? 
C20B C1B C21B 121.9(9) . . ? 
C27B Si2B C30B 108.4(6) . . ? 
C27B Si2B C29B 108.4(5) . . ? 
C30B Si2B C29B 110.4(6) . . ? 
C27B Si2B C28B 106.4(5) . . ? 
C30B Si2B C28B 112.9(6) . . ? 
C29B Si2B C28B 110.1(6) . . ? 
C1B C2B C10B 124.8(9) . . ? 
C1B C2B S3B 123.0(8) . . ? 
C10B C2B S3B 112.2(7) . . ? 
C4B S3B C2B 90.9(5) . . ? 
C9B C4B C5B 120.8(10) . . ? 
C9B C4B S3B 114.7(8) . . ? 
C5B C4B S3B 124.4(8) . . ? 
C6B C5B C4B 117.9(10) . . ? 
C6B C5B H5B 121.1 . . ? 
C4B C5B H5B 121.1 . . ? 
C7B C6B C5B 120.7(10) . . ? 
C7B C6B H6B 119.7 . . ? 
C5B C6B H6B 119.7 . . ? 
C6B C7B C8B 122.2(10) . . ? 
C6B C7B H7B 118.9 . . ? 
C8B C7B H7B 118.9 . . ? 
C7B C8B C9B 118.3(10) . . ? 
C7B C8B H8B 120.8 . . ? 
C9B C8B H8B 120.8 . . ? 
C4B C9B C8B 120.0(9) . . ? 
C4B C9B C10B 109.5(9) . . ? 
C8B C9B C10B 130.5(9) . . ? 
C2B C10B C11B 118.2(9) . . ? 
C2B C10B C9B 112.6(8) . . ? 
C11B C10B C9B 129.1(9) . . ? 
C12B C11B C10B 116.9(9) . . ? 
C12B C11B C26B 119.4(9) . . ? 
C10B C11B C26B 123.7(9) . . ? 
C11B C12B C20B 125.4(9) . . ? 
C11B C12B S13B 122.8(8) . . ? 
C20B C12B S13B 111.7(7) . . ? 
C14B S13B C12B 91.3(5) . . ? 
C15B C14B C19B 121.2(10) . . ? 
C15B C14B S13B 125.3(9) . . ? 
C19B C14B S13B 113.6(8) . . ? 
C14B C15B C16B 118.6(10) . . ? 
C14B C15B H15B 120.7 . . ? 
C16B C15B H15B 120.7 . . ? 
C17B C16B C15B 120.9(10) . . ? 
C17B C16B H16B 119.5 . . ? 
C15B C16B H16B 119.5 . . ? 
C16B C17B C18B 121.3(11) . . ? 
C16B C17B H17B 119.4 . . ? 
C18B C17B H17B 119.4 . . ? 
C17B C18B C19B 119.1(10) . . ? 
C17B C18B H18B 120.4 . . ? 
C19B C18B H18B 120.4 . . ? 
C18B C19B C14B 118.8(10) . . ? 
C18B C19B C20B 130.6(9) . . ? 
C14B C19B C20B 110.6(9) . . ? 
C1B C20B C12B 116.9(9) . . ? 
C1B C20B C19B 130.3(9) . . ? 
C12B C20B C19B 112.8(9) . . ? 
C22B C21B C1B 171.1(11) . . ? 
C21B C22B Si1B 174.6(10) . . ? 
Si1B C23B H23A 109.5 . . ? 
Si1B C23B H23B 109.5 . . ? 
H23A C23B H23B 109.5 . . ? 
Si1B C23B H23C 109.5 . . ? 
H23A C23B H23C 109.5 . . ? 
H23B C23B H23C 109.5 . . ? 
Si1B C24B H24A 109.5 . . ? 
Si1B C24B H24B 109.5 . . ? 
H24A C24B H24B 109.5 . . ? 
Si1B C24B H24C 109.5 . . ? 
H24A C24B H24C 109.5 . . ? 
H24B C24B H24C 109.5 . . ? 
Si1B C25B H25A 109.5 . . ? 
Si1B C25B H25B 109.5 . . ? 
H25A C25B H25B 109.5 . . ? 
Si1B C25B H25C 109.5 . . ? 
H25A C25B H25C 109.5 . . ? 
H25B C25B H25C 109.5 . . ? 
C27B C26B C11B 175.7(11) . . ? 
C26B C27B Si2B 176.1(10) . . ? 
Si2B C28B H28A 109.5 . . ? 
Si2B C28B H28B 109.5 . . ? 
H28A C28B H28B 109.5 . . ? 
Si2B C28B H28C 109.5 . . ? 
H28A C28B H28C 109.5 . . ? 
H28B C28B H28C 109.5 . . ? 
Si2B C29B H29A 109.5 . . ? 
Si2B C29B H29B 109.5 . . ? 
H29A C29B H29B 109.5 . . ? 
Si2B C29B H29C 109.5 . . ? 
H29A C29B H29C 109.5 . . ? 
H29B C29B H29C 109.5 . . ? 
Si2B C30B H30A 109.5 . . ? 
Si2B C30B H30B 109.5 . . ? 
H30A C30B H30B 109.5 . . ? 
Si2B C30B H30C 109.5 . . ? 
H30A C30B H30C 109.5 . . ? 
H30B C30B H30C 109.5 . . ? 
C12A Si1A C14A 109.4(5) . . ? 
C12A Si1A C13A 107.2(5) . . ? 
C14A Si1A C13A 112.3(6) . . ? 
C12A Si1A C15A 108.8(5) . . ? 
C14A Si1A C15A 109.4(5) . . ? 
C13A Si1A C15A 109.6(6) . . ? 
C10A C1A C2A 118.2(9) 2_665 . ? 
C10A C1A C11A 123.4(9) 2_665 . ? 
C2A C1A C11A 118.3(9) . . ? 
C10A C2A C1A 121.9(9) . . ? 
C10A C2A S3A 114.5(8) . . ? 
C1A C2A S3A 123.5(8) . . ? 
C2A S3A C4A 90.9(5) . . ? 
C5A C4A C9A 124.2(10) . . ? 
C5A C4A S3A 124.5(8) . . ? 
C9A C4A S3A 111.3(8) . . ? 
C4A C5A C6A 117.9(10) . . ? 
C4A C5A H5A 121.0 . . ? 
C6A C5A H5A 121.0 . . ? 
C7A C6A C5A 119.5(10) . . ? 
C7A C6A H6A 120.3 . . ? 
C5A C6A H6A 120.3 . . ? 
C8A C7A C6A 122.7(11) . . ? 
C8A C7A H7A 118.7 . . ? 
C6A C7A H7A 118.7 . . ? 
C7A C8A C9A 118.9(10) . . ? 
C7A C8A H8A 120.5 . . ? 
C9A C8A H8A 120.5 . . ? 
C4A C9A C8A 116.8(10) . . ? 
C4A C9A C10A 113.8(9) . . ? 
C8A C9A C10A 129.5(10) . . ? 
C1A C10A C2A 119.9(9) 2_665 . ? 
C1A C10A C9A 130.7(9) 2_665 . ? 
C2A C10A C9A 109.4(9) . . ? 
C12A C11A C1A 174.8(11) . . ? 
C11A C12A Si1A 174.3(10) . . ? 
Si1A C13A H13A 109.5 . . ? 
Si1A C13A H13B 109.5 . . ? 
H13A C13A H13B 109.5 . . ? 
Si1A C13A H13C 109.5 . . ? 
H13A C13A H13C 109.5 . . ? 
H13B C13A H13C 109.5 . . ? 
Si1A C14A H14A 109.5 . . ? 
Si1A C14A H14B 109.5 . . ? 
H14A C14A H14B 109.5 . . ? 
Si1A C14A H14C 109.5 . . ? 
H14A C14A H14C 109.5 . . ? 
H14B C14A H14C 109.5 . . ? 
Si1A C15A H15A 109.5 . . ? 
Si1A C15A H15C 109.5 . . ? 
H15A C15A H15C 109.5 . . ? 
Si1A C15A H15D 109.5 . . ? 
H15A C15A H15D 109.5 . . ? 
H15C C15A H15D 109.5 . . ? 
 
_diffrn_measured_fraction_theta_max    0.968 
_diffrn_reflns_theta_full              25.52 
_diffrn_measured_fraction_theta_full   0.968 
_refine_diff_density_max    1.047 
_refine_diff_density_min   -1.009 
_refine_diff_density_rms    0.204 
