 
data_x08035 
 
_audit_creation_method            SHELXL-97 
_chemical_name_systematic 
; 
 ? 
; 
_chemical_name_common             ? 
_chemical_melting_point           ? 
_chemical_formula_moiety 
 'C34 H38 S2 Si2' 
_chemical_formula_sum 
 'C34 H38 S2 Si2' 
_chemical_formula_weight          566.96 
 
loop_ 
 _atom_type_symbol 
 _atom_type_description 
 _atom_type_scat_dispersion_real 
 _atom_type_scat_dispersion_imag 
 _atom_type_scat_source 
 'C'  'C'   0.0181   0.0091 
 'International Tables Vol C Tables 4.2.6.8 and 6.1.1.4' 
 'H'  'H'   0.0000   0.0000 
 'International Tables Vol C Tables 4.2.6.8 and 6.1.1.4' 
 'Si'  'Si'   0.2541   0.3302 
 'International Tables Vol C Tables 4.2.6.8 and 6.1.1.4' 
 'S'  'S'   0.3331   0.5567 
 'International Tables Vol C Tables 4.2.6.8 and 6.1.1.4' 
 
_symmetry_cell_setting            monoclinic
_symmetry_space_group_name_H-M    'P 21/c'
_symmetry_space_group_name_Hall   '-P 2ybc'
 
loop_ 
 _symmetry_equiv_pos_as_xyz 
 'x, y, z' 
 '-x, y+1/2, -z+1/2' 
 '-x, -y, -z' 
 'x, -y-1/2, z-1/2' 
 
_cell_length_a                    6.4355(7) 
_cell_length_b                    20.067(2) 
_cell_length_c                    12.0940(13) 
_cell_angle_alpha                 90.00 
_cell_angle_beta                  92.200(6) 
_cell_angle_gamma                 90.00 
_cell_volume                      1560.7(3) 
_cell_formula_units_Z             2 
_cell_measurement_temperature     90.0(2) 
_cell_measurement_reflns_used     2627
_cell_measurement_theta_min       4.27
_cell_measurement_theta_max       68.92
 
_exptl_crystal_description        needle
_exptl_crystal_colour             yellow
_exptl_crystal_size_max           0.30 
_exptl_crystal_size_mid           0.02 
_exptl_crystal_size_min           0.02 
_exptl_crystal_density_meas       ? 
_exptl_crystal_density_diffrn     1.207 
_exptl_crystal_density_method     'not measured' 
_exptl_crystal_F_000              604 
_exptl_absorpt_coefficient_mu     2.430 
_exptl_absorpt_correction_type    multi-scan 
_exptl_absorpt_correction_T_min   0.663 
_exptl_absorpt_correction_T_max   0.953 
_exptl_absorpt_process_details    'Sadabs in APEX2 (BrukerAXS, 2006)' 
 
_exptl_special_details 
; 
 ? 
; 
 
_diffrn_ambient_temperature       90.0(2) 
_diffrn_radiation_wavelength      1.54178 
_diffrn_radiation_type            CuK\a 
_diffrn_radiation_source          'fine-focus rotating anode' 
_diffrn_radiation_monochromator   'graded multilayer optics' 
_diffrn_measurement_device_type   'Bruker X8 Proteum diffractometer'
_diffrn_measurement_method        '\f and \w scans'            
_diffrn_detector_area_resol_mean  18
_diffrn_standards_number          0 
_diffrn_standards_interval_count  . 
_diffrn_standards_interval_time   . 
_diffrn_standards_decay_%         ? 
_diffrn_reflns_number             20208 
_diffrn_reflns_av_R_equivalents   0.1035 
_diffrn_reflns_av_sigmaI/netI     0.0656 
_diffrn_reflns_limit_h_min        -5 
_diffrn_reflns_limit_h_max        7 
_diffrn_reflns_limit_k_min        -24 
_diffrn_reflns_limit_k_max        24 
_diffrn_reflns_limit_l_min        -14 
_diffrn_reflns_limit_l_max        14 
_diffrn_reflns_theta_min          4.27 
_diffrn_reflns_theta_max          68.79 
_reflns_number_total              2858 
_reflns_number_gt                 2157 
_reflns_threshold_expression      >2\s(I)    
 
_computing_data_collection        'APEX2 (Bruker-AXS, 2006)'            
_computing_cell_refinement        'APEX2 (Bruker-AXS, 2006)'            
_computing_data_reduction         'APEX2 (Bruker-AXS, 2006)'            
_computing_structure_solution     'SHELXS-97 (Sheldrick, 2008)' 
_computing_structure_refinement   'SHELXL-97 (Sheldrick, 2008)' 
_computing_molecular_graphics     'XP in SHELXTL (Sheldrick, 2008)'
_computing_publication_material
; 
SHELX97-2 (Sheldrick, 2008) and local procedures 
; 

_publ_section_exptl_refinement
;
H atoms were found in difference Fourier maps and subsequently placed in
idealized positions with constrained C-H distances of 0.98 \%A (RCH~3~), 
and 0.95 \%A (C~Ar~H) with U~iso~(H) values set to either 1.5U~eq~ (RCH~3~) 
or 1.2U~eq~ of the attached C atom.
;
 
_refine_special_details 
; 
 Refinement of F^2^ against ALL reflections.  The weighted R-factor wR and 
 goodness of fit S are based on F^2^, conventional R-factors R are based 
 on F, with F set to zero for negative F^2^. The threshold expression of 
 F^2^ > 2\s(F^2^) is used only for calculating R-factors(gt) etc. and is 
 not relevant to the choice of reflections for refinement.  R-factors based 
 on F^2^ are statistically about twice as large as those based on F, and R- 
 factors based on ALL data will be even larger. 
; 
 
_refine_ls_structure_factor_coef  Fsqd  
_refine_ls_matrix_type            full 
_refine_ls_weighting_scheme       calc  
_refine_ls_weighting_details 
 'calc w=1/[\s^2^(Fo^2^)+(0.0801P)^2^+2.2495P] where P=(Fo^2^+2Fc^2^)/3' 
_atom_sites_solution_primary      direct 
_atom_sites_solution_secondary    difmap 
_atom_sites_solution_hydrogens    geom 
_refine_ls_hydrogen_treatment     constr 
_refine_ls_extinction_method      none 
_refine_ls_extinction_coef        ? 
_refine_ls_number_reflns          2858 
_refine_ls_number_parameters      177 
_refine_ls_number_restraints      0 
_refine_ls_R_factor_all           0.0882 
_refine_ls_R_factor_gt            0.0622 
_refine_ls_wR_factor_ref          0.1727 
_refine_ls_wR_factor_gt           0.1524 
_refine_ls_goodness_of_fit_ref    1.053 
_refine_ls_restrained_S_all       1.053 
_refine_ls_shift/su_max           0.001 
_refine_ls_shift/su_mean          0.000 
 
loop_ 
 _atom_site_label 
 _atom_site_type_symbol 
 _atom_site_fract_x 
 _atom_site_fract_y 
 _atom_site_fract_z 
 _atom_site_U_iso_or_equiv 
 _atom_site_adp_type 
 _atom_site_occupancy 
 _atom_site_symmetry_multiplicity 
 _atom_site_calc_flag 
 _atom_site_refinement_flags 
 _atom_site_disorder_assembly 
 _atom_site_disorder_group 
Si1 Si -0.28690(16) 0.68298(5) 0.84353(8) 0.0318(3) Uani 1 1 d . . . 
C1 C -0.0730(5) 0.54439(16) 0.5809(3) 0.0251(7) Uani 1 1 d . . . 
C2 C 0.1076(5) 0.50751(16) 0.5977(3) 0.0263(7) Uani 1 1 d . . . 
S3 S 0.26282(13) 0.51143(4) 0.71908(7) 0.0292(3) Uani 1 1 d . . . 
C4 C 0.4377(5) 0.45485(17) 0.6651(3) 0.0282(7) Uani 1 1 d . . . 
C5 C 0.6189(6) 0.43264(18) 0.7189(3) 0.0317(8) Uani 1 1 d . . . 
H5 H 0.6552 0.4471 0.7919 0.038 Uiso 1 1 calc R . . 
C6 C 0.7450(6) 0.38917(18) 0.6645(3) 0.0316(8) Uani 1 1 d . . . 
H6 H 0.8705 0.3740 0.6999 0.038 Uiso 1 1 calc R . . 
C7 C 0.6912(6) 0.36729(18) 0.5588(3) 0.0299(8) Uani 1 1 d . . . 
H7 H 0.7803 0.3374 0.5224 0.036 Uiso 1 1 calc R . . 
C8 C 0.5095(5) 0.38846(17) 0.5055(3) 0.0292(7) Uani 1 1 d . . . 
H8 H 0.4735 0.3730 0.4330 0.035 Uiso 1 1 calc R . . 
C9 C 0.3788(5) 0.43268(17) 0.5585(3) 0.0252(7) Uani 1 1 d . . . 
C10 C 0.1860(5) 0.46336(17) 0.5197(3) 0.0257(7) Uani 1 1 d . . . 
C11 C -0.1376(5) 0.58912(17) 0.6661(3) 0.0275(7) Uani 1 1 d . . . 
C12 C -0.1843(6) 0.62678(18) 0.7387(3) 0.0319(8) Uani 1 1 d . . . 
C13 C -0.1332(6) 0.7609(2) 0.8461(4) 0.0417(9) Uani 1 1 d . . . 
H13A H 0.0135 0.7505 0.8626 0.063 Uiso 1 1 calc R . . 
H13B H -0.1844 0.7907 0.9032 0.063 Uiso 1 1 calc R . . 
H13C H -0.1473 0.7828 0.7738 0.063 Uiso 1 1 calc R . . 
C14 C -0.5625(7) 0.7003(2) 0.8018(4) 0.0443(10) Uani 1 1 d . . . 
H14A H -0.5697 0.7188 0.7268 0.066 Uiso 1 1 calc R . . 
H14B H -0.6204 0.7325 0.8533 0.066 Uiso 1 1 calc R . . 
H14C H -0.6426 0.6588 0.8035 0.066 Uiso 1 1 calc R . . 
C15 C -0.2636(7) 0.6393(2) 0.9813(3) 0.0442(10) Uani 1 1 d . . . 
C16 C -0.0367(9) 0.6291(3) 1.0162(4) 0.0686(15) Uani 1 1 d . . . 
H16A H -0.0275 0.6036 1.0853 0.103 Uiso 1 1 calc R . . 
H16B H 0.0303 0.6726 1.0276 0.103 Uiso 1 1 calc R . . 
H16C H 0.0335 0.6047 0.9582 0.103 Uiso 1 1 calc R . . 
C17 C -0.3703(10) 0.6827(3) 1.0675(4) 0.0653(15) Uani 1 1 d . . . 
H17A H -0.5167 0.6892 1.0447 0.098 Uiso 1 1 calc R . . 
H17B H -0.3006 0.7260 1.0730 0.098 Uiso 1 1 calc R . . 
H17C H -0.3615 0.6604 1.1397 0.098 Uiso 1 1 calc R . . 
C18 C -0.3726(9) 0.5722(2) 0.9744(4) 0.0544(12) Uani 1 1 d . . . 
H18A H -0.3043 0.5438 0.9208 0.082 Uiso 1 1 calc R . . 
H18B H -0.5185 0.5787 0.9507 0.082 Uiso 1 1 calc R . . 
H18C H -0.3654 0.5508 1.0473 0.082 Uiso 1 1 calc R . . 
 
loop_ 
 _atom_site_aniso_label 
 _atom_site_aniso_U_11 
 _atom_site_aniso_U_22 
 _atom_site_aniso_U_33 
 _atom_site_aniso_U_23 
 _atom_site_aniso_U_13 
 _atom_site_aniso_U_12 
Si1 0.0326(6) 0.0320(5) 0.0310(5) -0.0054(4) 0.0021(4) -0.0019(4) 
C1 0.0265(17) 0.0263(17) 0.0228(16) -0.0002(12) 0.0038(13) -0.0011(13) 
C2 0.0271(18) 0.0262(17) 0.0256(16) 0.0005(13) 0.0011(13) -0.0021(13) 
S3 0.0301(5) 0.0330(5) 0.0243(4) -0.0027(3) -0.0022(3) 0.0029(3) 
C4 0.0295(19) 0.0299(18) 0.0252(17) 0.0010(13) 0.0014(14) -0.0017(13) 
C5 0.034(2) 0.0336(19) 0.0270(18) 0.0009(14) -0.0026(14) -0.0008(15) 
C6 0.0277(19) 0.0329(19) 0.0338(19) 0.0069(14) -0.0034(14) 0.0008(14) 
C7 0.0309(19) 0.0260(17) 0.0328(18) 0.0032(13) 0.0023(14) 0.0006(13) 
C8 0.0302(18) 0.0279(18) 0.0294(18) 0.0010(13) 0.0013(14) -0.0013(14) 
C9 0.0232(17) 0.0273(17) 0.0251(17) 0.0024(12) -0.0004(13) -0.0024(13) 
C10 0.0241(17) 0.0272(17) 0.0258(17) 0.0013(13) 0.0015(13) 0.0002(13) 
C11 0.0263(18) 0.0315(18) 0.0245(17) -0.0030(14) -0.0011(13) 0.0006(13) 
C12 0.0288(19) 0.0344(19) 0.0321(19) 0.0030(15) -0.0033(15) 0.0016(14) 
C13 0.038(2) 0.040(2) 0.047(2) -0.0050(17) 0.0009(18) -0.0047(17) 
C14 0.039(2) 0.040(2) 0.054(3) -0.0086(18) 0.0001(19) 0.0018(17) 
C15 0.057(3) 0.049(2) 0.027(2) -0.0036(16) 0.0010(18) -0.0130(19) 
C16 0.070(4) 0.085(4) 0.050(3) 0.013(3) -0.020(3) -0.010(3) 
C17 0.093(4) 0.065(3) 0.039(3) -0.014(2) 0.020(3) -0.019(3) 
C18 0.082(4) 0.047(3) 0.034(2) 0.0026(18) 0.002(2) -0.017(2) 
 
_geom_special_details 
; 
 All esds (except the esd in the dihedral angle between two l.s. planes) 
 are estimated using the full covariance matrix.  The cell esds are taken 
 into account individually in the estimation of esds in distances, angles 
 and torsion angles; correlations between esds in cell parameters are only 
 used when they are defined by crystal symmetry.  An approximate (isotropic) 
 treatment of cell esds is used for estimating esds involving l.s. planes. 
; 
 
loop_ 
 _geom_bond_atom_site_label_1 
 _geom_bond_atom_site_label_2 
 _geom_bond_distance 
 _geom_bond_site_symmetry_2 
 _geom_bond_publ_flag 
Si1 C12 1.839(4) . ? 
Si1 C13 1.850(4) . ? 
Si1 C14 1.858(4) . ? 
Si1 C15 1.884(4) . ? 
C1 C2 1.386(5) . ? 
C1 C10 1.402(5) 3_566 ? 
C1 C11 1.439(5) . ? 
C2 C10 1.402(5) . ? 
C2 S3 1.745(3) . ? 
S3 C4 1.743(4) . ? 
C4 C5 1.387(5) . ? 
C4 C9 1.402(5) . ? 
C5 C6 1.376(5) . ? 
C5 H5 0.9500 . ? 
C6 C7 1.383(5) . ? 
C6 H6 0.9500 . ? 
C7 C8 1.380(5) . ? 
C7 H7 0.9500 . ? 
C8 C9 1.395(5) . ? 
C8 H8 0.9500 . ? 
C9 C10 1.447(5) . ? 
C10 C1 1.402(5) 3_566 ? 
C11 C12 1.205(5) . ? 
C13 H13A 0.9800 . ? 
C13 H13B 0.9800 . ? 
C13 H13C 0.9800 . ? 
C14 H14A 0.9800 . ? 
C14 H14B 0.9800 . ? 
C14 H14C 0.9800 . ? 
C15 C16 1.518(7) . ? 
C15 C18 1.519(6) . ? 
C15 C17 1.540(6) . ? 
C16 H16A 0.9800 . ? 
C16 H16B 0.9800 . ? 
C16 H16C 0.9800 . ? 
C17 H17A 0.9800 . ? 
C17 H17B 0.9800 . ? 
C17 H17C 0.9800 . ? 
C18 H18A 0.9800 . ? 
C18 H18B 0.9800 . ? 
C18 H18C 0.9800 . ? 
 
loop_ 
 _geom_angle_atom_site_label_1 
 _geom_angle_atom_site_label_2 
 _geom_angle_atom_site_label_3 
 _geom_angle 
 _geom_angle_site_symmetry_1 
 _geom_angle_site_symmetry_3 
 _geom_angle_publ_flag 
C12 Si1 C13 108.92(19) . . ? 
C12 Si1 C14 106.97(18) . . ? 
C13 Si1 C14 110.5(2) . . ? 
C12 Si1 C15 107.82(18) . . ? 
C13 Si1 C15 110.75(19) . . ? 
C14 Si1 C15 111.7(2) . . ? 
C2 C1 C10 118.2(3) . 3_566 ? 
C2 C1 C11 119.5(3) . . ? 
C10 C1 C11 122.4(3) 3_566 . ? 
C1 C2 C10 124.0(3) . . ? 
C1 C2 S3 123.3(3) . . ? 
C10 C2 S3 112.7(3) . . ? 
C4 S3 C2 90.72(16) . . ? 
C5 C4 C9 121.5(3) . . ? 
C5 C4 S3 125.2(3) . . ? 
C9 C4 S3 113.3(3) . . ? 
C6 C5 C4 118.6(3) . . ? 
C6 C5 H5 120.7 . . ? 
C4 C5 H5 120.7 . . ? 
C5 C6 C7 120.8(3) . . ? 
C5 C6 H6 119.6 . . ? 
C7 C6 H6 119.6 . . ? 
C8 C7 C6 120.7(3) . . ? 
C8 C7 H7 119.6 . . ? 
C6 C7 H7 119.6 . . ? 
C7 C8 C9 119.7(3) . . ? 
C7 C8 H8 120.1 . . ? 
C9 C8 H8 120.1 . . ? 
C8 C9 C4 118.5(3) . . ? 
C8 C9 C10 130.2(3) . . ? 
C4 C9 C10 111.2(3) . . ? 
C1 C10 C2 117.8(3) 3_566 . ? 
C1 C10 C9 130.1(3) 3_566 . ? 
C2 C10 C9 112.1(3) . . ? 
C12 C11 C1 177.6(4) . . ? 
C11 C12 Si1 173.4(3) . . ? 
Si1 C13 H13A 109.5 . . ? 
Si1 C13 H13B 109.5 . . ? 
H13A C13 H13B 109.5 . . ? 
Si1 C13 H13C 109.5 . . ? 
H13A C13 H13C 109.5 . . ? 
H13B C13 H13C 109.5 . . ? 
Si1 C14 H14A 109.5 . . ? 
Si1 C14 H14B 109.5 . . ? 
H14A C14 H14B 109.5 . . ? 
Si1 C14 H14C 109.5 . . ? 
H14A C14 H14C 109.5 . . ? 
H14B C14 H14C 109.5 . . ? 
C16 C15 C18 109.5(4) . . ? 
C16 C15 C17 109.7(4) . . ? 
C18 C15 C17 108.7(4) . . ? 
C16 C15 Si1 110.6(3) . . ? 
C18 C15 Si1 110.1(3) . . ? 
C17 C15 Si1 108.2(3) . . ? 
C15 C16 H16A 109.5 . . ? 
C15 C16 H16B 109.5 . . ? 
H16A C16 H16B 109.5 . . ? 
C15 C16 H16C 109.5 . . ? 
H16A C16 H16C 109.5 . . ? 
H16B C16 H16C 109.5 . . ? 
C15 C17 H17A 109.5 . . ? 
C15 C17 H17B 109.5 . . ? 
H17A C17 H17B 109.5 . . ? 
C15 C17 H17C 109.5 . . ? 
H17A C17 H17C 109.5 . . ? 
H17B C17 H17C 109.5 . . ? 
C15 C18 H18A 109.5 . . ? 
C15 C18 H18B 109.5 . . ? 
H18A C18 H18B 109.5 . . ? 
C15 C18 H18C 109.5 . . ? 
H18A C18 H18C 109.5 . . ? 
H18B C18 H18C 109.5 . . ? 
 
loop_ 
 _geom_torsion_atom_site_label_1 
 _geom_torsion_atom_site_label_2 
 _geom_torsion_atom_site_label_3 
 _geom_torsion_atom_site_label_4 
 _geom_torsion 
 _geom_torsion_site_symmetry_1 
 _geom_torsion_site_symmetry_2 
 _geom_torsion_site_symmetry_3 
 _geom_torsion_site_symmetry_4 
 _geom_torsion_publ_flag 
C10 C1 C2 C10 0.8(6) 3_566 . . . ? 
C11 C1 C2 C10 -179.0(3) . . . . ? 
C10 C1 C2 S3 -179.4(3) 3_566 . . . ? 
C11 C1 C2 S3 0.8(5) . . . . ? 
C1 C2 S3 C4 -178.8(3) . . . . ? 
C10 C2 S3 C4 1.1(3) . . . . ? 
C2 S3 C4 C5 179.0(3) . . . . ? 
C2 S3 C4 C9 -0.9(3) . . . . ? 
C9 C4 C5 C6 1.7(5) . . . . ? 
S3 C4 C5 C6 -178.2(3) . . . . ? 
C4 C5 C6 C7 -0.9(5) . . . . ? 
C5 C6 C7 C8 -0.1(5) . . . . ? 
C6 C7 C8 C9 0.3(5) . . . . ? 
C7 C8 C9 C4 0.5(5) . . . . ? 
C7 C8 C9 C10 177.9(3) . . . . ? 
C5 C4 C9 C8 -1.5(5) . . . . ? 
S3 C4 C9 C8 178.4(3) . . . . ? 
C5 C4 C9 C10 -179.4(3) . . . . ? 
S3 C4 C9 C10 0.5(4) . . . . ? 
C1 C2 C10 C1 -0.8(6) . . . 3_566 ? 
S3 C2 C10 C1 179.4(2) . . . 3_566 ? 
C1 C2 C10 C9 178.9(3) . . . . ? 
S3 C2 C10 C9 -1.0(4) . . . . ? 
C8 C9 C10 C1 2.3(6) . . . 3_566 ? 
C4 C9 C10 C1 179.8(3) . . . 3_566 ? 
C8 C9 C10 C2 -177.3(3) . . . . ? 
C4 C9 C10 C2 0.3(4) . . . . ? 
C12 Si1 C15 C16 65.8(4) . . . . ? 
C13 Si1 C15 C16 -53.3(4) . . . . ? 
C14 Si1 C15 C16 -176.9(3) . . . . ? 
C12 Si1 C15 C18 -55.3(4) . . . . ? 
C13 Si1 C15 C18 -174.4(3) . . . . ? 
C14 Si1 C15 C18 62.0(4) . . . . ? 
C12 Si1 C15 C17 -174.0(3) . . . . ? 
C13 Si1 C15 C17 66.9(4) . . . . ? 
C14 Si1 C15 C17 -56.8(4) . . . . ? 
 
_diffrn_measured_fraction_theta_max    0.989 
_diffrn_reflns_theta_full              68.79 
_diffrn_measured_fraction_theta_full   0.989 
_refine_diff_density_max    0.403 
_refine_diff_density_min   -0.422 
_refine_diff_density_rms    0.080 
