 data_k01066  _audit_creation_method            SHELXL-97 _chemical_name_systematic ;  ? ; _chemical_name_common             ? _chemical_melting_point           ? _chemical_formula_moiety          ? _chemical_formula_sum  'C19 H21 Si' _chemical_formula_weight          277.45  loop_  _atom_type_symbol  _atom_type_description  _atom_type_scat_dispersion_real  _atom_type_scat_dispersion_imag  _atom_type_scat_source  'C'  'C'    .0033    .0016  'International Tables Vol C Tables 4.2.6.8 and 6.1.1.4'  'H'  'H'    .0000    .0000  'International Tables Vol C Tables 4.2.6.8 and 6.1.1.4'  'Si'  'Si'    .0817    .0704  'International Tables Vol C Tables 4.2.6.8 and 6.1.1.4'  _symmetry_cell_setting            triclinic _symmetry_space_group_name_H-M    'P -1' loop_  _symmetry_equiv_pos_as_xyz  'x, y, z'  '-x, -y, -z'  _cell_length_a                    7.204(2) _cell_length_b                    9.994(3) _cell_length_c                    11.326(3) _cell_angle_alpha                 80.810(10) _cell_angle_beta                  89.130(10) _cell_angle_gamma                 82.210(10) _cell_volume                      797.5(4) _cell_formula_units_Z             2 _cell_measurement_temperature     173(1) _cell_measurement_reflns_used     33964_cell_measurement_theta_min       1.00_cell_measurement_theta_max       25.35  _exptl_crystal_description        laths_exptl_crystal_colour             'deep irridescent blue'_exptl_crystal_size_max           0.80 _exptl_crystal_size_mid           0.06 _exptl_crystal_size_min           0.04 _exptl_crystal_density_meas       ? _exptl_crystal_density_diffrn     1.155 _exptl_crystal_density_method     'not measured' _exptl_crystal_F_000              298 _exptl_absorpt_coefficient_mu     0.136 _exptl_absorpt_correction_type    multiscan _exptl_absorpt_correction_T_min   0.8991 _exptl_absorpt_correction_T_max   0.9946 _exptl_absorpt_process_details    'Scalepack (Otwinowski & Minor, 1997)'  _exptl_special_details ;  ? ;  _diffrn_ambient_temperature       173(1) _diffrn_radiation_wavelength      0.71073 _diffrn_radiation_type            MoK\a _diffrn_radiation_source          'fine-focus sealed tube' _diffrn_radiation_monochromator   graphite _diffrn_measurement_device_type   'Nonius KappaCCD diffractometer' _diffrn_measurement_method        '\w scans at fixed \c = 55\%'_diffrn_detector_area_resol_mean  18 _diffrn_standards_number          ?_diffrn_standards_interval_count  ? _diffrn_standards_interval_time   ? _diffrn_standards_decay_%         <1_diffrn_reflns_number             4088 _diffrn_reflns_av_R_equivalents   0.0547 _diffrn_reflns_av_sigmaI/netI     0.0753 _diffrn_reflns_limit_h_min        -7 _diffrn_reflns_limit_h_max        7 _diffrn_reflns_limit_k_min        -10 _diffrn_reflns_limit_k_max        10 _diffrn_reflns_limit_l_min        -12 _diffrn_reflns_limit_l_max        12 _diffrn_reflns_theta_min          1.82 _diffrn_reflns_theta_max          22.50 _reflns_number_total              2091 _reflns_number_gt                 1777 _reflns_threshold_expression      >2sigma(I)  _computing_data_collection        'COLLECT (Nonius, 1998)' _computing_cell_refinement        'SCALEPACK (Otwinowski & Minor, 1997)'_computing_data_reduction         'DENZO-SMN (Otwinowski & Minor, 1997)'_computing_structure_solution     'SHELXS-97 (Sheldrick, 1990)' _computing_structure_refinement   'SHELXL-97 (Sheldrick, 1997)' _computing_molecular_graphics     'XP in Siemens SHELXTL (Sheldrick, 1994)'_computing_publication_material   'SHELX97-2 (Sheldrick, 1997) and local procedures' _refine_special_details ;  Refinement of F^2^ against ALL reflections.  The weighted R-factor wR and  goodness of fit S are based on F^2^, conventional R-factors R are based  on F, with F set to zero for negative F^2^. The threshold expression of  F^2^ > 2sigma(F^2^) is used only for calculating R-factors(gt) etc. and is  not relevant to the choice of reflections for refinement.  R-factors based  on F^2^ are statistically about twice as large as those based on F, and R-  factors based on ALL data will be even larger. ;  _refine_ls_structure_factor_coef  Fsqd  _refine_ls_matrix_type            full _refine_ls_weighting_scheme       calc  _refine_ls_weighting_details  'calc w=1/[\s^2^(Fo^2^)+(0.0126P)^2^+0.3923P] where P=(Fo^2^+2Fc^2^)/3' _atom_sites_solution_primary      direct _atom_sites_solution_secondary    difmap _atom_sites_solution_hydrogens    geom _refine_ls_hydrogen_treatment     mixed _refine_ls_extinction_method      none _refine_ls_extinction_coef        ? _refine_ls_number_reflns          2091 _refine_ls_number_parameters      186 _refine_ls_number_restraints      278 _refine_ls_R_factor_all           0.0692 _refine_ls_R_factor_gt            0.0551 _refine_ls_wR_factor_ref          0.1134 _refine_ls_wR_factor_gt           0.1088 _refine_ls_goodness_of_fit_ref    1.130 _refine_ls_restrained_S_all       1.061 _refine_ls_shift/su_max           0.000 _refine_ls_shift/su_mean          0.000  loop_  _atom_site_label  _atom_site_type_symbol  _atom_site_fract_x  _atom_site_fract_y  _atom_site_fract_z  _atom_site_U_iso_or_equiv  _atom_site_adp_type  _atom_site_occupancy  _atom_site_symmetry_multiplicity  _atom_site_calc_flag  _atom_site_refinement_flags  _atom_site_disorder_assembly  _atom_site_disorder_group Si Si 0.27490(10) 0.81977(8) 0.38323(6) 0.0328(3) Uani 1 1 d U B . C1 C 0.4587(3) 0.5718(2) 0.0979(2) 0.0236(6) Uani 1 1 d U . . C2 C 0.3423(3) 0.4757(2) 0.0738(2) 0.0234(6) Uani 1 1 d U . . C3 C 0.1836(3) 0.4500(2) 0.1429(2) 0.0253(6) Uani 1 1 d U . . H3 H 0.1552 0.4977 0.2084 0.030 Uiso 1 1 calc . . . C4 C 0.0672(3) 0.3582(2) 0.1196(2) 0.0254(6) Uani 1 1 d U . . C5 C -0.0954(3) 0.3342(3) 0.1888(2) 0.0306(6) Uani 1 1 d U . . H5 H -0.1251 0.3821 0.2541 0.037 Uiso 1 1 calc . . . C6 C -0.2080(3) 0.2450(3) 0.1635(2) 0.0332(7) Uani 1 1 d U . . H6 H -0.3163 0.2315 0.2104 0.040 Uiso 1 1 calc . . . C7 C -0.1656(3) 0.1709(3) 0.0669(2) 0.0318(7) Uani 1 1 d U . . H7 H -0.2452 0.1077 0.0503 0.038 Uiso 1 1 calc . . . C8 C -0.0131(3) 0.1897(2) -0.0013(2) 0.0295(6) Uani 1 1 d U . . H8 H 0.0133 0.1392 -0.0652 0.035 Uiso 1 1 calc . . . C9 C 0.1099(3) 0.2845(2) 0.0211(2) 0.0244(6) Uani 1 1 d U . . C10 C 0.2655(3) 0.3081(2) -0.0476(2) 0.0248(6) Uani 1 1 d U . . H10 H 0.2935 0.2587 -0.1121 0.030 Uiso 1 1 calc . . . C11 C 0.3844(3) 0.4022(2) -0.0259(2) 0.0230(6) Uani 1 1 d U . . C12 C 0.4132(3) 0.6454(2) 0.1952(2) 0.0250(6) Uani 1 1 d U . . C13 C 0.3689(3) 0.7090(3) 0.2763(2) 0.0283(6) Uani 1 1 d U . . C14 C 0.2412(4) 0.9978(3) 0.2984(2) 0.0450(8) Uani 1 1 d U . . H14A H 0.1275 1.0098 0.2478 0.054 Uiso 1 1 calc R . . H14B H 0.2194 1.0629 0.3561 0.054 Uiso 1 1 calc R . . C15 C 0.4055(4) 1.0334(3) 0.2195(3) 0.0502(8) Uani 1 1 d U . . H15A H 0.3832 1.1303 0.1839 0.075 Uiso 1 1 calc R . . H15B H 0.4188 0.9769 0.1559 0.075 Uiso 1 1 calc R . . H15C H 0.5205 1.0160 0.2679 0.075 Uiso 1 1 calc R . . C16 C 0.4442(4) 0.8094(3) 0.5082(2) 0.0399(7) Uani 1 1 d U . . H16A H 0.5540 0.8526 0.4758 0.048 Uiso 1 1 calc R . . H16B H 0.3842 0.8646 0.5671 0.048 Uiso 1 1 calc R . . C17 C 0.5147(4) 0.6668(3) 0.5744(2) 0.0482(8) Uani 1 1 d U . . H17A H 0.6007 0.6740 0.6386 0.072 Uiso 1 1 calc R . . H17B H 0.5806 0.6119 0.5184 0.072 Uiso 1 1 calc R . . H17C H 0.4082 0.6229 0.6087 0.072 Uiso 1 1 calc R . . C18 C 0.0514(4) 0.7618(4) 0.4401(3) 0.0601(9) Uani 1 1 d DU . . H18A H 0.0796 0.6694 0.4880 0.072 Uiso 1 1 calc R A 1 H18B H -0.0062 0.8242 0.4941 0.072 Uiso 1 1 calc R A 1 C19 C -0.0893(5) 0.7564(4) 0.3441(3) 0.0719(15) Uani 0.890(6) 1 d PDU B 1 H19A H -0.1936 0.7110 0.3800 0.108 Uiso 0.890(6) 1 calc PR B 1 H19B H -0.0288 0.7050 0.2839 0.108 Uiso 0.890(6) 1 calc PR B 1 H19C H -0.1367 0.8496 0.3060 0.108 Uiso 0.890(6) 1 calc PR B 1 C19' C 0.020(2) 0.6211(6) 0.4631(11) 0.068(11) Uiso 0.110(6) 1 d PRDU B 2 H19D H -0.0628 0.6034 0.4011 0.102 Uiso 0.110(6) 1 calc PR B 2 H19E H -0.0386 0.6020 0.5416 0.102 Uiso 0.110(6) 1 calc PR B 2 H19F H 0.1399 0.5618 0.4623 0.102 Uiso 0.110(6) 1 calc PR B 2  loop_  _atom_site_aniso_label  _atom_site_aniso_U_11  _atom_site_aniso_U_22  _atom_site_aniso_U_33  _atom_site_aniso_U_23  _atom_site_aniso_U_13  _atom_site_aniso_U_12 Si 0.0314(5) 0.0405(5) 0.0292(5) -0.0177(3) 0.0025(3) -0.0003(3) C1 0.0228(14) 0.0259(14) 0.0217(14) -0.0070(11) -0.0025(11) 0.0022(11) C2 0.0216(14) 0.0247(14) 0.0231(14) -0.0058(11) -0.0048(11) 0.0030(11) C3 0.0250(15) 0.0284(15) 0.0223(14) -0.0090(12) -0.0018(11) 0.0031(12) C4 0.0228(14) 0.0262(15) 0.0250(14) -0.0033(12) -0.0041(11) 0.0034(11) C5 0.0286(16) 0.0340(16) 0.0301(15) -0.0103(12) -0.0006(12) -0.0010(13) C6 0.0267(16) 0.0363(16) 0.0347(16) -0.0028(13) 0.0010(12) -0.0013(12) C7 0.0273(16) 0.0310(15) 0.0384(17) -0.0073(13) -0.0040(13) -0.0061(12) C8 0.0276(16) 0.0286(15) 0.0330(15) -0.0091(12) -0.0046(12) -0.0009(12) C9 0.0226(15) 0.0252(14) 0.0244(14) -0.0045(11) -0.0054(11) 0.0013(11) C10 0.0272(15) 0.0267(14) 0.0207(14) -0.0094(11) -0.0051(11) 0.0027(12) C11 0.0230(14) 0.0228(14) 0.0222(14) -0.0069(11) -0.0062(11) 0.0046(11) C12 0.0213(14) 0.0283(15) 0.0256(15) -0.0053(12) -0.0015(11) -0.0029(12) C13 0.0244(15) 0.0331(15) 0.0289(15) -0.0069(13) -0.0008(11) -0.0071(12) C14 0.0442(19) 0.0438(18) 0.0474(18) -0.0214(14) -0.0138(14) 0.0103(14) C15 0.058(2) 0.0389(18) 0.0526(19) -0.0011(15) -0.0181(16) -0.0067(15) C16 0.0519(18) 0.0362(16) 0.0329(16) -0.0141(13) -0.0031(13) -0.0002(14) C17 0.057(2) 0.0476(19) 0.0388(17) -0.0099(15) -0.0048(14) 0.0007(15) C18 0.049(2) 0.090(3) 0.049(2) -0.0302(18) 0.0159(15) -0.0146(18) C19 0.032(2) 0.126(4) 0.064(3) -0.029(2) 0.0109(18) -0.019(2)  _geom_special_details ;  All esds (except the esd in the dihedral angle between two l.s. planes)  are estimated using the full covariance matrix.  The cell esds are taken  into account individually in the estimation of esds in distances, angles  and torsion angles; correlations between esds in cell parameters are only  used when they are defined by crystal symmetry.  An approximate (isotropic)  treatment of cell esds is used for estimating esds involving l.s. planes. ;  loop_  _geom_bond_atom_site_label_1  _geom_bond_atom_site_label_2  _geom_bond_distance  _geom_bond_site_symmetry_2  _geom_bond_publ_flag Si C13 1.831(3) . ? Si C18 1.856(3) . ? Si C16 1.864(3) . ? Si C14 1.868(3) . ? C1 C11 1.413(3) 2_665 ? C1 C2 1.416(3) . ? C1 C12 1.430(3) . ? C2 C3 1.405(3) . ? C2 C11 1.450(3) . ? C3 C4 1.382(3) . ? C3 H3 0.9500 . ? C4 C5 1.426(3) . ? C4 C9 1.439(3) . ? C5 C6 1.349(3) . ? C5 H5 0.9500 . ? C6 C7 1.424(3) . ? C6 H6 0.9500 . ? C7 C8 1.350(3) . ? C7 H7 0.9500 . ? C8 C9 1.435(3) . ? C8 H8 0.9500 . ? C9 C10 1.380(3) . ? C10 C11 1.406(3) . ? C10 H10 0.9500 . ? C11 C1 1.413(3) 2_665 ? C12 C13 1.213(3) . ? C14 C15 1.519(4) . ? C14 H14A 0.9900 . ? C14 H14B 0.9900 . ? C15 H15A 0.9800 . ? C15 H15B 0.9800 . ? C15 H15C 0.9800 . ? C16 C17 1.525(4) . ? C16 H16A 0.9900 . ? C16 H16B 0.9900 . ? C17 H17A 0.9800 . ? C17 H17B 0.9800 . ? C17 H17C 0.9800 . ? C18 C19' 1.437(6) . ? C18 C19 1.510(4) . ? C18 H18A 0.9900 . ? C18 H18B 0.9900 . ? C19 H19A 0.9800 . ? C19 H19B 0.9800 . ? C19 H19C 0.9800 . ? C19' H19D 0.9800 . ? C19' H19E 0.9800 . ? C19' H19F 0.9800 . ?  loop_  _geom_angle_atom_site_label_1  _geom_angle_atom_site_label_2  _geom_angle_atom_site_label_3  _geom_angle  _geom_angle_site_symmetry_1  _geom_angle_site_symmetry_3  _geom_angle_publ_flag C13 Si C18 107.21(13) . . ? C13 Si C16 110.67(12) . . ? C18 Si C16 110.82(14) . . ? C13 Si C14 106.15(12) . . ? C18 Si C14 112.64(15) . . ? C16 Si C14 109.23(12) . . ? C11 C1 C2 121.1(2) 2_665 . ? C11 C1 C12 119.8(2) 2_665 . ? C2 C1 C12 119.1(2) . . ? C3 C2 C1 122.1(2) . . ? C3 C2 C11 118.1(2) . . ? C1 C2 C11 119.8(2) . . ? C4 C3 C2 122.8(2) . . ? C4 C3 H3 118.6 . . ? C2 C3 H3 118.6 . . ? C3 C4 C5 122.5(2) . . ? C3 C4 C9 119.0(2) . . ? C5 C4 C9 118.5(2) . . ? C6 C5 C4 121.4(2) . . ? C6 C5 H5 119.3 . . ? C4 C5 H5 119.3 . . ? C5 C6 C7 120.4(2) . . ? C5 C6 H6 119.8 . . ? C7 C6 H6 119.8 . . ? C8 C7 C6 120.5(2) . . ? C8 C7 H7 119.8 . . ? C6 C7 H7 119.8 . . ? C7 C8 C9 121.2(2) . . ? C7 C8 H8 119.4 . . ? C9 C8 H8 119.4 . . ? C10 C9 C8 123.0(2) . . ? C10 C9 C4 119.0(2) . . ? C8 C9 C4 118.0(2) . . ? C9 C10 C11 122.7(2) . . ? C9 C10 H10 118.7 . . ? C11 C10 H10 118.7 . . ? C10 C11 C1 122.6(2) . 2_665 ? C10 C11 C2 118.3(2) . . ? C1 C11 C2 119.1(2) 2_665 . ? C13 C12 C1 178.0(2) . . ? C12 C13 Si 171.3(2) . . ? C15 C14 Si 114.03(18) . . ? C15 C14 H14A 108.7 . . ? Si C14 H14A 108.7 . . ? C15 C14 H14B 108.7 . . ? Si C14 H14B 108.7 . . ? H14A C14 H14B 107.6 . . ? C14 C15 H15A 109.5 . . ? C14 C15 H15B 109.5 . . ? H15A C15 H15B 109.5 . . ? C14 C15 H15C 109.5 . . ? H15A C15 H15C 109.5 . . ? H15B C15 H15C 109.5 . . ? C17 C16 Si 116.7(2) . . ? C17 C16 H16A 108.1 . . ? Si C16 H16A 108.1 . . ? C17 C16 H16B 108.1 . . ? Si C16 H16B 108.1 . . ? H16A C16 H16B 107.3 . . ? C16 C17 H17A 109.5 . . ? C16 C17 H17B 109.5 . . ? H17A C17 H17B 109.5 . . ? C16 C17 H17C 109.5 . . ? H17A C17 H17C 109.5 . . ? H17B C17 H17C 109.5 . . ? C19' C18 C19 77.8(2) . . ? C19' C18 Si 124.1(8) . . ? C19 C18 Si 114.6(2) . . ? C19' C18 H18A 30.8 . . ? C19 C18 H18A 108.6 . . ? Si C18 H18A 108.6 . . ? C19' C18 H18B 118.5 . . ? C19 C18 H18B 108.6 . . ? Si C18 H18B 108.6 . . ? H18A C18 H18B 107.6 . . ? C18 C19 H19A 109.5 . . ? C18 C19 H19B 109.5 . . ? C18 C19 H19C 109.5 . . ? C18 C19' H19D 109.5 . . ? C18 C19' H19E 109.5 . . ? H19D C19' H19E 109.5 . . ? C18 C19' H19F 109.5 . . ? H19D C19' H19F 109.5 . . ? H19E C19' H19F 109.5 . . ?  loop_  _geom_torsion_atom_site_label_1  _geom_torsion_atom_site_label_2  _geom_torsion_atom_site_label_3  _geom_torsion_atom_site_label_4  _geom_torsion  _geom_torsion_site_symmetry_1  _geom_torsion_site_symmetry_2  _geom_torsion_site_symmetry_3  _geom_torsion_site_symmetry_4  _geom_torsion_publ_flag C11 C1 C2 C3 -178.9(2) 2_665 . . . ? C12 C1 C2 C3 -0.3(3) . . . . ? C11 C1 C2 C11 0.2(4) 2_665 . . . ? C12 C1 C2 C11 178.8(2) . . . . ? C1 C2 C3 C4 179.0(2) . . . . ? C11 C2 C3 C4 0.0(3) . . . . ? C2 C3 C4 C5 -178.9(2) . . . . ? C2 C3 C4 C9 0.5(3) . . . . ? C3 C4 C5 C6 179.3(2) . . . . ? C9 C4 C5 C6 -0.1(4) . . . . ? C4 C5 C6 C7 0.7(4) . . . . ? C5 C6 C7 C8 -0.6(4) . . . . ? C6 C7 C8 C9 -0.2(4) . . . . ? C7 C8 C9 C10 -179.0(2) . . . . ? C7 C8 C9 C4 0.8(3) . . . . ? C3 C4 C9 C10 -0.2(3) . . . . ? C5 C4 C9 C10 179.2(2) . . . . ? C3 C4 C9 C8 180.0(2) . . . . ? C5 C4 C9 C8 -0.6(3) . . . . ? C8 C9 C10 C11 179.3(2) . . . . ? C4 C9 C10 C11 -0.5(3) . . . . ? C9 C10 C11 C1 -178.6(2) . . . 2_665 ? C9 C10 C11 C2 0.9(3) . . . . ? C3 C2 C11 C10 -0.6(3) . . . . ? C1 C2 C11 C10 -179.7(2) . . . . ? C3 C2 C11 C1 178.9(2) . . . 2_665 ? C1 C2 C11 C1 -0.2(4) . . . 2_665 ? C11 C1 C12 C13 129(7) 2_665 . . . ? C2 C1 C12 C13 -50(7) . . . . ? C1 C12 C13 Si -26(8) . . . . ? C18 Si C13 C12 75.6(15) . . . . ? C16 Si C13 C12 -163.4(14) . . . . ? C14 Si C13 C12 -45.0(15) . . . . ? C13 Si C14 C15 -45.2(2) . . . . ? C18 Si C14 C15 -162.27(19) . . . . ? C16 Si C14 C15 74.1(2) . . . . ? C13 Si C16 C17 -53.4(2) . . . . ? C18 Si C16 C17 65.4(2) . . . . ? C14 Si C16 C17 -169.9(2) . . . . ? C13 Si C18 C19' 37.0(5) . . . . ? C16 Si C18 C19' -83.9(5) . . . . ? C14 Si C18 C19' 153.4(4) . . . . ? C13 Si C18 C19 -54.7(3) . . . . ? C16 Si C18 C19 -175.6(2) . . . . ? C14 Si C18 C19 61.7(3) . . . . ?  _diffrn_measured_fraction_theta_max    1.000 _diffrn_reflns_theta_full              22.50 _diffrn_measured_fraction_theta_full   1.000 _refine_diff_density_max     .190 _refine_diff_density_min    -.253 _refine_diff_density_rms     .040 