 
data_k04061 
 
_audit_creation_method            SHELXL-97 
_chemical_name_systematic 
; 
 ? 
; 
_chemical_name_common             ? 
_chemical_melting_point           ? 
_chemical_formula_moiety          ? 
_chemical_formula_sum 
 'C52 H66 O4 Si2' 
_chemical_formula_weight          811.23 
 
loop_ 
 _atom_type_symbol 
 _atom_type_description 
 _atom_type_scat_dispersion_real 
 _atom_type_scat_dispersion_imag 
 _atom_type_scat_source 
 'C'  'C'   0.0033   0.0016 
 'International Tables Vol C Tables 4.2.6.8 and 6.1.1.4' 
 'H'  'H'   0.0000   0.0000 
 'International Tables Vol C Tables 4.2.6.8 and 6.1.1.4' 
 'O'  'O'   0.0106   0.0060 
 'International Tables Vol C Tables 4.2.6.8 and 6.1.1.4' 
 'Si'  'Si'   0.0817   0.0704 
 'International Tables Vol C Tables 4.2.6.8 and 6.1.1.4' 
 
_symmetry_cell_setting            monoclinic 
_symmetry_space_group_name_H-M    'P1bar'
 
loop_ 
 _symmetry_equiv_pos_as_xyz 
 'x, y, z' 
 '-x, -y, -z' 
 
_cell_length_a                    8.7088(2) 
_cell_length_b                    10.8846(3) 
_cell_length_c                    13.1029(4) 
_cell_angle_alpha                 103.3733(11) 
_cell_angle_beta                  105.2605(11) 
_cell_angle_gamma                 96.8142(11) 
_cell_volume                      1144.23(5) 
_cell_formula_units_Z             1 
_cell_measurement_temperature     90.0(2) 
_cell_measurement_reflns_used     4140 
_cell_measurement_theta_min       1.00 
_cell_measurement_theta_max       25.35 
 
_exptl_crystal_description        'irregular shape'
_exptl_crystal_colour             'dark purple'
_exptl_crystal_size_max           0.30 
_exptl_crystal_size_mid           0.15 
_exptl_crystal_size_min           0.08 
_exptl_crystal_density_meas       ? 
_exptl_crystal_density_diffrn     1.177 
_exptl_crystal_density_method     'not measured' 
_exptl_crystal_F_000              438 
_exptl_absorpt_coefficient_mu     0.121 
_exptl_absorpt_correction_type   'multi-scan'
_exptl_absorpt_correction_T_min   0.9645 
_exptl_absorpt_correction_T_max   0.9910 
_exptl_absorpt_process_details    'SCALEPACK (Otwinowski & Minor, 1997)' 
 
_exptl_special_details 
; 
 ? 
; 
 
_diffrn_ambient_temperature       90(2) 
_diffrn_radiation_wavelength      0.71073
_diffrn_radiation_type            MoK\a
_diffrn_radiation_source          'fine-focus sealed tube'
_diffrn_radiation_monochromator   graphite
_diffrn_measurement_device_type   'Nonius KappaCCD diffractometer'
_diffrn_measurement_method        '\w scans at fixed \c = 55\%'
_diffrn_detector_area_resol_mean  18 
_diffrn_standards_number          ? 
_diffrn_standards_interval_count  ? 
_diffrn_standards_interval_time   ? 
_diffrn_standards_decay_%         <1 
_diffrn_reflns_number             8029 
_diffrn_reflns_av_R_equivalents   0.0549 
_diffrn_reflns_av_sigmaI/netI     0.0777 
_diffrn_reflns_limit_h_min        -10 
_diffrn_reflns_limit_h_max        10 
_diffrn_reflns_limit_k_min        -12 
_diffrn_reflns_limit_k_max        12 
_diffrn_reflns_limit_l_min        -15 
_diffrn_reflns_limit_l_max        15 
_diffrn_reflns_theta_min          1.68 
_diffrn_reflns_theta_max          25.00 
_reflns_number_total              4031 
_reflns_number_gt                 2751 
_reflns_threshold_expression      >2sigma(I) 
  
_computing_data_collection        'COLLECT (Nonius, 1998)'
_computing_cell_refinement        'SCALEPACK (Otwinowski & Minor, 1997)'
_computing_data_reduction         'DENZO-SMN (Otwinowski & Minor, 1997)'
_computing_structure_solution     'SHELXS-97 (Sheldrick, 1990)'
_computing_structure_refinement   'SHELXL-97 (Sheldrick, 1997)'
_computing_molecular_graphics     'XP in Siemens SHELXTL (Sheldrick, 1994)'
_computing_publication_material
; 
SHELX97-2 (Sheldrick, 1997) and local procedures 
; 

_refine_special_details 
; 
 Refinement of F^2^ against ALL reflections.  The weighted R-factor wR and 
 goodness of fit S are based on F^2^, conventional R-factors R are based 
 on F, with F set to zero for negative F^2^. The threshold expression of 
 F^2^ > 2sigma(F^2^) is used only for calculating R-factors(gt) etc. and is 
 not relevant to the choice of reflections for refinement.  R-factors based 
 on F^2^ are statistically about twice as large as those based on F, and R- 
 factors based on ALL data will be even larger. 
; 
 
_refine_ls_structure_factor_coef  Fsqd  
_refine_ls_matrix_type            full 
_refine_ls_weighting_scheme       calc  
_refine_ls_weighting_details 
 'calc w=1/[\s^2^(Fo^2^)+(0.0854P)^2^+0.0000P] where P=(Fo^2^+2Fc^2^)/3' 
_atom_sites_solution_primary      direct 
_atom_sites_solution_secondary    difmap 
_atom_sites_solution_hydrogens    geom 
_refine_ls_hydrogen_treatment     constr 
_refine_ls_extinction_method      none 
_refine_ls_extinction_coef        ? 
_refine_ls_number_reflns          4031 
_refine_ls_number_parameters      271 
_refine_ls_number_restraints      0 
_refine_ls_R_factor_all           0.0918 
_refine_ls_R_factor_gt            0.0546 
_refine_ls_wR_factor_ref          0.1516 
_refine_ls_wR_factor_gt           0.1358 
_refine_ls_goodness_of_fit_ref    1.036 
_refine_ls_restrained_S_all       1.036 
_refine_ls_shift/su_max           0.000 
_refine_ls_shift/su_mean          0.000 
 
loop_ 
 _atom_site_label 
 _atom_site_type_symbol 
 _atom_site_fract_x 
 _atom_site_fract_y 
 _atom_site_fract_z 
 _atom_site_U_iso_or_equiv 
 _atom_site_adp_type 
 _atom_site_occupancy 
 _atom_site_symmetry_multiplicity 
 _atom_site_calc_flag 
 _atom_site_refinement_flags 
 _atom_site_disorder_assembly 
 _atom_site_disorder_group 
Si1 Si -0.17207(8) 0.33183(7) 0.70514(6) 0.0168(2) Uani 1 1 d . . . 
O1 O 0.6033(2) -0.07978(17) 0.69131(15) 0.0238(5) Uani 1 1 d . . . 
O2 O 0.6762(2) -0.21569(17) 0.80019(14) 0.0236(5) Uani 1 1 d . . . 
C1 C -0.0444(3) 0.0824(2) 0.9321(2) 0.0151(6) Uani 1 1 d . . . 
C2 C 0.0862(3) 0.0171(2) 0.9244(2) 0.0161(6) Uani 1 1 d . . . 
C3 C 0.1732(3) 0.0322(2) 0.8504(2) 0.0185(6) Uani 1 1 d . . . 
H3 H 0.1443 0.0877 0.8052 0.022 Uiso 1 1 calc R . . 
C4 C 0.3003(3) -0.0316(2) 0.8411(2) 0.0164(6) Uani 1 1 d . . . 
C5 C 0.3867(3) -0.0131(2) 0.7644(2) 0.0179(6) Uani 1 1 d . . . 
H5 H 0.3604 0.0434 0.7198 0.022 Uiso 1 1 calc R . . 
C6 C 0.5061(3) -0.0794(2) 0.7589(2) 0.0176(6) Uani 1 1 d . . . 
C7 C 0.7059(3) -0.1700(3) 0.7120(2) 0.0225(6) Uani 1 1 d . . . 
H7A H 0.8211 -0.1280 0.7322 0.027 Uiso 1 1 calc R . . 
H7B H 0.6821 -0.2427 0.6452 0.027 Uiso 1 1 calc R . . 
C8 C 0.5489(3) -0.1640(2) 0.8243(2) 0.0178(6) Uani 1 1 d . . . 
C9 C 0.4744(3) -0.1850(2) 0.8978(2) 0.0191(6) Uani 1 1 d . . . 
H9 H 0.5057 -0.2420 0.9410 0.023 Uiso 1 1 calc R . . 
C10 C 0.3444(3) -0.1168(2) 0.9084(2) 0.0163(6) Uani 1 1 d . . . 
C11 C 0.2593(3) -0.1309(2) 0.9824(2) 0.0161(6) Uani 1 1 d . . . 
H11 H 0.2892 -0.1862 1.0277 0.019 Uiso 1 1 calc R . . 
C12 C 0.1302(3) -0.0665(2) 0.9931(2) 0.0158(6) Uani 1 1 d . . . 
C13 C -0.0882(3) 0.1637(2) 0.8614(2) 0.0166(6) Uani 1 1 d . . . 
C14 C -0.1220(3) 0.2299(2) 0.7995(2) 0.0165(6) Uani 1 1 d . . . 
C15 C -0.1234(3) 0.2491(2) 0.5732(2) 0.0193(6) Uani 1 1 d . . . 
C16 C -0.1795(3) 0.1025(2) 0.5405(2) 0.0249(7) Uani 1 1 d . . . 
H16A H -0.2978 0.0817 0.5223 0.037 Uiso 1 1 calc R . . 
H16B H -0.1297 0.0689 0.6019 0.037 Uiso 1 1 calc R . . 
H16C H -0.1467 0.0635 0.4762 0.037 Uiso 1 1 calc R . . 
C17 C 0.0617(3) 0.2723(3) 0.5919(2) 0.0287(7) Uani 1 1 d . . . 
H17A H 0.0847 0.2231 0.5268 0.043 Uiso 1 1 calc R . . 
H17B H 0.1151 0.2444 0.6560 0.043 Uiso 1 1 calc R . . 
H17C H 0.1025 0.3642 0.6048 0.043 Uiso 1 1 calc R . . 
C18 C -0.2003(3) 0.3007(3) 0.4759(2) 0.0254(7) Uani 1 1 d . . . 
H18A H -0.1709 0.2579 0.4113 0.038 Uiso 1 1 calc R . . 
H18B H -0.1605 0.3937 0.4950 0.038 Uiso 1 1 calc R . . 
H18C H -0.3185 0.2835 0.4594 0.038 Uiso 1 1 calc R . . 
C19 C -0.0360(3) 0.4971(2) 0.7829(2) 0.0190(6) Uani 1 1 d . . . 
C20 C 0.1392(3) 0.4843(3) 0.8373(2) 0.0242(7) Uani 1 1 d . . . 
H20A H 0.2006 0.5679 0.8863 0.036 Uiso 1 1 calc R . . 
H20B H 0.1909 0.4557 0.7802 0.036 Uiso 1 1 calc R . . 
H20C H 0.1376 0.4213 0.8798 0.036 Uiso 1 1 calc R . . 
C21 C -0.0297(3) 0.5873(3) 0.7082(2) 0.0270(7) Uani 1 1 d . . . 
H21A H -0.1402 0.5942 0.6705 0.041 Uiso 1 1 calc R . . 
H21B H 0.0234 0.5522 0.6536 0.041 Uiso 1 1 calc R . . 
H21C H 0.0319 0.6727 0.7531 0.041 Uiso 1 1 calc R . . 
C22 C -0.0997(3) 0.5629(2) 0.8766(2) 0.0247(7) Uani 1 1 d . . . 
H22A H -0.0237 0.6427 0.9213 0.037 Uiso 1 1 calc R . . 
H22B H -0.1099 0.5051 0.9228 0.037 Uiso 1 1 calc R . . 
H22C H -0.2060 0.5827 0.8453 0.037 Uiso 1 1 calc R . . 
C23 C -0.4012(3) 0.3320(2) 0.6803(2) 0.0195(6) Uani 1 1 d . . . 
C24 C -0.4551(3) 0.4414(3) 0.6322(2) 0.0263(7) Uani 1 1 d . . . 
H24A H -0.4247 0.4365 0.5647 0.039 Uiso 1 1 calc R . . 
H24B H -0.4019 0.5244 0.6859 0.039 Uiso 1 1 calc R . . 
H24C H -0.5730 0.4330 0.6154 0.039 Uiso 1 1 calc R . . 
C25 C -0.4457(3) 0.3437(3) 0.7882(2) 0.0245(7) Uani 1 1 d . . . 
H25A H -0.5631 0.3375 0.7728 0.037 Uiso 1 1 calc R . . 
H25B H -0.3897 0.4269 0.8406 0.037 Uiso 1 1 calc R . . 
H25C H -0.4124 0.2741 0.8196 0.037 Uiso 1 1 calc R . . 
C26 C -0.5004(3) 0.2035(2) 0.6003(2) 0.0222(6) Uani 1 1 d . . . 
H26A H -0.6150 0.1987 0.5965 0.033 Uiso 1 1 calc R . . 
H26B H -0.4610 0.1323 0.6264 0.033 Uiso 1 1 calc R . . 
H26C H -0.4886 0.1975 0.5271 0.033 Uiso 1 1 calc R . . 
 
loop_ 
 _atom_site_aniso_label 
 _atom_site_aniso_U_11 
 _atom_site_aniso_U_22 
 _atom_site_aniso_U_33 
 _atom_site_aniso_U_23 
 _atom_site_aniso_U_13 
 _atom_site_aniso_U_12 
Si1 0.0145(4) 0.0199(4) 0.0193(4) 0.0092(3) 0.0065(3) 0.0050(3) 
O1 0.0221(10) 0.0263(11) 0.0319(11) 0.0123(9) 0.0167(9) 0.0106(9) 
O2 0.0223(10) 0.0284(11) 0.0276(11) 0.0117(9) 0.0139(9) 0.0116(9) 
C1 0.0145(14) 0.0163(14) 0.0170(14) 0.0086(11) 0.0049(11) 0.0036(11) 
C2 0.0155(14) 0.0146(14) 0.0164(14) 0.0049(12) 0.0018(11) 0.0008(11) 
C3 0.0163(14) 0.0205(15) 0.0198(14) 0.0085(12) 0.0047(11) 0.0029(12) 
C4 0.0178(14) 0.0142(14) 0.0132(14) 0.0010(11) 0.0023(11) -0.0010(11) 
C5 0.0180(14) 0.0190(15) 0.0173(14) 0.0075(12) 0.0045(12) 0.0025(12) 
C6 0.0166(14) 0.0206(15) 0.0153(14) 0.0040(12) 0.0060(11) 0.0012(12) 
C7 0.0211(15) 0.0262(16) 0.0242(16) 0.0085(13) 0.0098(12) 0.0092(12) 
C8 0.0143(14) 0.0169(14) 0.0209(15) 0.0029(12) 0.0052(12) 0.0033(11) 
C9 0.0188(15) 0.0169(15) 0.0220(15) 0.0080(12) 0.0037(12) 0.0054(12) 
C10 0.0134(14) 0.0161(14) 0.0172(14) 0.0032(12) 0.0028(11) 0.0013(11) 
C11 0.0163(14) 0.0151(14) 0.0172(14) 0.0074(12) 0.0032(11) 0.0031(11) 
C12 0.0157(14) 0.0136(14) 0.0156(14) 0.0031(11) 0.0018(11) 0.0009(11) 
C13 0.0116(14) 0.0185(15) 0.0205(15) 0.0036(12) 0.0074(11) 0.0034(11) 
C14 0.0116(14) 0.0185(15) 0.0211(15) 0.0040(12) 0.0088(11) 0.0032(11) 
C15 0.0142(14) 0.0260(16) 0.0207(15) 0.0078(12) 0.0090(12) 0.0039(12) 
C16 0.0274(16) 0.0269(16) 0.0225(16) 0.0063(13) 0.0101(13) 0.0086(13) 
C17 0.0214(16) 0.0394(18) 0.0258(17) 0.0053(14) 0.0108(13) 0.0061(14) 
C18 0.0248(16) 0.0286(17) 0.0241(16) 0.0091(13) 0.0092(13) 0.0026(13) 
C19 0.0194(15) 0.0157(14) 0.0211(15) 0.0055(12) 0.0051(12) 0.0015(11) 
C20 0.0188(15) 0.0253(16) 0.0270(16) 0.0079(13) 0.0045(12) 0.0018(12) 
C21 0.0310(17) 0.0209(16) 0.0292(17) 0.0107(13) 0.0081(13) -0.0002(13) 
C22 0.0219(16) 0.0223(16) 0.0265(16) 0.0053(13) 0.0034(13) 0.0032(12) 
C23 0.0179(14) 0.0226(15) 0.0234(15) 0.0103(12) 0.0099(12) 0.0074(12) 
C24 0.0193(15) 0.0292(17) 0.0333(17) 0.0127(14) 0.0074(13) 0.0087(13) 
C25 0.0174(14) 0.0336(17) 0.0282(16) 0.0119(13) 0.0112(12) 0.0098(13) 
C26 0.0141(14) 0.0281(16) 0.0276(16) 0.0120(13) 0.0076(12) 0.0046(12) 
 
_geom_special_details 
; 
 All esds (except the esd in the dihedral angle between two l.s. planes) 
 are estimated using the full covariance matrix.  The cell esds are taken 
 into account individually in the estimation of esds in distances, angles 
 and torsion angles; correlations between esds in cell parameters are only 
 used when they are defined by crystal symmetry.  An approximate (isotropic) 
 treatment of cell esds is used for estimating esds involving l.s. planes. 
; 
 
loop_ 
 _geom_bond_atom_site_label_1 
 _geom_bond_atom_site_label_2 
 _geom_bond_distance 
 _geom_bond_site_symmetry_2 
 _geom_bond_publ_flag 
Si1 C14 1.847(3) . ? 
Si1 C19 1.921(3) . ? 
Si1 C15 1.932(3) . ? 
Si1 C23 1.936(3) . ? 
O1 C6 1.377(3) . ? 
O1 C7 1.428(3) . ? 
O2 C8 1.377(3) . ? 
O2 C7 1.430(3) . ? 
C1 C12 1.408(3) 2_557 ? 
C1 C2 1.424(3) . ? 
C1 C13 1.436(3) . ? 
C2 C3 1.405(3) . ? 
C2 C12 1.437(4) . ? 
C3 C4 1.391(3) . ? 
C3 H3 0.9500 . ? 
C4 C10 1.439(3) . ? 
C4 C5 1.439(3) . ? 
C5 C6 1.342(3) . ? 
C5 H5 0.9500 . ? 
C6 C8 1.413(4) . ? 
C7 H7A 0.9900 . ? 
C7 H7B 0.9900 . ? 
C8 C9 1.340(3) . ? 
C9 C10 1.444(3) . ? 
C9 H9 0.9500 . ? 
C10 C11 1.389(3) . ? 
C11 C12 1.414(3) . ? 
C11 H11 0.9500 . ? 
C12 C1 1.407(3) 2_557 ? 
C13 C14 1.208(3) . ? 
C15 C16 1.534(3) . ? 
C15 C18 1.537(4) . ? 
C15 C17 1.546(3) . ? 
C16 H16A 0.9800 . ? 
C16 H16B 0.9800 . ? 
C16 H16C 0.9800 . ? 
C17 H17A 0.9800 . ? 
C17 H17B 0.9800 . ? 
C17 H17C 0.9800 . ? 
C18 H18A 0.9800 . ? 
C18 H18B 0.9800 . ? 
C18 H18C 0.9800 . ? 
C19 C22 1.541(4) . ? 
C19 C20 1.543(3) . ? 
C19 C21 1.544(4) . ? 
C20 H20A 0.9800 . ? 
C20 H20B 0.9800 . ? 
C20 H20C 0.9800 . ? 
C21 H21A 0.9800 . ? 
C21 H21B 0.9800 . ? 
C21 H21C 0.9800 . ? 
C22 H22A 0.9800 . ? 
C22 H22B 0.9800 . ? 
C22 H22C 0.9800 . ? 
C23 C24 1.536(3) . ? 
C23 C26 1.536(4) . ? 
C23 C25 1.542(3) . ? 
C24 H24A 0.9800 . ? 
C24 H24B 0.9800 . ? 
C24 H24C 0.9800 . ? 
C25 H25A 0.9800 . ? 
C25 H25B 0.9800 . ? 
C25 H25C 0.9800 . ? 
C26 H26A 0.9800 . ? 
C26 H26B 0.9800 . ? 
C26 H26C 0.9800 . ? 
 
loop_ 
 _geom_angle_atom_site_label_1 
 _geom_angle_atom_site_label_2 
 _geom_angle_atom_site_label_3 
 _geom_angle 
 _geom_angle_site_symmetry_1 
 _geom_angle_site_symmetry_3 
 _geom_angle_publ_flag 
C14 Si1 C19 104.90(11) . . ? 
C14 Si1 C15 105.87(11) . . ? 
C19 Si1 C15 113.61(11) . . ? 
C14 Si1 C23 105.13(11) . . ? 
C19 Si1 C23 113.71(11) . . ? 
C15 Si1 C23 112.60(11) . . ? 
C6 O1 C7 106.76(19) . . ? 
C8 O2 C7 106.78(18) . . ? 
C12 C1 C2 120.7(2) 2_557 . ? 
C12 C1 C13 120.5(2) 2_557 . ? 
C2 C1 C13 118.8(2) . . ? 
C3 C2 C1 121.3(2) . . ? 
C3 C2 C12 119.0(2) . . ? 
C1 C2 C12 119.7(2) . . ? 
C4 C3 C2 122.1(2) . . ? 
C4 C3 H3 119.0 . . ? 
C2 C3 H3 119.0 . . ? 
C3 C4 C10 119.5(2) . . ? 
C3 C4 C5 120.3(2) . . ? 
C10 C4 C5 120.2(2) . . ? 
C6 C5 C4 116.9(2) . . ? 
C6 C5 H5 121.5 . . ? 
C4 C5 H5 121.5 . . ? 
C5 C6 O1 127.7(2) . . ? 
C5 C6 C8 123.1(2) . . ? 
O1 C6 C8 109.2(2) . . ? 
O1 C7 O2 108.05(19) . . ? 
O1 C7 H7A 110.1 . . ? 
O2 C7 H7A 110.1 . . ? 
O1 C7 H7B 110.1 . . ? 
O2 C7 H7B 110.1 . . ? 
H7A C7 H7B 108.4 . . ? 
C9 C8 O2 127.9(2) . . ? 
C9 C8 C6 123.1(2) . . ? 
O2 C8 C6 109.0(2) . . ? 
C8 C9 C10 117.0(2) . . ? 
C8 C9 H9 121.5 . . ? 
C10 C9 H9 121.5 . . ? 
C11 C10 C4 118.4(2) . . ? 
C11 C10 C9 121.9(2) . . ? 
C4 C10 C9 119.7(2) . . ? 
C10 C11 C12 122.8(2) . . ? 
C10 C11 H11 118.6 . . ? 
C12 C11 H11 118.6 . . ? 
C1 C12 C11 122.2(2) 2_557 . ? 
C1 C12 C2 119.6(2) 2_557 . ? 
C11 C12 C2 118.2(2) . . ? 
C14 C13 C1 177.6(3) . . ? 
C13 C14 Si1 179.5(2) . . ? 
C16 C15 C18 109.1(2) . . ? 
C16 C15 C17 105.8(2) . . ? 
C18 C15 C17 107.4(2) . . ? 
C16 C15 Si1 111.75(17) . . ? 
C18 C15 Si1 111.97(17) . . ? 
C17 C15 Si1 110.58(17) . . ? 
C15 C16 H16A 109.5 . . ? 
C15 C16 H16B 109.5 . . ? 
H16A C16 H16B 109.5 . . ? 
C15 C16 H16C 109.5 . . ? 
H16A C16 H16C 109.5 . . ? 
H16B C16 H16C 109.5 . . ? 
C15 C17 H17A 109.5 . . ? 
C15 C17 H17B 109.5 . . ? 
H17A C17 H17B 109.5 . . ? 
C15 C17 H17C 109.5 . . ? 
H17A C17 H17C 109.5 . . ? 
H17B C17 H17C 109.5 . . ? 
C15 C18 H18A 109.5 . . ? 
C15 C18 H18B 109.5 . . ? 
H18A C18 H18B 109.5 . . ? 
C15 C18 H18C 109.5 . . ? 
H18A C18 H18C 109.5 . . ? 
H18B C18 H18C 109.5 . . ? 
C22 C19 C20 106.6(2) . . ? 
C22 C19 C21 108.3(2) . . ? 
C20 C19 C21 108.0(2) . . ? 
C22 C19 Si1 109.47(17) . . ? 
C20 C19 Si1 111.43(17) . . ? 
C21 C19 Si1 112.84(17) . . ? 
C19 C20 H20A 109.5 . . ? 
C19 C20 H20B 109.5 . . ? 
H20A C20 H20B 109.5 . . ? 
C19 C20 H20C 109.5 . . ? 
H20A C20 H20C 109.5 . . ? 
H20B C20 H20C 109.5 . . ? 
C19 C21 H21A 109.5 . . ? 
C19 C21 H21B 109.5 . . ? 
H21A C21 H21B 109.5 . . ? 
C19 C21 H21C 109.5 . . ? 
H21A C21 H21C 109.5 . . ? 
H21B C21 H21C 109.5 . . ? 
C19 C22 H22A 109.5 . . ? 
C19 C22 H22B 109.5 . . ? 
H22A C22 H22B 109.5 . . ? 
C19 C22 H22C 109.5 . . ? 
H22A C22 H22C 109.5 . . ? 
H22B C22 H22C 109.5 . . ? 
C24 C23 C26 108.4(2) . . ? 
C24 C23 C25 108.6(2) . . ? 
C26 C23 C25 106.5(2) . . ? 
C24 C23 Si1 112.63(17) . . ? 
C26 C23 Si1 109.70(17) . . ? 
C25 C23 Si1 110.83(17) . . ? 
C23 C24 H24A 109.5 . . ? 
C23 C24 H24B 109.5 . . ? 
H24A C24 H24B 109.5 . . ? 
C23 C24 H24C 109.5 . . ? 
H24A C24 H24C 109.5 . . ? 
H24B C24 H24C 109.5 . . ? 
C23 C25 H25A 109.5 . . ? 
C23 C25 H25B 109.5 . . ? 
H25A C25 H25B 109.5 . . ? 
C23 C25 H25C 109.5 . . ? 
H25A C25 H25C 109.5 . . ? 
H25B C25 H25C 109.5 . . ? 
C23 C26 H26A 109.5 . . ? 
C23 C26 H26B 109.5 . . ? 
H26A C26 H26B 109.5 . . ? 
C23 C26 H26C 109.5 . . ? 
H26A C26 H26C 109.5 . . ? 
H26B C26 H26C 109.5 . . ? 
 
loop_ 
 _geom_torsion_atom_site_label_1 
 _geom_torsion_atom_site_label_2 
 _geom_torsion_atom_site_label_3 
 _geom_torsion_atom_site_label_4 
 _geom_torsion 
 _geom_torsion_site_symmetry_1 
 _geom_torsion_site_symmetry_2 
 _geom_torsion_site_symmetry_3 
 _geom_torsion_site_symmetry_4 
 _geom_torsion_publ_flag 
C12 C1 C2 C3 -179.9(2) 2_557 . . . ? 
C13 C1 C2 C3 0.8(4) . . . . ? 
C12 C1 C2 C12 0.4(4) 2_557 . . . ? 
C13 C1 C2 C12 -178.9(2) . . . . ? 
C1 C2 C3 C4 -179.5(2) . . . . ? 
C12 C2 C3 C4 0.3(4) . . . . ? 
C2 C3 C4 C10 0.5(4) . . . . ? 
C2 C3 C4 C5 -179.8(2) . . . . ? 
C3 C4 C5 C6 -179.0(2) . . . . ? 
C10 C4 C5 C6 0.7(4) . . . . ? 
C4 C5 C6 O1 178.8(2) . . . . ? 
C4 C5 C6 C8 -0.2(4) . . . . ? 
C7 O1 C6 C5 -177.1(3) . . . . ? 
C7 O1 C6 C8 2.0(3) . . . . ? 
C6 O1 C7 O2 -4.6(3) . . . . ? 
C8 O2 C7 O1 5.5(3) . . . . ? 
C7 O2 C8 C9 176.7(3) . . . . ? 
C7 O2 C8 C6 -4.3(3) . . . . ? 
C5 C6 C8 C9 -0.3(4) . . . . ? 
O1 C6 C8 C9 -179.5(2) . . . . ? 
C5 C6 C8 O2 -179.3(2) . . . . ? 
O1 C6 C8 O2 1.5(3) . . . . ? 
O2 C8 C9 C10 179.1(2) . . . . ? 
C6 C8 C9 C10 0.3(4) . . . . ? 
C3 C4 C10 C11 -1.0(4) . . . . ? 
C5 C4 C10 C11 179.2(2) . . . . ? 
C3 C4 C10 C9 179.0(2) . . . . ? 
C5 C4 C10 C9 -0.8(4) . . . . ? 
C8 C9 C10 C11 -179.7(2) . . . . ? 
C8 C9 C10 C4 0.3(4) . . . . ? 
C4 C10 C11 C12 0.9(4) . . . . ? 
C9 C10 C11 C12 -179.1(2) . . . . ? 
C10 C11 C12 C1 179.5(2) . . . 2_557 ? 
C10 C11 C12 C2 -0.1(4) . . . . ? 
C3 C2 C12 C1 179.9(2) . . . 2_557 ? 
C1 C2 C12 C1 -0.4(4) . . . 2_557 ? 
C3 C2 C12 C11 -0.4(4) . . . . ? 
C1 C2 C12 C11 179.3(2) . . . . ? 
C12 C1 C13 C14 -162(7) 2_557 . . . ? 
C2 C1 C13 C14 18(7) . . . . ? 
C1 C13 C14 Si1 -68(32) . . . . ? 
C19 Si1 C14 C13 -38(30) . . . . ? 
C15 Si1 C14 C13 83(30) . . . . ? 
C23 Si1 C14 C13 -158(30) . . . . ? 
C14 Si1 C15 C16 41.9(2) . . . . ? 
C19 Si1 C15 C16 156.49(17) . . . . ? 
C23 Si1 C15 C16 -72.43(19) . . . . ? 
C14 Si1 C15 C18 164.62(17) . . . . ? 
C19 Si1 C15 C18 -80.8(2) . . . . ? 
C23 Si1 C15 C18 50.3(2) . . . . ? 
C14 Si1 C15 C17 -75.7(2) . . . . ? 
C19 Si1 C15 C17 38.9(2) . . . . ? 
C23 Si1 C15 C17 169.97(17) . . . . ? 
C14 Si1 C19 C22 -72.83(19) . . . . ? 
C15 Si1 C19 C22 172.02(17) . . . . ? 
C23 Si1 C19 C22 41.5(2) . . . . ? 
C14 Si1 C19 C20 44.8(2) . . . . ? 
C15 Si1 C19 C20 -70.4(2) . . . . ? 
C23 Si1 C19 C20 159.11(17) . . . . ? 
C14 Si1 C19 C21 166.49(18) . . . . ? 
C15 Si1 C19 C21 51.3(2) . . . . ? 
C23 Si1 C19 C21 -79.2(2) . . . . ? 
C14 Si1 C23 C24 163.13(18) . . . . ? 
C19 Si1 C23 C24 49.0(2) . . . . ? 
C15 Si1 C23 C24 -82.1(2) . . . . ? 
C14 Si1 C23 C26 -76.09(19) . . . . ? 
C19 Si1 C23 C26 169.73(16) . . . . ? 
C15 Si1 C23 C26 38.7(2) . . . . ? 
C14 Si1 C23 C25 41.2(2) . . . . ? 
C19 Si1 C23 C25 -73.0(2) . . . . ? 
C15 Si1 C23 C25 156.02(18) . . . . ? 
 
_diffrn_measured_fraction_theta_max    1.000 
_diffrn_reflns_theta_full              25.00 
_diffrn_measured_fraction_theta_full   1.000 
_refine_diff_density_max    0.451 
_refine_diff_density_min   -0.317 
_refine_diff_density_rms    0.071 
