 
data_k05294 
 
_audit_creation_method            SHELXL-97 
_chemical_name_systematic 
; 
 ? 
; 
_chemical_name_common             ? 
_chemical_melting_point           ? 
_chemical_formula_moiety          ? 
_chemical_formula_sum 
 'C48 H58 O2 Si2' 
_chemical_formula_weight          723.12 
 
loop_ 
 _atom_type_symbol 
 _atom_type_description 
 _atom_type_scat_dispersion_real 
 _atom_type_scat_dispersion_imag 
 _atom_type_scat_source 
 'C'  'C'    .0033    .0016 
 'International Tables Vol C Tables 4.2.6.8 and 6.1.1.4' 
 'H'  'H'    .0000    .0000 
 'International Tables Vol C Tables 4.2.6.8 and 6.1.1.4' 
 'Si'  'Si'    .0817    .0704 
 'International Tables Vol C Tables 4.2.6.8 and 6.1.1.4' 
 'O'  'O'    .0106    .0060 
 'International Tables Vol C Tables 4.2.6.8 and 6.1.1.4' 
 
_symmetry_cell_setting            triclinic
_symmetry_space_group_name_H-M    ? 
 
loop_ 
 _symmetry_equiv_pos_as_xyz 
 'x, y, z' 
 '-x, -y, -z' 
 
_cell_length_a                    8.68560(10) 
_cell_length_b                    10.8718(2) 
_cell_length_c                    12.0016(2) 
_cell_angle_alpha                 104.8061(7) 
_cell_angle_beta                  92.8512(7) 
_cell_angle_gamma                 106.3091(7) 
_cell_volume                      1042.52(3) 
_cell_formula_units_Z             1 
_cell_measurement_temperature     90.0(2) 
_cell_measurement_reflns_used     4767 
_cell_measurement_theta_min       1.00 
_cell_measurement_theta_max       27.48
 
_exptl_crystal_description        'semi-regular plate'
_exptl_crystal_colour             'dark blue'
_exptl_crystal_size_max           0.35 
_exptl_crystal_size_mid           0.25 
_exptl_crystal_size_min           0.10 
_exptl_crystal_density_meas       ? 
_exptl_crystal_density_diffrn     1.152 
_exptl_crystal_density_method     'not measured' 
_exptl_crystal_F_000              390 
_exptl_absorpt_coefficient_mu     0.122 
_exptl_absorpt_correction_type    multi-scan 
_exptl_absorpt_correction_T_min   0.9585 
_exptl_absorpt_correction_T_max   0.9879 
_exptl_absorpt_process_details    'Scalepack (Otwinowski & Minor, 1997)'
 
_exptl_special_details 
; 
 ? 
; 
 
_diffrn_ambient_temperature       90.0(2) 
_diffrn_radiation_wavelength      0.71073 
_diffrn_radiation_type            MoK\a 
_diffrn_radiation_source          'fine-focus sealed tube' 
_diffrn_radiation_monochromator   graphite 
_diffrn_measurement_device_type   'Nonius KappaCCD diffractometer'
_diffrn_measurement_method        '\w scans at fixed \c = 55\%'
_diffrn_detector_area_resol_mean  18
_diffrn_standards_number          ? 
_diffrn_standards_interval_count  ? 
_diffrn_standards_interval_time   ? 
_diffrn_standards_decay_%         ? 
_diffrn_reflns_number             9518 
_diffrn_reflns_av_R_equivalents   0.0256 
_diffrn_reflns_av_sigmaI/netI     0.0373 
_diffrn_reflns_limit_h_min        -11 
_diffrn_reflns_limit_h_max        11 
_diffrn_reflns_limit_k_min        -14 
_diffrn_reflns_limit_k_max        14 
_diffrn_reflns_limit_l_min        -15 
_diffrn_reflns_limit_l_max        15 
_diffrn_reflns_theta_min          1.77 
_diffrn_reflns_theta_max          27.49 
_reflns_number_total              4799 
_reflns_number_gt                 3956 
_reflns_threshold_expression      >2\s(I)    
 
_computing_data_collection        'COLLECT (Nonius, 1998)'
_computing_cell_refinement        'SCALEPACK (Otwinowski & Minor, 1997)'
_computing_data_reduction         'DENZO-SMN (Otwinowski & Minor, 1997)'
_computing_structure_solution     'SHELXS-97 (Sheldrick, 1990)' 
_computing_structure_refinement   'SHELXL-97 (Sheldrick, 1997)' 
_computing_molecular_graphics     'XP in SHELXTL (Sheldrick, 1994)'
_computing_publication_material
; 
SHELX97-2 (Sheldrick, 1997) and local procedures 
; 
 
_refine_special_details 
; 
 Refinement of F^2^ against ALL reflections.  The weighted R-factor wR and 
 goodness of fit S are based on F^2^, conventional R-factors R are based 
 on F, with F set to zero for negative F^2^. The threshold expression of 
 F^2^ > 2sigma(F^2^) is used only for calculating R-factors(gt) etc. and is 
 not relevant to the choice of reflections for refinement.  R-factors based 
 on F^2^ are statistically about twice as large as those based on F, and R- 
 factors based on ALL data will be even larger. 
 
 The oxygen atom is disordered.
; 
 
_refine_ls_structure_factor_coef  Fsqd  
_refine_ls_matrix_type            full 
_refine_ls_weighting_scheme       calc  
_refine_ls_weighting_details 
 'calc w=1/[\s^2^(Fo^2^)+(0.0566P)^2^+0.2781P] where P=(Fo^2^+2Fc^2^)/3' 
_atom_sites_solution_primary      direct 
_atom_sites_solution_secondary    difmap 
_atom_sites_solution_hydrogens    geom 
_refine_ls_hydrogen_treatment     constr 
_refine_ls_extinction_method      none 
_refine_ls_extinction_coef        ? 
_refine_ls_number_reflns          4799 
_refine_ls_number_parameters      246 
_refine_ls_number_restraints      6 
_refine_ls_R_factor_all           0.0499 
_refine_ls_R_factor_gt            0.0388 
_refine_ls_wR_factor_ref          0.1094 
_refine_ls_wR_factor_gt           0.1016 
_refine_ls_goodness_of_fit_ref    1.067 
_refine_ls_restrained_S_all       1.071 
_refine_ls_shift/su_max           0.006 
_refine_ls_shift/su_mean          0.000 
 
loop_ 
 _atom_site_label 
 _atom_site_type_symbol 
 _atom_site_fract_x 
 _atom_site_fract_y 
 _atom_site_fract_z 
 _atom_site_U_iso_or_equiv 
 _atom_site_adp_type 
 _atom_site_occupancy 
 _atom_site_symmetry_multiplicity 
 _atom_site_calc_flag 
 _atom_site_refinement_flags 
 _atom_site_disorder_assembly 
 _atom_site_disorder_group 
Si1 Si 0.44835(4) 0.63985(3) 0.79574(3) 0.01263(11) Uani 1 1 d . . . 
C1 C 0.50501(15) 0.91924(12) 0.57535(10) 0.0121(3) Uani 1 1 d . . . 
C2 C 0.38576(15) 0.98643(12) 0.58128(10) 0.0117(2) Uani 1 1 d . . . 
C3 C 0.27278(15) 0.97644(12) 0.66112(10) 0.0131(3) Uani 1 1 d . . . 
H3 H 0.2756 0.9221 0.7114 0.016 Uiso 1 1 calc R . . 
C4 C 0.15741(15) 1.04324(12) 0.66881(10) 0.0129(3) Uani 1 1 d . . . 
C5 C 0.04709(15) 1.03683(13) 0.75350(11) 0.0153(3) Uani 1 1 d . . . 
H5 H 0.0485 0.9830 0.8044 0.018 Uiso 1 1 calc R . . 
C6 C -0.05934(15) 1.10805(13) 0.76060(11) 0.0152(3) Uani 1 1 d . B . 
C7 C -0.18416(16) 1.12264(14) 0.84139(12) 0.0187(3) Uani 1 1 d . . . 
H7A H -0.2782 1.0407 0.8210 0.022 Uiso 1 1 calc R A 1 
H7B H -0.1376 1.1404 0.9230 0.022 Uiso 1 1 calc R A 1 
O8 O -0.2312(3) 1.2348(3) 0.8253(2) 0.0229(5) Uani 0.715(7) 1 d PU B 1 
O8' O -0.2818(7) 1.1867(7) 0.7954(5) 0.0221(9) Uiso 0.285(7) 1 d PU B 2 
C9 C -0.19747(16) 1.25102(13) 0.71336(12) 0.0185(3) Uani 1 1 d . . . 
H9A H -0.1599 1.3468 0.7166 0.022 Uiso 1 1 calc R B 1 
H9B H -0.2952 1.2061 0.6552 0.022 Uiso 1 1 calc R B 1 
C10 C -0.06668(15) 1.18735(12) 0.68321(11) 0.0154(3) Uani 1 1 d . B . 
C11 C 0.03314(15) 1.19513(12) 0.60018(11) 0.0148(3) Uani 1 1 d . . . 
H11 H 0.0252 1.2470 0.5486 0.018 Uiso 1 1 calc R B . 
C12 C 0.15092(15) 1.12438(12) 0.59081(11) 0.0129(3) Uani 1 1 d . B . 
C13 C 0.26074(15) 1.13380(12) 0.51120(10) 0.0127(3) Uani 1 1 d . . . 
H13 H 0.2554 1.1862 0.4596 0.015 Uiso 1 1 calc R B . 
C14 C 0.38004(15) 1.06809(11) 0.50433(10) 0.0117(2) Uani 1 1 d . . . 
C15 C 0.50580(15) 0.83479(12) 0.64907(10) 0.0131(3) Uani 1 1 d . . . 
C16 C 0.49867(15) 0.76166(12) 0.71054(11) 0.0144(3) Uani 1 1 d . . . 
C17 C 0.58962(16) 0.70676(13) 0.93614(11) 0.0179(3) Uani 1 1 d . . . 
H17 H 0.5609 0.6382 0.9797 0.021 Uiso 1 1 calc R . . 
C18 C 0.56673(19) 0.83531(15) 1.01262(12) 0.0256(3) Uani 1 1 d . . . 
H18A H 0.6404 0.8662 1.0855 0.038 Uiso 1 1 calc R . . 
H18B H 0.4547 0.8175 1.0297 0.038 Uiso 1 1 calc R . . 
H18C H 0.5904 0.9043 0.9715 0.038 Uiso 1 1 calc R . . 
C19 C 0.76802(18) 0.72864(17) 0.91819(13) 0.0298(4) Uani 1 1 d . . . 
H19A H 0.7983 0.7900 0.8701 0.045 Uiso 1 1 calc R . . 
H19B H 0.7837 0.6429 0.8792 0.045 Uiso 1 1 calc R . . 
H19C H 0.8359 0.7669 0.9938 0.045 Uiso 1 1 calc R . . 
C20 C 0.46322(16) 0.47552(12) 0.70362(11) 0.0151(3) Uani 1 1 d . . . 
H20 H 0.3621 0.4337 0.6469 0.018 Uiso 1 1 calc R . . 
C21 C 0.60554(17) 0.48976(14) 0.63183(12) 0.0199(3) Uani 1 1 d . . . 
H21A H 0.7076 0.5213 0.6840 0.030 Uiso 1 1 calc R . . 
H21B H 0.6034 0.5542 0.5881 0.030 Uiso 1 1 calc R . . 
H21C H 0.5964 0.4029 0.5776 0.030 Uiso 1 1 calc R . . 
C22 C 0.46717(17) 0.37832(13) 0.77643(12) 0.0192(3) Uani 1 1 d . . . 
H22A H 0.4683 0.2926 0.7252 0.029 Uiso 1 1 calc R . . 
H22B H 0.3711 0.3647 0.8167 0.029 Uiso 1 1 calc R . . 
H22C H 0.5647 0.4158 0.8337 0.029 Uiso 1 1 calc R . . 
C23 C 0.23434(16) 0.63239(13) 0.82394(12) 0.0190(3) Uani 1 1 d . . . 
H23 H 0.2379 0.7252 0.8669 0.023 Uiso 1 1 calc R . . 
C24 C 0.16543(18) 0.54360(16) 0.90178(14) 0.0288(3) Uani 1 1 d . . . 
H24A H 0.0581 0.5504 0.9176 0.043 Uiso 1 1 calc R . . 
H24B H 0.2376 0.5730 0.9752 0.043 Uiso 1 1 calc R . . 
H24C H 0.1566 0.4506 0.8623 0.043 Uiso 1 1 calc R . . 
C25 C 0.11901(17) 0.59388(15) 0.71113(13) 0.0263(3) Uani 1 1 d . . . 
H25A H 0.1058 0.5011 0.6681 0.039 Uiso 1 1 calc R . . 
H25B H 0.1640 0.6528 0.6634 0.039 Uiso 1 1 calc R . . 
H25C H 0.0136 0.6032 0.7298 0.039 Uiso 1 1 calc R . . 
 
loop_ 
 _atom_site_aniso_label 
 _atom_site_aniso_U_11 
 _atom_site_aniso_U_22 
 _atom_site_aniso_U_33 
 _atom_site_aniso_U_23 
 _atom_site_aniso_U_13 
 _atom_site_aniso_U_12 
Si1 0.01388(19) 0.01313(18) 0.01238(18) 0.00552(13) 0.00285(13) 0.00447(13) 
C1 0.0136(6) 0.0107(5) 0.0117(6) 0.0032(4) 0.0011(5) 0.0031(5) 
C2 0.0121(6) 0.0103(5) 0.0117(6) 0.0023(4) 0.0004(5) 0.0028(5) 
C3 0.0146(6) 0.0119(6) 0.0124(6) 0.0040(5) 0.0016(5) 0.0029(5) 
C4 0.0122(6) 0.0124(6) 0.0124(6) 0.0016(5) 0.0009(5) 0.0028(5) 
C5 0.0158(6) 0.0155(6) 0.0136(6) 0.0041(5) 0.0036(5) 0.0029(5) 
C6 0.0128(6) 0.0157(6) 0.0140(6) 0.0007(5) 0.0015(5) 0.0026(5) 
C7 0.0157(7) 0.0233(7) 0.0191(6) 0.0048(5) 0.0062(5) 0.0093(5) 
O8 0.0264(10) 0.0241(10) 0.0233(8) 0.0056(8) 0.0116(8) 0.0156(9) 
C9 0.0152(6) 0.0189(6) 0.0224(7) 0.0041(5) 0.0060(5) 0.0075(5) 
C10 0.0133(6) 0.0125(6) 0.0172(6) -0.0001(5) 0.0006(5) 0.0032(5) 
C11 0.0138(6) 0.0132(6) 0.0170(6) 0.0030(5) 0.0000(5) 0.0048(5) 
C12 0.0121(6) 0.0105(5) 0.0142(6) 0.0012(5) 0.0007(5) 0.0029(5) 
C13 0.0133(6) 0.0114(6) 0.0132(6) 0.0034(5) 0.0007(5) 0.0038(5) 
C14 0.0130(6) 0.0101(6) 0.0110(6) 0.0022(4) 0.0007(5) 0.0030(5) 
C15 0.0115(6) 0.0140(6) 0.0133(6) 0.0020(5) 0.0030(5) 0.0048(5) 
C16 0.0134(6) 0.0161(6) 0.0144(6) 0.0041(5) 0.0028(5) 0.0055(5) 
C17 0.0215(7) 0.0194(6) 0.0132(6) 0.0057(5) 0.0011(5) 0.0059(5) 
C18 0.0269(8) 0.0258(7) 0.0191(7) -0.0005(6) 0.0018(6) 0.0064(6) 
C19 0.0203(8) 0.0384(9) 0.0247(8) -0.0016(6) -0.0055(6) 0.0105(7) 
C20 0.0158(6) 0.0146(6) 0.0150(6) 0.0042(5) -0.0004(5) 0.0051(5) 
C21 0.0227(7) 0.0209(7) 0.0185(7) 0.0056(5) 0.0045(5) 0.0098(6) 
C22 0.0231(7) 0.0160(6) 0.0203(7) 0.0073(5) 0.0018(5) 0.0072(5) 
C23 0.0168(7) 0.0179(6) 0.0226(7) 0.0059(5) 0.0071(5) 0.0051(5) 
C24 0.0227(8) 0.0362(9) 0.0299(8) 0.0156(7) 0.0125(6) 0.0054(7) 
C25 0.0145(7) 0.0300(8) 0.0359(8) 0.0128(7) 0.0024(6) 0.0062(6) 
 
_geom_special_details 
; 
 All esds (except the esd in the dihedral angle between two l.s. planes) 
 are estimated using the full covariance matrix.  The cell esds are taken 
 into account individually in the estimation of esds in distances, angles 
 and torsion angles; correlations between esds in cell parameters are only 
 used when they are defined by crystal symmetry.  An approximate (isotropic) 
 treatment of cell esds is used for estimating esds involving l.s. planes. 
; 
 
loop_ 
 _geom_bond_atom_site_label_1 
 _geom_bond_atom_site_label_2 
 _geom_bond_distance 
 _geom_bond_site_symmetry_2 
 _geom_bond_publ_flag 
Si1 C16 1.8444(13) . ? 
Si1 C17 1.8816(13) . ? 
Si1 C20 1.8881(13) . ? 
Si1 C23 1.8890(14) . ? 
C1 C14 1.4196(17) 2_676 ? 
C1 C2 1.4203(17) . ? 
C1 C15 1.4296(16) . ? 
C2 C3 1.4070(17) . ? 
C2 C14 1.4433(16) . ? 
C3 C4 1.3869(17) . ? 
C3 H3 0.9500 . ? 
C4 C5 1.4324(17) . ? 
C4 C12 1.4500(17) . ? 
C5 C6 1.3555(18) . ? 
C5 H5 0.9500 . ? 
C6 C10 1.4297(18) . ? 
C6 C7 1.5044(17) . ? 
C7 O8' 1.411(5) . ? 
C7 O8 1.444(2) . ? 
C7 H7A 0.9900 . ? 
C7 H7B 0.9900 . ? 
O8 C9 1.433(2) . ? 
O8' C9 1.460(5) . ? 
C9 C10 1.5016(18) . ? 
C9 H9A 0.9900 . ? 
C9 H9B 0.9900 . ? 
C10 C11 1.3564(18) . ? 
C11 C12 1.4353(17) . ? 
C11 H11 0.9500 . ? 
C12 C13 1.3853(17) . ? 
C13 C14 1.4088(17) . ? 
C13 H13 0.9500 . ? 
C14 C1 1.4195(17) 2_676 ? 
C15 C16 1.2070(17) . ? 
C17 C18 1.5342(19) . ? 
C17 C19 1.535(2) . ? 
C17 H17 1.0000 . ? 
C18 H18A 0.9800 . ? 
C18 H18B 0.9800 . ? 
C18 H18C 0.9800 . ? 
C19 H19A 0.9800 . ? 
C19 H19B 0.9800 . ? 
C19 H19C 0.9800 . ? 
C20 C21 1.5365(18) . ? 
C20 C22 1.5398(17) . ? 
C20 H20 1.0000 . ? 
C21 H21A 0.9800 . ? 
C21 H21B 0.9800 . ? 
C21 H21C 0.9800 . ? 
C22 H22A 0.9800 . ? 
C22 H22B 0.9800 . ? 
C22 H22C 0.9800 . ? 
C23 C25 1.534(2) . ? 
C23 C24 1.5346(19) . ? 
C23 H23 1.0000 . ? 
C24 H24A 0.9800 . ? 
C24 H24B 0.9800 . ? 
C24 H24C 0.9800 . ? 
C25 H25A 0.9800 . ? 
C25 H25B 0.9800 . ? 
C25 H25C 0.9800 . ? 
 
loop_ 
 _geom_angle_atom_site_label_1 
 _geom_angle_atom_site_label_2 
 _geom_angle_atom_site_label_3 
 _geom_angle 
 _geom_angle_site_symmetry_1 
 _geom_angle_site_symmetry_3 
 _geom_angle_publ_flag 
C16 Si1 C17 108.89(6) . . ? 
C16 Si1 C20 107.89(6) . . ? 
C17 Si1 C20 112.92(6) . . ? 
C16 Si1 C23 103.31(6) . . ? 
C17 Si1 C23 110.67(6) . . ? 
C20 Si1 C23 112.62(6) . . ? 
C14 C1 C2 121.16(11) 2_676 . ? 
C14 C1 C15 119.77(11) 2_676 . ? 
C2 C1 C15 119.05(11) . . ? 
C3 C2 C1 121.73(11) . . ? 
C3 C2 C14 118.70(11) . . ? 
C1 C2 C14 119.57(11) . . ? 
C4 C3 C2 122.18(11) . . ? 
C4 C3 H3 118.9 . . ? 
C2 C3 H3 118.9 . . ? 
C3 C4 C5 121.81(11) . . ? 
C3 C4 C12 119.07(11) . . ? 
C5 C4 C12 119.10(11) . . ? 
C6 C5 C4 119.63(12) . . ? 
C6 C5 H5 120.2 . . ? 
C4 C5 H5 120.2 . . ? 
C5 C6 C10 121.32(12) . . ? 
C5 C6 C7 131.02(12) . . ? 
C10 C6 C7 107.65(11) . . ? 
O8' C7 O8 24.0(2) . . ? 
O8' C7 C6 106.6(2) . . ? 
O8 C7 C6 104.77(11) . . ? 
O8' C7 H7A 88.3 . . ? 
O8 C7 H7A 110.8 . . ? 
C6 C7 H7A 110.8 . . ? 
O8' C7 H7B 128.9 . . ? 
O8 C7 H7B 110.8 . . ? 
C6 C7 H7B 110.8 . . ? 
H7A C7 H7B 108.9 . . ? 
C9 O8 C7 109.11(13) . . ? 
C7 O8' C9 109.4(3) . . ? 
O8 C9 O8' 23.73(18) . . ? 
O8 C9 C10 105.03(11) . . ? 
O8' C9 C10 105.4(2) . . ? 
O8 C9 H9A 110.7 . . ? 
O8' C9 H9A 129.6 . . ? 
C10 C9 H9A 110.7 . . ? 
O8 C9 H9B 110.7 . . ? 
O8' C9 H9B 89.1 . . ? 
C10 C9 H9B 110.7 . . ? 
H9A C9 H9B 108.8 . . ? 
C11 C10 C6 121.43(12) . . ? 
C11 C10 C9 130.84(12) . . ? 
C6 C10 C9 107.73(11) . . ? 
C10 C11 C12 119.51(12) . . ? 
C10 C11 H11 120.2 . . ? 
C12 C11 H11 120.2 . . ? 
C13 C12 C11 121.88(11) . . ? 
C13 C12 C4 119.13(11) . . ? 
C11 C12 C4 118.97(11) . . ? 
C12 C13 C14 122.08(11) . . ? 
C12 C13 H13 119.0 . . ? 
C14 C13 H13 119.0 . . ? 
C13 C14 C1 121.90(11) . 2_676 ? 
C13 C14 C2 118.82(11) . . ? 
C1 C14 C2 119.27(11) 2_676 . ? 
C16 C15 C1 176.94(13) . . ? 
C15 C16 Si1 169.70(11) . . ? 
C18 C17 C19 110.37(12) . . ? 
C18 C17 Si1 111.69(9) . . ? 
C19 C17 Si1 113.11(9) . . ? 
C18 C17 H17 107.1 . . ? 
C19 C17 H17 107.1 . . ? 
Si1 C17 H17 107.1 . . ? 
C17 C18 H18A 109.5 . . ? 
C17 C18 H18B 109.5 . . ? 
H18A C18 H18B 109.5 . . ? 
C17 C18 H18C 109.5 . . ? 
H18A C18 H18C 109.5 . . ? 
H18B C18 H18C 109.5 . . ? 
C17 C19 H19A 109.5 . . ? 
C17 C19 H19B 109.5 . . ? 
H19A C19 H19B 109.5 . . ? 
C17 C19 H19C 109.5 . . ? 
H19A C19 H19C 109.5 . . ? 
H19B C19 H19C 109.5 . . ? 
C21 C20 C22 110.49(11) . . ? 
C21 C20 Si1 113.87(9) . . ? 
C22 C20 Si1 111.77(9) . . ? 
C21 C20 H20 106.8 . . ? 
C22 C20 H20 106.8 . . ? 
Si1 C20 H20 106.8 . . ? 
C20 C21 H21A 109.5 . . ? 
C20 C21 H21B 109.5 . . ? 
H21A C21 H21B 109.5 . . ? 
C20 C21 H21C 109.5 . . ? 
H21A C21 H21C 109.5 . . ? 
H21B C21 H21C 109.5 . . ? 
C20 C22 H22A 109.5 . . ? 
C20 C22 H22B 109.5 . . ? 
H22A C22 H22B 109.5 . . ? 
C20 C22 H22C 109.5 . . ? 
H22A C22 H22C 109.5 . . ? 
H22B C22 H22C 109.5 . . ? 
C25 C23 C24 110.67(12) . . ? 
C25 C23 Si1 112.24(9) . . ? 
C24 C23 Si1 114.21(10) . . ? 
C25 C23 H23 106.4 . . ? 
C24 C23 H23 106.4 . . ? 
Si1 C23 H23 106.4 . . ? 
C23 C24 H24A 109.5 . . ? 
C23 C24 H24B 109.5 . . ? 
H24A C24 H24B 109.5 . . ? 
C23 C24 H24C 109.5 . . ? 
H24A C24 H24C 109.5 . . ? 
H24B C24 H24C 109.5 . . ? 
C23 C25 H25A 109.5 . . ? 
C23 C25 H25B 109.5 . . ? 
H25A C25 H25B 109.5 . . ? 
C23 C25 H25C 109.5 . . ? 
H25A C25 H25C 109.5 . . ? 
H25B C25 H25C 109.5 . . ? 
 
loop_ 
 _geom_torsion_atom_site_label_1 
 _geom_torsion_atom_site_label_2 
 _geom_torsion_atom_site_label_3 
 _geom_torsion_atom_site_label_4 
 _geom_torsion 
 _geom_torsion_site_symmetry_1 
 _geom_torsion_site_symmetry_2 
 _geom_torsion_site_symmetry_3 
 _geom_torsion_site_symmetry_4 
 _geom_torsion_publ_flag 
C14 C1 C2 C3 -178.97(11) 2_676 . . . ? 
C15 C1 C2 C3 2.69(18) . . . . ? 
C14 C1 C2 C14 0.59(19) 2_676 . . . ? 
C15 C1 C2 C14 -177.75(10) . . . . ? 
C1 C2 C3 C4 179.02(11) . . . . ? 
C14 C2 C3 C4 -0.55(18) . . . . ? 
C2 C3 C4 C5 -177.43(11) . . . . ? 
C2 C3 C4 C12 1.05(18) . . . . ? 
C3 C4 C5 C6 177.42(12) . . . . ? 
C12 C4 C5 C6 -1.05(18) . . . . ? 
C4 C5 C6 C10 1.53(19) . . . . ? 
C4 C5 C6 C7 -178.40(12) . . . . ? 
C5 C6 C7 O8' -168.6(3) . . . . ? 
C10 C6 C7 O8' 11.5(3) . . . . ? 
C5 C6 C7 O8 166.50(19) . . . . ? 
C10 C6 C7 O8 -13.43(19) . . . . ? 
O8' C7 O8 C9 -74.3(5) . . . . ? 
C6 C7 O8 C9 23.4(3) . . . . ? 
O8 C7 O8' C9 71.2(5) . . . . ? 
C6 C7 O8' C9 -18.0(5) . . . . ? 
C7 O8 C9 O8' 70.3(5) . . . . ? 
C7 O8 C9 C10 -23.9(3) . . . . ? 
C7 O8' C9 O8 -74.9(6) . . . . ? 
C7 O8' C9 C10 17.4(5) . . . . ? 
C5 C6 C10 C11 -0.42(19) . . . . ? 
C7 C6 C10 C11 179.52(11) . . . . ? 
C5 C6 C10 C9 179.29(12) . . . . ? 
C7 C6 C10 C9 -0.76(14) . . . . ? 
O8 C9 C10 C11 -165.51(19) . . . . ? 
O8' C9 C10 C11 169.9(3) . . . . ? 
O8 C9 C10 C6 14.81(19) . . . . ? 
O8' C9 C10 C6 -9.8(3) . . . . ? 
C6 C10 C11 C12 -1.16(19) . . . . ? 
C9 C10 C11 C12 179.20(12) . . . . ? 
C10 C11 C12 C13 -176.96(12) . . . . ? 
C10 C11 C12 C4 1.57(18) . . . . ? 
C3 C4 C12 C13 -0.43(18) . . . . ? 
C5 C4 C12 C13 178.09(11) . . . . ? 
C3 C4 C12 C11 -179.00(11) . . . . ? 
C5 C4 C12 C11 -0.48(17) . . . . ? 
C11 C12 C13 C14 177.83(11) . . . . ? 
C4 C12 C13 C14 -0.70(18) . . . . ? 
C12 C13 C14 C1 -178.36(11) . . . 2_676 ? 
C12 C13 C14 C2 1.20(18) . . . . ? 
C3 C2 C14 C13 -0.57(17) . . . . ? 
C1 C2 C14 C13 179.86(11) . . . . ? 
C3 C2 C14 C1 178.99(11) . . . 2_676 ? 
C1 C2 C14 C1 -0.58(19) . . . 2_676 ? 
C14 C1 C15 C16 -141(2) 2_676 . . . ? 
C2 C1 C15 C16 37(2) . . . . ? 
C1 C15 C16 Si1 7(3) . . . . ? 
C17 Si1 C16 C15 -145.7(6) . . . . ? 
C20 Si1 C16 C15 91.4(6) . . . . ? 
C23 Si1 C16 C15 -28.0(6) . . . . ? 
C16 Si1 C17 C18 64.00(11) . . . . ? 
C20 Si1 C17 C18 -176.19(9) . . . . ? 
C23 Si1 C17 C18 -48.90(11) . . . . ? 
C16 Si1 C17 C19 -61.25(11) . . . . ? 
C20 Si1 C17 C19 58.56(12) . . . . ? 
C23 Si1 C17 C19 -174.15(10) . . . . ? 
C16 Si1 C20 C21 39.12(11) . . . . ? 
C17 Si1 C20 C21 -81.26(10) . . . . ? 
C23 Si1 C20 C21 152.48(9) . . . . ? 
C16 Si1 C20 C22 165.20(9) . . . . ? 
C17 Si1 C20 C22 44.82(11) . . . . ? 
C23 Si1 C20 C22 -81.43(10) . . . . ? 
C16 Si1 C23 C25 56.94(11) . . . . ? 
C17 Si1 C23 C25 173.35(9) . . . . ? 
C20 Si1 C23 C25 -59.20(11) . . . . ? 
C16 Si1 C23 C24 -176.04(10) . . . . ? 
C17 Si1 C23 C24 -59.63(12) . . . . ? 
C20 Si1 C23 C24 67.82(12) . . . . ? 
 
_diffrn_measured_fraction_theta_max     .999 
_diffrn_reflns_theta_full              27.49 
_diffrn_measured_fraction_theta_full    .999 
_refine_diff_density_max     .352 
_refine_diff_density_min    -.237 
_refine_diff_density_rms     .050 
