 
data_k10053 
 
_audit_creation_method            SHELXL-97 
_chemical_name_systematic 
; 
 ? 
; 
_chemical_name_common             ? 
_chemical_melting_point           ? 
_chemical_formula_moiety 
 'C44 H46 Si2' 
_chemical_formula_sum 
 'C44 H46 Si2' 
_chemical_formula_weight          630.99 
 
loop_ 
 _atom_type_symbol 
 _atom_type_description 
 _atom_type_scat_dispersion_real 
 _atom_type_scat_dispersion_imag 
 _atom_type_scat_source 
 'C'  'C'   0.0033   0.0016 
 'International Tables Vol C Tables 4.2.6.8 and 6.1.1.4' 
 'H'  'H'   0.0000   0.0000 
 'International Tables Vol C Tables 4.2.6.8 and 6.1.1.4' 
 'Si'  'Si'   0.0817   0.0704 
 'International Tables Vol C Tables 4.2.6.8 and 6.1.1.4' 
 
_symmetry_cell_setting            ? 
_symmetry_space_group_name_H-M    ? 
_symmetry_space_group_name_Hall   ? 
 
loop_ 
 _symmetry_equiv_pos_as_xyz 
 'x, y, z' 
 '-x, -y, -z' 
 
_cell_length_a                    8.72920(10) 
_cell_length_b                    11.0409(2) 
_cell_length_c                    19.4260(3) 
_cell_angle_alpha                 81.8420(6) 
_cell_angle_beta                  88.3328(6) 
_cell_angle_gamma                 75.9651(7) 
_cell_volume                      1797.95(5) 
_cell_formula_units_Z             2 
_cell_measurement_temperature     90.0(2) 
_cell_measurement_reflns_used     ? 
_cell_measurement_theta_min       ? 
_cell_measurement_theta_max       ? 
 
_exptl_crystal_description        ? 
_exptl_crystal_colour             ? 
_exptl_crystal_size_max           0.28 
_exptl_crystal_size_mid           0.20 
_exptl_crystal_size_min           0.16 
_exptl_crystal_density_meas       ? 
_exptl_crystal_density_diffrn     1.166 
_exptl_crystal_density_method     'not measured' 
_exptl_crystal_F_000              676 
_exptl_absorpt_coefficient_mu     0.128 
_exptl_absorpt_correction_type    multi-scan 
_exptl_absorpt_correction_T_min   0.9649 
_exptl_absorpt_correction_T_max   0.9797 
_exptl_absorpt_process_details    'Scalepack (Otwinowski & Minor, 1997)' 
 
_exptl_special_details 
; 
 ? 
; 
 
_diffrn_ambient_temperature       90.0(2) 
_diffrn_radiation_wavelength      0.71073 
_diffrn_radiation_type            MoK\a 
_diffrn_radiation_source          'fine-focus sealed tube'    
_diffrn_radiation_monochromator   'graphite'                 
_diffrn_measurement_device_type   'Nonius KappaCCD diffractometer'  
_diffrn_measurement_method        '\w scans at fixed \c = 55\%'
_diffrn_detector_area_resol_mean  9.1
_diffrn_standards_number          0 
_diffrn_standards_interval_count  . 
_diffrn_standards_interval_time   . 
_diffrn_standards_decay_%         ? 
_diffrn_reflns_number             16213 
_diffrn_reflns_av_R_equivalents   0.0211 
_diffrn_reflns_av_sigmaI/netI     0.0323 
_diffrn_reflns_limit_h_min        -11 
_diffrn_reflns_limit_h_max        11 
_diffrn_reflns_limit_k_min        -14 
_diffrn_reflns_limit_k_max        14 
_diffrn_reflns_limit_l_min        -25 
_diffrn_reflns_limit_l_max        25 
_diffrn_reflns_theta_min          1.06 
_diffrn_reflns_theta_max          27.47 
_reflns_number_total              8227 
_reflns_number_gt                 6839 
_reflns_threshold_expression      >2\s(I)    
 
_computing_data_collection        'COLLECT (Nonius, 1998)'
_computing_cell_refinement        'SCALEPACK (Otwinowski & Minor, 1997)'
_computing_data_reduction         'DENZO-SMN (Otwinowski & Minor, 1997)'
_computing_structure_solution     'SHELXS-97 (Sheldrick, 2008)' 
_computing_structure_refinement   'SHELXL-97 (Sheldrick, 2008)' 
_computing_molecular_graphics     'XP in SHELXTL (Sheldrick, 2008)'
_computing_publication_material
; 
SHELX-97 (Sheldrick, 2008) and local procedures 
; 
 
_publ_section_exptl_refinement
;
H atoms were found in difference Fourier maps and subsequently placed in
idealized positions with constrained distances of 
0.98 \%A (RCH~3~),
0.99 \%A (R~2~CH~2~),
1.00 \%A (R~3~CH),
0.95 \%A (C~Ar~H),
0.84 \%A (O-H),
0.88 \%A (N-H),
and with U~iso~(H) values set to either 1.2U~eq~ or 1.5U~eq~ (RCH~3~, OH) 
of the attached atom. 
;

_refine_special_details 
; 
 Refinement of F^2^ against ALL reflections.  The weighted R-factor wR and 
 goodness of fit S are based on F^2^, conventional R-factors R are based 
 on F, with F set to zero for negative F^2^. The threshold expression of 
 F^2^ > 2\s(F^2^) is used only for calculating R-factors(gt) etc. and is 
 not relevant to the choice of reflections for refinement.  R-factors based 
 on F^2^ are statistically about twice as large as those based on F, and R- 
 factors based on ALL data will be even larger. 
; 
 
_refine_ls_structure_factor_coef  Fsqd  
_refine_ls_matrix_type            full 
_refine_ls_weighting_scheme       calc  
_refine_ls_weighting_details 
 'calc w=1/[\s^2^(Fo^2^)+(0.1000P)^2^] where P=(Fo^2^+2Fc^2^)/3'         
_atom_sites_solution_primary      direct 
_atom_sites_solution_secondary    difmap 
_atom_sites_solution_hydrogens    geom 
_refine_ls_hydrogen_treatment     constr 
_refine_ls_extinction_method      none 
_refine_ls_extinction_coef        ? 
_refine_ls_number_reflns          8227 
_refine_ls_number_parameters      415 
_refine_ls_number_restraints      0 
_refine_ls_R_factor_all           0.0865 
_refine_ls_R_factor_gt            0.0758 
_refine_ls_wR_factor_ref          0.2878 
_refine_ls_wR_factor_gt           0.2760 
_refine_ls_goodness_of_fit_ref    2.295 
_refine_ls_restrained_S_all       2.295 
_refine_ls_shift/su_max           0.001 
_refine_ls_shift/su_mean          0.000 
 
loop_ 
 _atom_site_label 
 _atom_site_type_symbol 
 _atom_site_fract_x 
 _atom_site_fract_y 
 _atom_site_fract_z 
 _atom_site_U_iso_or_equiv 
 _atom_site_adp_type 
 _atom_site_occupancy 
 _atom_site_symmetry_multiplicity 
 _atom_site_calc_flag 
 _atom_site_refinement_flags 
 _atom_site_disorder_assembly 
 _atom_site_disorder_group 
C1A C 0.4810(3) 0.8817(2) 0.03296(12) 0.0158(5) Uani 1 1 d . . . 
C2A C 0.3652(3) 0.9556(2) -0.01519(12) 0.0161(5) Uani 1 1 d . . . 
C3A C 0.2312(3) 0.9147(2) -0.03205(13) 0.0185(5) Uani 1 1 d . . . 
C4A C 0.1200(3) 0.9855(2) -0.08024(12) 0.0183(5) Uani 1 1 d . . . 
C5A C -0.0152(3) 0.9423(3) -0.09856(14) 0.0257(6) Uani 1 1 d . . . 
C6A C -0.1193(3) 1.0121(3) -0.14699(15) 0.0290(6) Uani 1 1 d . . . 
C7A C -0.1000(3) 1.1323(3) -0.18164(15) 0.0306(6) Uani 1 1 d . . . 
C8A C 0.0239(3) 1.1773(3) -0.16570(14) 0.0264(6) Uani 1 1 d . . . 
C9A C 0.1387(3) 1.1061(2) -0.11408(13) 0.0193(5) Uani 1 1 d . . . 
C10A C 0.2678(3) 1.1498(2) -0.09730(13) 0.0184(5) Uani 1 1 d . . . 
C11A C 0.3846(3) 1.0767(2) -0.04879(12) 0.0162(5) Uani 1 1 d . . . 
C12A C 0.4627(3) 0.7613(2) 0.06599(12) 0.0187(5) Uani 1 1 d . . . 
C13A C 0.4451(3) 0.6598(2) 0.09134(12) 0.0202(5) Uani 1 1 d . . . 
C14A C 0.4002(3) 0.4902(2) 0.22151(13) 0.0234(6) Uani 1 1 d . . . 
C15A C 0.5095(4) 0.5340(4) 0.26331(16) 0.0500(9) Uani 1 1 d . . . 
C16A C 0.2772(4) 0.4451(3) 0.25100(16) 0.0404(8) Uani 1 1 d . . . 
C17A C 0.2565(3) 0.4649(2) 0.08408(13) 0.0237(6) Uani 1 1 d . . . 
C18A C 0.1213(3) 0.5645(3) 0.06597(15) 0.0316(7) Uani 1 1 d . . . 
C19A C 0.2607(4) 0.3401(3) 0.07235(19) 0.0469(9) Uani 1 1 d . . . 
C20A C 0.6176(3) 0.3902(2) 0.10159(14) 0.0240(6) Uani 1 1 d . . . 
C21A C 0.7624(3) 0.4261(3) 0.12286(16) 0.0313(6) Uani 1 1 d . . . 
C22A C 0.8646(4) 0.3608(4) 0.1702(2) 0.0519(9) Uani 1 1 d . . . 
Si1B Si 0.47548(8) -0.00744(6) 0.63263(3) 0.0175(2) Uani 1 1 d . . . 
C1B C 0.4953(3) 0.3761(2) 0.52829(12) 0.0161(5) Uani 1 1 d . . . 
C2B C 0.3693(3) 0.4505(2) 0.48598(12) 0.0157(5) Uani 1 1 d . . . 
C3B C 0.2399(3) 0.4045(2) 0.46997(12) 0.0173(5) Uani 1 1 d . . . 
C4B C 0.1170(3) 0.4771(2) 0.42729(12) 0.0178(5) Uani 1 1 d . . . 
C5B C -0.0122(3) 0.4268(2) 0.40944(13) 0.0231(6) Uani 1 1 d . . . 
C6B C -0.1308(3) 0.5005(3) 0.36726(14) 0.0257(6) Uani 1 1 d . . . 
C7B C -0.1315(3) 0.6275(3) 0.34023(14) 0.0285(6) Uani 1 1 d . . . 
C8B C -0.0097(3) 0.6786(2) 0.35572(13) 0.0243(6) Uani 1 1 d . . . 
C9B C 0.1187(3) 0.6046(2) 0.39961(12) 0.0187(5) Uani 1 1 d . . . 
C10B C 0.2445(3) 0.6522(2) 0.41506(13) 0.0186(5) Uani 1 1 d . . . 
C11B C 0.3733(3) 0.5780(2) 0.45701(12) 0.0163(5) Uani 1 1 d . . . 
C12B C 0.4886(3) 0.2507(2) 0.55874(12) 0.0175(5) Uani 1 1 d . . . 
C13B C 0.4809(3) 0.1479(2) 0.58512(12) 0.0193(5) Uani 1 1 d . . . 
C14B C 0.4635(3) 0.0084(2) 0.72718(13) 0.0227(6) Uani 1 1 d . . . 
C15B C 0.5040(3) 0.1055(3) 0.75034(14) 0.0305(6) Uani 1 1 d . . . 
C16B C 0.4146(5) -0.0934(3) 0.77773(15) 0.0441(9) Uani 1 1 d . . . 
C17B C 0.3061(3) -0.0606(2) 0.60135(13) 0.0257(6) Uani 1 1 d . . . 
C18B C 0.1861(4) 0.0222(3) 0.56683(15) 0.0363(7) Uani 1 1 d . . . 
C19B C 0.3104(4) -0.2012(3) 0.61473(18) 0.0423(8) Uani 1 1 d . . . 
C20B C 0.6667(3) -0.1218(2) 0.61502(14) 0.0256(6) Uani 1 1 d . . . 
C21B C 0.8062(3) -0.0747(3) 0.63029(15) 0.0309(7) Uani 1 1 d . . . 
C22B C 0.9010(4) -0.1155(4) 0.68577(19) 0.0493(9) Uani 1 1 d . . . 
Si1A Si 0.42902(8) 0.49890(6) 0.12556(3) 0.0169(2) Uani 1 1 d . . . 
 
loop_ 
 _atom_site_aniso_label 
 _atom_site_aniso_U_11 
 _atom_site_aniso_U_22 
 _atom_site_aniso_U_33 
 _atom_site_aniso_U_23 
 _atom_site_aniso_U_13 
 _atom_site_aniso_U_12 
C1A 0.0182(12) 0.0123(11) 0.0161(12) 0.0010(9) 0.0016(9) -0.0042(9) 
C2A 0.0168(12) 0.0170(12) 0.0149(12) -0.0025(9) 0.0015(9) -0.0051(9) 
C3A 0.0205(12) 0.0196(12) 0.0166(12) -0.0028(9) 0.0007(10) -0.0070(10) 
C4A 0.0173(12) 0.0210(12) 0.0183(12) -0.0053(10) 0.0006(10) -0.0062(10) 
C5A 0.0224(13) 0.0309(14) 0.0266(14) -0.0060(11) -0.0020(11) -0.0105(11) 
C6A 0.0226(14) 0.0369(16) 0.0297(15) -0.0062(12) -0.0045(11) -0.0101(12) 
C7A 0.0235(14) 0.0378(16) 0.0295(15) -0.0028(12) -0.0087(11) -0.0053(12) 
C8A 0.0235(14) 0.0279(14) 0.0250(14) -0.0004(11) -0.0053(11) -0.0024(11) 
C9A 0.0190(12) 0.0208(12) 0.0165(12) -0.0014(9) -0.0004(9) -0.0025(10) 
C10A 0.0205(12) 0.0159(12) 0.0176(12) -0.0014(9) -0.0015(9) -0.0027(10) 
C11A 0.0184(12) 0.0163(12) 0.0135(11) -0.0013(9) 0.0004(9) -0.0038(9) 
C12A 0.0204(12) 0.0189(12) 0.0180(12) -0.0006(9) -0.0016(9) -0.0078(10) 
C13A 0.0214(13) 0.0196(12) 0.0196(12) 0.0031(9) -0.0047(10) -0.0075(10) 
C14A 0.0316(14) 0.0179(12) 0.0174(12) 0.0000(9) 0.0023(10) -0.0012(11) 
C15A 0.053(2) 0.083(3) 0.0263(16) -0.0209(17) -0.0018(15) -0.033(2) 
C16A 0.053(2) 0.0443(18) 0.0294(16) -0.0019(13) 0.0102(14) -0.0246(16) 
C17A 0.0259(14) 0.0272(14) 0.0221(13) -0.0011(10) 0.0004(11) -0.0157(11) 
C18A 0.0293(15) 0.0326(15) 0.0341(16) -0.0035(12) -0.0068(12) -0.0096(12) 
C19A 0.0441(19) 0.0303(16) 0.072(2) -0.0182(16) -0.0203(17) -0.0118(14) 
C20A 0.0240(13) 0.0219(13) 0.0261(14) -0.0016(10) 0.0061(11) -0.0072(11) 
C21A 0.0227(14) 0.0338(16) 0.0368(16) -0.0029(12) 0.0039(12) -0.0067(12) 
C22A 0.0247(17) 0.063(2) 0.062(2) 0.0026(19) -0.0052(16) -0.0065(16) 
Si1B 0.0230(4) 0.0127(4) 0.0167(4) 0.0009(3) 0.0026(3) -0.0062(3) 
C1B 0.0215(13) 0.0124(11) 0.0139(11) 0.0007(9) 0.0025(9) -0.0047(9) 
C2B 0.0169(12) 0.0167(12) 0.0132(11) -0.0024(9) 0.0031(9) -0.0037(9) 
C3B 0.0196(12) 0.0177(12) 0.0151(12) -0.0023(9) 0.0019(9) -0.0058(10) 
C4B 0.0190(12) 0.0215(12) 0.0139(12) -0.0045(9) 0.0007(9) -0.0055(10) 
C5B 0.0224(13) 0.0283(14) 0.0211(13) -0.0049(10) -0.0002(10) -0.0103(11) 
C6B 0.0219(13) 0.0331(15) 0.0238(14) -0.0065(11) -0.0051(11) -0.0077(11) 
C7B 0.0233(14) 0.0348(15) 0.0262(14) -0.0020(12) -0.0054(11) -0.0053(12) 
C8B 0.0209(13) 0.0273(13) 0.0235(13) -0.0023(11) -0.0038(10) -0.0038(11) 
C9B 0.0191(12) 0.0202(12) 0.0152(12) -0.0025(9) 0.0005(9) -0.0018(10) 
C10B 0.0199(12) 0.0177(12) 0.0171(12) 0.0005(9) 0.0006(9) -0.0043(10) 
C11B 0.0182(12) 0.0152(12) 0.0140(11) -0.0004(9) 0.0021(9) -0.0022(9) 
C12B 0.0179(12) 0.0173(12) 0.0175(12) -0.0001(9) -0.0015(9) -0.0056(9) 
C13B 0.0213(12) 0.0176(12) 0.0198(12) 0.0012(9) -0.0020(10) -0.0078(10) 
C14B 0.0252(13) 0.0205(12) 0.0185(12) 0.0005(10) 0.0034(10) 0.0001(10) 
C15B 0.0292(15) 0.0390(16) 0.0242(14) -0.0092(12) 0.0001(11) -0.0068(13) 
C16B 0.074(2) 0.0276(15) 0.0273(16) 0.0040(12) 0.0178(16) -0.0124(16) 
C17B 0.0294(14) 0.0278(14) 0.0252(14) -0.0091(11) 0.0082(11) -0.0151(12) 
C18B 0.0311(16) 0.055(2) 0.0283(16) -0.0045(14) 0.0008(12) -0.0220(15) 
C19B 0.048(2) 0.0327(17) 0.058(2) -0.0168(15) 0.0116(16) -0.0264(15) 
C20B 0.0295(14) 0.0180(12) 0.0281(14) -0.0022(10) 0.0065(11) -0.0046(11) 
C21B 0.0244(14) 0.0299(15) 0.0335(16) -0.0019(12) 0.0032(12) 0.0011(12) 
C22B 0.0347(18) 0.065(2) 0.044(2) -0.0075(17) -0.0021(15) -0.0042(17) 
Si1A 0.0208(4) 0.0156(4) 0.0149(4) 0.0025(3) -0.0009(3) -0.0084(3) 
 
_geom_special_details 
; 
 All esds (except the esd in the dihedral angle between two l.s. planes) 
 are estimated using the full covariance matrix.  The cell esds are taken 
 into account individually in the estimation of esds in distances, angles 
 and torsion angles; correlations between esds in cell parameters are only 
 used when they are defined by crystal symmetry.  An approximate (isotropic) 
 treatment of cell esds is used for estimating esds involving l.s. planes. 
; 
 
loop_ 
 _geom_bond_atom_site_label_1 
 _geom_bond_atom_site_label_2 
 _geom_bond_distance 
 _geom_bond_site_symmetry_2 
 _geom_bond_publ_flag 
C1A C2A 1.414(3) . ? 
C1A C11A 1.415(3) 2_675 ? 
C1A C12A 1.435(3) . ? 
C2A C3A 1.414(3) . ? 
C2A C11A 1.448(3) . ? 
C3A C4A 1.381(3) . ? 
C4A C9A 1.442(3) . ? 
C4A C5A 1.447(3) . ? 
C5A C6A 1.345(4) . ? 
C6A C7A 1.447(4) . ? 
C7A C8A 1.355(4) . ? 
C8A C9A 1.443(3) . ? 
C9A C10A 1.393(3) . ? 
C10A C11A 1.422(3) . ? 
C11A C1A 1.415(3) 2_675 ? 
C12A C13A 1.202(3) . ? 
C13A Si1A 1.843(2) . ? 
C14A C16A 1.369(4) . ? 
C14A C15A 1.477(4) . ? 
C14A Si1A 1.866(3) . ? 
C17A C18A 1.418(4) . ? 
C17A C19A 1.419(4) . ? 
C17A Si1A 1.868(3) . ? 
C20A C21A 1.499(4) . ? 
C20A Si1A 1.877(3) . ? 
C21A C22A 1.307(5) . ? 
Si1B C13B 1.840(2) . ? 
Si1B C17B 1.864(3) . ? 
Si1B C14B 1.867(3) . ? 
Si1B C20B 1.888(3) . ? 
C1B C2B 1.408(3) . ? 
C1B C11B 1.413(3) 2_666 ? 
C1B C12B 1.440(3) . ? 
C2B C3B 1.406(3) . ? 
C2B C11B 1.448(3) . ? 
C3B C4B 1.388(3) . ? 
C4B C9B 1.437(3) . ? 
C4B C5B 1.443(3) . ? 
C5B C6B 1.363(4) . ? 
C6B C7B 1.424(4) . ? 
C7B C8B 1.377(4) . ? 
C8B C9B 1.436(3) . ? 
C9B C10B 1.385(3) . ? 
C10B C11B 1.420(3) . ? 
C11B C1B 1.413(3) 2_666 ? 
C12B C13B 1.194(3) . ? 
C14B C15B 1.344(4) . ? 
C14B C16B 1.518(4) . ? 
C17B C18B 1.337(4) . ? 
C17B C19B 1.529(4) . ? 
C20B C21B 1.488(4) . ? 
C21B C22B 1.335(4) . ? 
 
loop_ 
 _geom_angle_atom_site_label_1 
 _geom_angle_atom_site_label_2 
 _geom_angle_atom_site_label_3 
 _geom_angle 
 _geom_angle_site_symmetry_1 
 _geom_angle_site_symmetry_3 
 _geom_angle_publ_flag 
C2A C1A C11A 121.5(2) . 2_675 ? 
C2A C1A C12A 119.3(2) . . ? 
C11A C1A C12A 119.2(2) 2_675 . ? 
C1A C2A C3A 122.1(2) . . ? 
C1A C2A C11A 119.1(2) . . ? 
C3A C2A C11A 118.8(2) . . ? 
C4A C3A C2A 122.1(2) . . ? 
C3A C4A C9A 119.5(2) . . ? 
C3A C4A C5A 122.0(2) . . ? 
C9A C4A C5A 118.5(2) . . ? 
C6A C5A C4A 120.6(2) . . ? 
C5A C6A C7A 121.1(2) . . ? 
C8A C7A C6A 120.4(2) . . ? 
C7A C8A C9A 120.6(2) . . ? 
C10A C9A C4A 119.6(2) . . ? 
C10A C9A C8A 121.6(2) . . ? 
C4A C9A C8A 118.8(2) . . ? 
C9A C10A C11A 121.5(2) . . ? 
C1A C11A C10A 122.0(2) 2_675 . ? 
C1A C11A C2A 119.4(2) 2_675 . ? 
C10A C11A C2A 118.6(2) . . ? 
C13A C12A C1A 177.5(3) . . ? 
C12A C13A Si1A 175.7(2) . . ? 
C16A C14A C15A 121.9(3) . . ? 
C16A C14A Si1A 119.0(2) . . ? 
C15A C14A Si1A 119.1(2) . . ? 
C18A C17A C19A 120.9(3) . . ? 
C18A C17A Si1A 119.1(2) . . ? 
C19A C17A Si1A 120.0(2) . . ? 
C21A C20A Si1A 113.22(18) . . ? 
C22A C21A C20A 125.6(3) . . ? 
C13B Si1B C17B 109.96(12) . . ? 
C13B Si1B C14B 107.12(11) . . ? 
C17B Si1B C14B 112.96(12) . . ? 
C13B Si1B C20B 107.66(11) . . ? 
C17B Si1B C20B 109.62(12) . . ? 
C14B Si1B C20B 109.35(12) . . ? 
C2B C1B C11B 121.8(2) . 2_666 ? 
C2B C1B C12B 119.2(2) . . ? 
C11B C1B C12B 119.0(2) 2_666 . ? 
C3B C2B C1B 122.1(2) . . ? 
C3B C2B C11B 118.6(2) . . ? 
C1B C2B C11B 119.4(2) . . ? 
C4B C3B C2B 122.1(2) . . ? 
C3B C4B C9B 119.6(2) . . ? 
C3B C4B C5B 121.3(2) . . ? 
C9B C4B C5B 119.1(2) . . ? 
C6B C5B C4B 119.8(2) . . ? 
C5B C6B C7B 121.6(2) . . ? 
C8B C7B C6B 120.3(2) . . ? 
C7B C8B C9B 120.3(2) . . ? 
C10B C9B C8B 121.8(2) . . ? 
C10B C9B C4B 119.3(2) . . ? 
C8B C9B C4B 118.9(2) . . ? 
C9B C10B C11B 121.8(2) . . ? 
C1B C11B C10B 122.5(2) 2_666 . ? 
C1B C11B C2B 118.8(2) 2_666 . ? 
C10B C11B C2B 118.7(2) . . ? 
C13B C12B C1B 178.5(3) . . ? 
C12B C13B Si1B 175.1(2) . . ? 
C15B C14B C16B 120.6(2) . . ? 
C15B C14B Si1B 120.5(2) . . ? 
C16B C14B Si1B 118.8(2) . . ? 
C18B C17B C19B 121.2(3) . . ? 
C18B C17B Si1B 120.5(2) . . ? 
C19B C17B Si1B 118.3(2) . . ? 
C21B C20B Si1B 111.64(18) . . ? 
C22B C21B C20B 126.1(3) . . ? 
C13A Si1A C14A 108.04(11) . . ? 
C13A Si1A C17A 109.44(11) . . ? 
C14A Si1A C17A 110.03(12) . . ? 
C13A Si1A C20A 106.13(11) . . ? 
C14A Si1A C20A 112.68(12) . . ? 
C17A Si1A C20A 110.38(12) . . ? 
 
loop_ 
 _geom_torsion_atom_site_label_1 
 _geom_torsion_atom_site_label_2 
 _geom_torsion_atom_site_label_3 
 _geom_torsion_atom_site_label_4 
 _geom_torsion 
 _geom_torsion_site_symmetry_1 
 _geom_torsion_site_symmetry_2 
 _geom_torsion_site_symmetry_3 
 _geom_torsion_site_symmetry_4 
 _geom_torsion_publ_flag 
C11A C1A C2A C3A 179.3(2) 2_675 . . . ? 
C12A C1A C2A C3A 0.0(4) . . . . ? 
C11A C1A C2A C11A -0.2(4) 2_675 . . . ? 
C12A C1A C2A C11A -179.6(2) . . . . ? 
C1A C2A C3A C4A -178.5(2) . . . . ? 
C11A C2A C3A C4A 1.1(4) . . . . ? 
C2A C3A C4A C9A -0.9(4) . . . . ? 
C2A C3A C4A C5A 178.6(2) . . . . ? 
C3A C4A C5A C6A -178.3(2) . . . . ? 
C9A C4A C5A C6A 1.2(4) . . . . ? 
C4A C5A C6A C7A -0.5(4) . . . . ? 
C5A C6A C7A C8A -0.2(4) . . . . ? 
C6A C7A C8A C9A 0.1(4) . . . . ? 
C3A C4A C9A C10A -0.5(3) . . . . ? 
C5A C4A C9A C10A 180.0(2) . . . . ? 
C3A C4A C9A C8A 178.3(2) . . . . ? 
C5A C4A C9A C8A -1.2(3) . . . . ? 
C7A C8A C9A C10A 179.4(2) . . . . ? 
C7A C8A C9A C4A 0.6(4) . . . . ? 
C4A C9A C10A C11A 1.8(4) . . . . ? 
C8A C9A C10A C11A -177.0(2) . . . . ? 
C9A C10A C11A C1A 177.9(2) . . . 2_675 ? 
C9A C10A C11A C2A -1.6(4) . . . . ? 
C1A C2A C11A C1A 0.2(4) . . . 2_675 ? 
C3A C2A C11A C1A -179.4(2) . . . 2_675 ? 
C1A C2A C11A C10A 179.7(2) . . . . ? 
C3A C2A C11A C10A 0.2(3) . . . . ? 
C2A C1A C12A C13A 38(6) . . . . ? 
C11A C1A C12A C13A -142(6) 2_675 . . . ? 
C1A C12A C13A Si1A 64(8) . . . . ? 
Si1A C20A C21A C22A 113.1(3) . . . . ? 
C11B C1B C2B C3B 178.6(2) 2_666 . . . ? 
C12B C1B C2B C3B -2.7(3) . . . . ? 
C11B C1B C2B C11B -0.5(4) 2_666 . . . ? 
C12B C1B C2B C11B 178.1(2) . . . . ? 
C1B C2B C3B C4B -178.9(2) . . . . ? 
C11B C2B C3B C4B 0.2(4) . . . . ? 
C2B C3B C4B C9B -1.6(4) . . . . ? 
C2B C3B C4B C5B 177.8(2) . . . . ? 
C3B C4B C5B C6B -179.8(2) . . . . ? 
C9B C4B C5B C6B -0.5(4) . . . . ? 
C4B C5B C6B C7B -0.3(4) . . . . ? 
C5B C6B C7B C8B 0.8(4) . . . . ? 
C6B C7B C8B C9B -0.4(4) . . . . ? 
C7B C8B C9B C10B 178.7(2) . . . . ? 
C7B C8B C9B C4B -0.4(4) . . . . ? 
C3B C4B C9B C10B 1.1(3) . . . . ? 
C5B C4B C9B C10B -178.3(2) . . . . ? 
C3B C4B C9B C8B -179.8(2) . . . . ? 
C5B C4B C9B C8B 0.8(3) . . . . ? 
C8B C9B C10B C11B -178.4(2) . . . . ? 
C4B C9B C10B C11B 0.7(4) . . . . ? 
C9B C10B C11B C1B 178.2(2) . . . 2_666 ? 
C9B C10B C11B C2B -2.0(4) . . . . ? 
C3B C2B C11B C1B -178.7(2) . . . 2_666 ? 
C1B C2B C11B C1B 0.5(4) . . . 2_666 ? 
C3B C2B C11B C10B 1.5(3) . . . . ? 
C1B C2B C11B C10B -179.3(2) . . . . ? 
C2B C1B C12B C13B -81(11) . . . . ? 
C11B C1B C12B C13B 98(11) 2_666 . . . ? 
C1B C12B C13B Si1B -56(12) . . . . ? 
C17B Si1B C13B C12B 146(3) . . . . ? 
C14B Si1B C13B C12B 23(3) . . . . ? 
C20B Si1B C13B C12B -94(3) . . . . ? 
C13B Si1B C14B C15B -18.6(3) . . . . ? 
C17B Si1B C14B C15B -139.9(2) . . . . ? 
C20B Si1B C14B C15B 97.8(2) . . . . ? 
C13B Si1B C14B C16B 164.2(2) . . . . ? 
C17B Si1B C14B C16B 43.0(3) . . . . ? 
C20B Si1B C14B C16B -79.4(2) . . . . ? 
C13B Si1B C17B C18B -18.9(3) . . . . ? 
C14B Si1B C17B C18B 100.7(2) . . . . ? 
C20B Si1B C17B C18B -137.1(2) . . . . ? 
C13B Si1B C17B C19B 159.7(2) . . . . ? 
C14B Si1B C17B C19B -80.7(2) . . . . ? 
C20B Si1B C17B C19B 41.5(2) . . . . ? 
C13B Si1B C20B C21B 52.7(2) . . . . ? 
C17B Si1B C20B C21B 172.34(18) . . . . ? 
C14B Si1B C20B C21B -63.3(2) . . . . ? 
Si1B C20B C21B C22B 104.4(3) . . . . ? 
C12A C13A Si1A C14A 144(3) . . . . ? 
C12A C13A Si1A C17A -96(3) . . . . ? 
C12A C13A Si1A C20A 23(3) . . . . ? 
C16A C14A Si1A C13A 128.4(2) . . . . ? 
C15A C14A Si1A C13A -50.7(3) . . . . ? 
C16A C14A Si1A C17A 9.0(3) . . . . ? 
C15A C14A Si1A C17A -170.1(2) . . . . ? 
C16A C14A Si1A C20A -114.7(2) . . . . ? 
C15A C14A Si1A C20A 66.2(3) . . . . ? 
C18A C17A Si1A C13A -33.1(2) . . . . ? 
C19A C17A Si1A C13A 148.1(2) . . . . ? 
C18A C17A Si1A C14A 85.5(2) . . . . ? 
C19A C17A Si1A C14A -93.3(3) . . . . ? 
C18A C17A Si1A C20A -149.5(2) . . . . ? 
C19A C17A Si1A C20A 31.7(3) . . . . ? 
C21A C20A Si1A C13A 51.7(2) . . . . ? 
C21A C20A Si1A C14A -66.4(2) . . . . ? 
C21A C20A Si1A C17A 170.18(18) . . . . ? 
 
_diffrn_measured_fraction_theta_max    0.996 
_diffrn_reflns_theta_full              27.47 
_diffrn_measured_fraction_theta_full   0.996 
_refine_diff_density_max    0.916 
_refine_diff_density_min   -0.372 
_refine_diff_density_rms    0.108 
