 
data_x07154 
 
_audit_creation_method            SHELXL-97 
_chemical_name_systematic 
; 
 ? 
; 
_chemical_name_common             ? 
_chemical_melting_point           ? 
_chemical_formula_moiety 
 'C40 H42 O4 Si2' 
_chemical_formula_sum 
 'C40 H42 O4 Si2' 
_chemical_formula_weight          642.92 
 
loop_ 
 _atom_type_symbol 
 _atom_type_description 
 _atom_type_scat_dispersion_real 
 _atom_type_scat_dispersion_imag 
 _atom_type_scat_source 
 'C'  'C'   0.0181   0.0091 
 'International Tables Vol C Tables 4.2.6.8 and 6.1.1.4' 
 'H'  'H'   0.0000   0.0000 
 'International Tables Vol C Tables 4.2.6.8 and 6.1.1.4' 
 'O'  'O'   0.0492   0.0322 
 'International Tables Vol C Tables 4.2.6.8 and 6.1.1.4' 
 'Si'  'Si'   0.2541   0.3302 
 'International Tables Vol C Tables 4.2.6.8 and 6.1.1.4' 
 
_symmetry_cell_setting            triclinic
_symmetry_space_group_name_H-M    'P -1'
_symmetry_space_group_name_Hall   '-P 1'
 
loop_ 
 _symmetry_equiv_pos_as_xyz 
 'x, y, z' 
 '-x, -y, -z' 
 
_cell_length_a                    8.0780(4) 
_cell_length_b                    14.5896(6) 
_cell_length_c                    16.0401(7) 
_cell_angle_alpha                 69.721(2) 
_cell_angle_beta                  79.347(2) 
_cell_angle_gamma                 88.957(2) 
_cell_volume                      1740.51(14) 
_cell_formula_units_Z             2 
_cell_measurement_temperature     120.0(2) 
_cell_measurement_reflns_used     9571
_cell_measurement_theta_min       3.0
_cell_measurement_theta_max       68.9
 
_exptl_crystal_description        lath
_exptl_crystal_colour             blue
_exptl_crystal_size_max           0.40 
_exptl_crystal_size_mid           0.08 
_exptl_crystal_size_min           0.02 
_exptl_crystal_density_meas       ? 
_exptl_crystal_density_diffrn     1.227 
_exptl_crystal_density_method     'not measured' 
_exptl_crystal_F_000              684 
_exptl_absorpt_coefficient_mu     1.239 
_exptl_absorpt_correction_type    multi-scan 
_exptl_absorpt_correction_T_min   0.647
_exptl_absorpt_correction_T_max   0.976
_exptl_absorpt_process_details    'Sadabs in APEX2 (BrukerAXS, 2006)' 
 
_exptl_special_details 
; 
Crystals shatter on cooling to 90K but ok at 120K.
; 
 
_diffrn_ambient_temperature       120.0(2) 
_diffrn_radiation_wavelength      1.54178 
_diffrn_radiation_type            CuK\a 
_diffrn_radiation_source          'fine-focus rotating anode' 
_diffrn_radiation_monochromator   'graded multilayer optics' 
_diffrn_measurement_device_type   'Bruker X8 Proteum diffractometer'
_diffrn_measurement_method        '\f and \w scans'            
_diffrn_detector_area_resol_mean  18
_diffrn_standards_number          0 
_diffrn_standards_interval_count  . 
_diffrn_standards_interval_time   . 
_diffrn_standards_decay_%         ? 
_diffrn_reflns_number             25435 
_diffrn_reflns_av_R_equivalents   0.0496 
_diffrn_reflns_av_sigmaI/netI     0.0409 
_diffrn_reflns_limit_h_min        -9 
_diffrn_reflns_limit_h_max        6 
_diffrn_reflns_limit_k_min        -17 
_diffrn_reflns_limit_k_max        17 
_diffrn_reflns_limit_l_min        -19 
_diffrn_reflns_limit_l_max        19 
_diffrn_reflns_theta_min          2.99 
_diffrn_reflns_theta_max          69.08 
_reflns_number_total              6310 
_reflns_number_gt                 5092 
_reflns_threshold_expression      >2\s(I)    
 
_computing_data_collection        'APEX2 (Bruker-AXS, 2006)'            
_computing_cell_refinement        'APEX2'            
_computing_data_reduction         'APEX2'            
_computing_structure_solution     'SHELXS-97 (Sheldrick, 1997)' 
_computing_structure_refinement   'SHELXL-97 (Sheldrick, 1997)' 
_computing_molecular_graphics     'XP in SHELXTL (Sheldrick, 1994)'
_computing_publication_material
; 
SHELX97-2 (Sheldrick, 1997) and local procedures 
; 

_publ_section_exptl_refinement
;
H atoms were found in difference Fourier maps and subsequently placed in
idealized positions with constrained C-H distances of 0.98 \%A (CH~3~), 
0.99 \%A (CH~2~) and 0.95 \%A (C~Ar~H) with U~iso~(H) values set to either 
1.5U~eq~ (CH~3~ only)  or 1.2U~eq~ of the attached C atom.
;

 
_refine_special_details 
; 
 Refinement of F^2^ against ALL reflections.  The weighted R-factor wR and 
 goodness of fit S are based on F^2^, conventional R-factors R are based 
 on F, with F set to zero for negative F^2^. The threshold expression of 
 F^2^ > 2\s(F^2^) is used only for calculating R-factors(gt) etc. and is 
 not relevant to the choice of reflections for refinement.  R-factors based 
 on F^2^ are statistically about twice as large as those based on F, and R- 
 factors based on ALL data will be even larger. 
; 
 
_refine_ls_structure_factor_coef  Fsqd  
_refine_ls_matrix_type            full 
_refine_ls_weighting_scheme       calc  
_refine_ls_weighting_details 
 'calc w=1/[\s^2^(Fo^2^)+(0.0586P)^2^+1.3686P] where P=(Fo^2^+2Fc^2^)/3' 
_atom_sites_solution_primary      direct 
_atom_sites_solution_secondary    difmap 
_atom_sites_solution_hydrogens    geom 
_refine_ls_hydrogen_treatment     constr 
_refine_ls_extinction_method      none 
_refine_ls_extinction_coef        ? 
_refine_ls_number_reflns          6310 
_refine_ls_number_parameters      421 
_refine_ls_number_restraints      0 
_refine_ls_R_factor_all           0.0622 
_refine_ls_R_factor_gt            0.0464 
_refine_ls_wR_factor_ref          0.1299 
_refine_ls_wR_factor_gt           0.1162 
_refine_ls_goodness_of_fit_ref    1.054 
_refine_ls_restrained_S_all       1.054 
_refine_ls_shift/su_max           0.001 
_refine_ls_shift/su_mean          0.000 
 
loop_ 
 _atom_site_label 
 _atom_site_type_symbol 
 _atom_site_fract_x 
 _atom_site_fract_y 
 _atom_site_fract_z 
 _atom_site_U_iso_or_equiv 
 _atom_site_adp_type 
 _atom_site_occupancy 
 _atom_site_symmetry_multiplicity 
 _atom_site_calc_flag 
 _atom_site_refinement_flags 
 _atom_site_disorder_assembly 
 _atom_site_disorder_group 
Si1A Si 0.22466(7) 0.92378(4) 0.38213(4) 0.02221(15) Uani 1 1 d . . . 
C1A C 0.4409(2) 0.97307(14) 0.09401(13) 0.0161(4) Uani 1 1 d . . . 
C2A C 0.3371(2) 1.02526(13) 0.03357(13) 0.0155(4) Uani 1 1 d . . . 
C3A C 0.1749(2) 1.05099(14) 0.06445(13) 0.0167(4) Uani 1 1 d . . . 
H3A H 0.1341 1.0316 0.1278 0.020 Uiso 1 1 calc R . . 
C4A C 0.0729(3) 1.10326(14) 0.00638(13) 0.0163(4) Uani 1 1 d . . . 
C5A C -0.0933(3) 1.12648(14) 0.04011(13) 0.0179(4) Uani 1 1 d . . . 
H5A H -0.1369 1.1067 0.1033 0.021 Uiso 1 1 calc R . . 
C6A C -0.1849(3) 1.17709(14) -0.02059(14) 0.0179(4) Uani 1 1 d . . . 
O7A O -0.34565(18) 1.20567(11) -0.00523(10) 0.0234(3) Uani 1 1 d . . . 
C8A C -0.3848(3) 1.26075(15) -0.09156(14) 0.0203(4) Uani 1 1 d . . . 
H8A1 H -0.4865 1.2312 -0.1005 0.024 Uiso 1 1 calc R . . 
H8A2 H -0.4071 1.3289 -0.0954 0.024 Uiso 1 1 calc R . . 
O9A O -0.24303(19) 1.25942(11) -0.15914(10) 0.0255(3) Uani 1 1 d . . . 
C10A C -0.1226(3) 1.20933(14) -0.11519(14) 0.0188(4) Uani 1 1 d . . . 
C11A C 0.0317(3) 1.19018(14) -0.15129(13) 0.0190(4) Uani 1 1 d . . . 
H11A H 0.0708 1.2130 -0.2150 0.023 Uiso 1 1 calc R . . 
C12A C 0.1352(3) 1.13403(14) -0.09024(13) 0.0170(4) Uani 1 1 d . . . 
C13A C 0.2927(3) 1.10735(14) -0.12097(13) 0.0173(4) Uani 1 1 d . . . 
H13A H 0.3324 1.1263 -0.1844 0.021 Uiso 1 1 calc R . . 
C14A C 0.3970(2) 1.05323(13) -0.06222(13) 0.0154(4) Uani 1 1 d . . . 
C15A C 0.3797(2) 0.94784(14) 0.18865(13) 0.0177(4) Uani 1 1 d . . . 
C16A C 0.3216(3) 0.93048(15) 0.26766(14) 0.0220(4) Uani 1 1 d . . . 
C17A C 0.1891(3) 0.79351(18) 0.45834(16) 0.0344(6) Uani 1 1 d . . . 
H17A H 0.1080 0.7607 0.4371 0.041 Uiso 1 1 calc R . . 
H17B H 0.2969 0.7605 0.4543 0.041 Uiso 1 1 calc R . . 
C18A C 0.1214(5) 0.7813(2) 0.55731(17) 0.0515(8) Uani 1 1 d . . . 
H18A H 0.2035 0.8107 0.5798 0.077 Uiso 1 1 calc R . . 
H18B H 0.1026 0.7115 0.5936 0.077 Uiso 1 1 calc R . . 
H18C H 0.0146 0.8138 0.5620 0.077 Uiso 1 1 calc R . . 
C19A C 0.3734(3) 0.98815(17) 0.42231(16) 0.0304(5) Uani 1 1 d . . . 
H19A H 0.3152 0.9953 0.4796 0.036 Uiso 1 1 calc R . . 
H19B H 0.4703 0.9467 0.4358 0.036 Uiso 1 1 calc R . . 
C20A C 0.4402(4) 1.08877(19) 0.35570(19) 0.0419(6) Uani 1 1 d . . . 
H20A H 0.4985 1.0828 0.2987 0.063 Uiso 1 1 calc R . . 
H20B H 0.5191 1.1166 0.3812 0.063 Uiso 1 1 calc R . . 
H20C H 0.3459 1.1317 0.3443 0.063 Uiso 1 1 calc R . . 
C21A C 0.0226(3) 0.9868(2) 0.37248(18) 0.0381(6) Uani 1 1 d . . . 
H21A H -0.0301 0.9887 0.4327 0.046 Uiso 1 1 calc R . . 
H21B H 0.0481 1.0553 0.3308 0.046 Uiso 1 1 calc R . . 
C22A C -0.1046(4) 0.9392(3) 0.3383(2) 0.0510(8) Uani 1 1 d . . . 
H22A H -0.0540 0.9369 0.2786 0.077 Uiso 1 1 calc R . . 
H22B H -0.2055 0.9775 0.3335 0.077 Uiso 1 1 calc R . . 
H22C H -0.1358 0.8725 0.3808 0.077 Uiso 1 1 calc R . . 
Si1B Si 0.28541(7) 0.49846(4) 0.36914(4) 0.01976(15) Uani 1 1 d . . . 
C1B C 0.4400(3) 0.48729(14) 0.09182(13) 0.0167(4) Uani 1 1 d . . . 
C2B C 0.3382(2) 0.53196(13) 0.02737(13) 0.0156(4) Uani 1 1 d . . . 
C3B C 0.1769(3) 0.56341(14) 0.05194(13) 0.0169(4) Uani 1 1 d . . . 
H3B H 0.1341 0.5524 0.1141 0.020 Uiso 1 1 calc R . . 
C4B C 0.0787(3) 0.60945(14) -0.01055(13) 0.0172(4) Uani 1 1 d . . . 
C5B C -0.0857(3) 0.64020(14) 0.01624(14) 0.0179(4) Uani 1 1 d . . . 
H5B H -0.1321 0.6286 0.0781 0.022 Uiso 1 1 calc R . . 
C6B C -0.1716(3) 0.68584(14) -0.04891(14) 0.0192(4) Uani 1 1 d . . . 
O7B O -0.32951(18) 0.72006(11) -0.04006(10) 0.0246(3) Uani 1 1 d . . . 
C8B C -0.3598(3) 0.76950(16) -0.12914(14) 0.0232(4) Uani 1 1 d . . . 
H8B1 H -0.3688 0.8404 -0.1404 0.028 Uiso 1 1 calc R . . 
H8B2 H -0.4667 0.7436 -0.1364 0.028 Uiso 1 1 calc R . . 
O9B O -0.2218(2) 0.75349(12) -0.19134(10) 0.0310(4) Uani 1 1 d . . . 
C10B C -0.1062(3) 0.70573(15) -0.14200(14) 0.0210(4) Uani 1 1 d . . . 
C11B C 0.0458(3) 0.67790(16) -0.17172(14) 0.0223(4) Uani 1 1 d . . . 
H11B H 0.0866 0.6912 -0.2344 0.027 Uiso 1 1 calc R . . 
C12B C 0.1443(3) 0.62734(14) -0.10532(13) 0.0177(4) Uani 1 1 d . . . 
C13B C 0.3001(3) 0.59411(14) -0.12968(13) 0.0187(4) Uani 1 1 d . . . 
H13B H 0.3413 0.6040 -0.1917 0.022 Uiso 1 1 calc R . . 
C14B C 0.4002(3) 0.54621(14) -0.06609(13) 0.0162(4) Uani 1 1 d . . . 
C15B C 0.3853(3) 0.48166(14) 0.18313(13) 0.0185(4) Uani 1 1 d . . . 
C16B C 0.3441(3) 0.48426(15) 0.25817(14) 0.0218(4) Uani 1 1 d . . . 
C17B C 0.2569(3) 0.37373(17) 0.45761(15) 0.0279(5) Uani 1 1 d . . . 
H17C H 0.2491 0.3801 0.5177 0.033 Uiso 1 1 calc R . . 
H17D H 0.1489 0.3430 0.4573 0.033 Uiso 1 1 calc R . . 
C18B C 0.3986(4) 0.30671(18) 0.44469(18) 0.0411(6) Uani 1 1 d . . . 
H18D H 0.4009 0.2952 0.3878 0.062 Uiso 1 1 calc R . . 
H18E H 0.3793 0.2442 0.4953 0.062 Uiso 1 1 calc R . . 
H18F H 0.5067 0.3376 0.4426 0.062 Uiso 1 1 calc R . . 
C19B C 0.4584(3) 0.56876(16) 0.38629(15) 0.0267(5) Uani 1 1 d . . . 
H19C H 0.4189 0.5833 0.4424 0.032 Uiso 1 1 calc R . . 
H19D H 0.5551 0.5263 0.3962 0.032 Uiso 1 1 calc R . . 
C20B C 0.5214(3) 0.66479(18) 0.30967(17) 0.0348(6) Uani 1 1 d . . . 
H20D H 0.5715 0.6512 0.2549 0.052 Uiso 1 1 calc R . . 
H20E H 0.6066 0.6976 0.3273 0.052 Uiso 1 1 calc R . . 
H20F H 0.4267 0.7072 0.2976 0.052 Uiso 1 1 calc R . . 
C21B C 0.0890(3) 0.56767(17) 0.36833(15) 0.0270(5) Uani 1 1 d . . . 
H21C H 0.0509 0.5719 0.4292 0.032 Uiso 1 1 calc R . . 
H21D H 0.1162 0.6352 0.3249 0.032 Uiso 1 1 calc R . . 
C22B C -0.0561(3) 0.5241(2) 0.3435(2) 0.0462(7) Uani 1 1 d . . . 
H22D H -0.0163 0.5115 0.2871 0.069 Uiso 1 1 calc R . . 
H22E H -0.1467 0.5701 0.3352 0.069 Uiso 1 1 calc R . . 
H22F H -0.0989 0.4626 0.3921 0.069 Uiso 1 1 calc R . . 
 
loop_ 
 _atom_site_aniso_label 
 _atom_site_aniso_U_11 
 _atom_site_aniso_U_22 
 _atom_site_aniso_U_33 
 _atom_site_aniso_U_23 
 _atom_site_aniso_U_13 
 _atom_site_aniso_U_12 
Si1A 0.0200(3) 0.0291(3) 0.0191(3) -0.0108(2) -0.0028(2) 0.0035(2) 
C1A 0.0151(10) 0.0155(9) 0.0190(9) -0.0077(7) -0.0025(8) -0.0012(7) 
C2A 0.0154(10) 0.0131(9) 0.0194(10) -0.0073(7) -0.0034(8) -0.0016(7) 
C3A 0.0157(10) 0.0175(9) 0.0174(9) -0.0076(8) -0.0013(7) -0.0007(7) 
C4A 0.0152(10) 0.0152(9) 0.0198(10) -0.0077(7) -0.0033(8) -0.0005(7) 
C5A 0.0165(10) 0.0186(10) 0.0199(10) -0.0089(8) -0.0023(8) 0.0004(8) 
C6A 0.0123(10) 0.0177(10) 0.0266(10) -0.0108(8) -0.0050(8) 0.0014(7) 
O7A 0.0144(8) 0.0302(8) 0.0242(7) -0.0082(6) -0.0038(6) 0.0070(6) 
C8A 0.0159(10) 0.0219(10) 0.0252(10) -0.0095(8) -0.0067(8) 0.0044(8) 
O9A 0.0176(8) 0.0341(8) 0.0229(7) -0.0071(6) -0.0058(6) 0.0110(6) 
C10A 0.0181(11) 0.0169(9) 0.0223(10) -0.0067(8) -0.0067(8) 0.0027(8) 
C11A 0.0173(11) 0.0210(10) 0.0189(10) -0.0068(8) -0.0041(8) 0.0024(8) 
C12A 0.0161(10) 0.0162(9) 0.0197(10) -0.0076(8) -0.0033(8) -0.0006(7) 
C13A 0.0173(11) 0.0168(9) 0.0191(10) -0.0075(8) -0.0039(8) -0.0005(8) 
C14A 0.0135(10) 0.0139(9) 0.0210(10) -0.0089(7) -0.0026(8) -0.0014(7) 
C15A 0.0131(10) 0.0191(10) 0.0223(11) -0.0083(8) -0.0050(8) 0.0029(7) 
C16A 0.0193(11) 0.0247(10) 0.0225(11) -0.0085(8) -0.0053(8) 0.0041(8) 
C17A 0.0408(15) 0.0363(13) 0.0256(12) -0.0117(10) -0.0031(10) -0.0042(11) 
C18A 0.082(2) 0.0440(16) 0.0232(13) -0.0087(11) 0.0009(13) -0.0218(15) 
C19A 0.0311(13) 0.0344(12) 0.0289(12) -0.0126(10) -0.0110(10) 0.0025(10) 
C20A 0.0490(17) 0.0345(14) 0.0464(15) -0.0123(12) -0.0221(13) -0.0034(12) 
C21A 0.0286(14) 0.0558(16) 0.0362(13) -0.0250(12) -0.0053(10) 0.0151(12) 
C22A 0.0249(15) 0.081(2) 0.0483(16) -0.0236(15) -0.0090(12) 0.0037(14) 
Si1B 0.0170(3) 0.0253(3) 0.0177(3) -0.0090(2) -0.0024(2) 0.0036(2) 
C1B 0.0172(10) 0.0155(9) 0.0179(9) -0.0073(8) -0.0018(8) -0.0001(8) 
C2B 0.0151(10) 0.0142(9) 0.0192(10) -0.0080(7) -0.0032(8) 0.0001(7) 
C3B 0.0166(10) 0.0174(9) 0.0188(9) -0.0092(8) -0.0026(8) -0.0002(8) 
C4B 0.0156(10) 0.0161(9) 0.0217(10) -0.0088(8) -0.0037(8) -0.0004(8) 
C5B 0.0139(10) 0.0202(10) 0.0207(10) -0.0093(8) -0.0019(8) 0.0009(8) 
C6B 0.0135(10) 0.0181(10) 0.0273(11) -0.0101(8) -0.0032(8) 0.0017(8) 
O7B 0.0147(8) 0.0333(8) 0.0262(8) -0.0103(6) -0.0053(6) 0.0083(6) 
C8B 0.0163(11) 0.0249(11) 0.0291(11) -0.0094(9) -0.0062(8) 0.0066(8) 
O9B 0.0204(8) 0.0448(10) 0.0266(8) -0.0099(7) -0.0080(6) 0.0154(7) 
C10B 0.0182(11) 0.0219(10) 0.0239(10) -0.0075(8) -0.0077(8) 0.0044(8) 
C11B 0.0191(11) 0.0283(11) 0.0198(10) -0.0083(8) -0.0048(8) 0.0056(8) 
C12B 0.0145(10) 0.0187(10) 0.0208(10) -0.0077(8) -0.0041(8) 0.0008(8) 
C13B 0.0183(11) 0.0209(10) 0.0178(10) -0.0081(8) -0.0028(8) 0.0008(8) 
C14B 0.0143(10) 0.0165(9) 0.0195(10) -0.0086(8) -0.0029(8) -0.0002(7) 
C15B 0.0137(10) 0.0215(10) 0.0215(11) -0.0086(8) -0.0044(8) 0.0039(8) 
C16B 0.0171(11) 0.0250(11) 0.0237(11) -0.0083(8) -0.0055(8) 0.0052(8) 
C17B 0.0262(12) 0.0312(12) 0.0244(11) -0.0090(9) -0.0019(9) 0.0015(9) 
C18B 0.0490(17) 0.0305(13) 0.0393(14) -0.0086(11) -0.0053(12) 0.0117(12) 
C19B 0.0263(12) 0.0308(12) 0.0242(11) -0.0085(9) -0.0096(9) 0.0015(9) 
C20B 0.0315(14) 0.0331(13) 0.0361(13) -0.0047(10) -0.0114(10) -0.0045(10) 
C21B 0.0218(12) 0.0308(12) 0.0249(11) -0.0079(9) 0.0004(9) 0.0073(9) 
C22B 0.0236(14) 0.0650(19) 0.0572(18) -0.0287(15) -0.0119(12) 0.0164(13) 
 
_geom_special_details 
; 
 All esds (except the esd in the dihedral angle between two l.s. planes) 
 are estimated using the full covariance matrix.  The cell esds are taken 
 into account individually in the estimation of esds in distances, angles 
 and torsion angles; correlations between esds in cell parameters are only 
 used when they are defined by crystal symmetry.  An approximate (isotropic) 
 treatment of cell esds is used for estimating esds involving l.s. planes. 
; 
 
loop_ 
 _geom_bond_atom_site_label_1 
 _geom_bond_atom_site_label_2 
 _geom_bond_distance 
 _geom_bond_site_symmetry_2 
 _geom_bond_publ_flag 
Si1A C16A 1.828(2) . ? 
Si1A C17A 1.863(3) . ? 
Si1A C21A 1.863(3) . ? 
Si1A C19A 1.867(2) . ? 
C1A C2A 1.410(3) . ? 
C1A C14A 1.412(3) 2_675 ? 
C1A C15A 1.423(3) . ? 
C2A C3A 1.405(3) . ? 
C2A C14A 1.435(3) . ? 
C3A C4A 1.377(3) . ? 
C3A H3A 0.9500 . ? 
C4A C5A 1.433(3) . ? 
C4A C12A 1.447(3) . ? 
C5A C6A 1.337(3) . ? 
C5A H5A 0.9500 . ? 
C6A O7A 1.362(2) . ? 
C6A C10A 1.417(3) . ? 
O7A C8A 1.430(2) . ? 
C8A O9A 1.429(3) . ? 
C8A H8A1 0.9900 . ? 
C8A H8A2 0.9900 . ? 
O9A C10A 1.359(2) . ? 
C10A C11A 1.341(3) . ? 
C11A C12A 1.432(3) . ? 
C11A H11A 0.9500 . ? 
C12A C13A 1.377(3) . ? 
C13A C14A 1.405(3) . ? 
C13A H13A 0.9500 . ? 
C14A C1A 1.412(3) 2_675 ? 
C15A C16A 1.205(3) . ? 
C17A C18A 1.529(3) . ? 
C17A H17A 0.9900 . ? 
C17A H17B 0.9900 . ? 
C18A H18A 0.9800 . ? 
C18A H18B 0.9800 . ? 
C18A H18C 0.9800 . ? 
C19A C20A 1.522(3) . ? 
C19A H19A 0.9900 . ? 
C19A H19B 0.9900 . ? 
C20A H20A 0.9800 . ? 
C20A H20B 0.9800 . ? 
C20A H20C 0.9800 . ? 
C21A C22A 1.529(4) . ? 
C21A H21A 0.9900 . ? 
C21A H21B 0.9900 . ? 
C22A H22A 0.9800 . ? 
C22A H22B 0.9800 . ? 
C22A H22C 0.9800 . ? 
Si1B C16B 1.837(2) . ? 
Si1B C19B 1.863(2) . ? 
Si1B C21B 1.865(2) . ? 
Si1B C17B 1.866(2) . ? 
C1B C14B 1.413(3) 2_665 ? 
C1B C2B 1.414(3) . ? 
C1B C15B 1.423(3) . ? 
C2B C3B 1.406(3) . ? 
C2B C14B 1.432(3) . ? 
C3B C4B 1.376(3) . ? 
C3B H3B 0.9500 . ? 
C4B C5B 1.432(3) . ? 
C4B C12B 1.446(3) . ? 
C5B C6B 1.336(3) . ? 
C5B H5B 0.9500 . ? 
C6B O7B 1.362(2) . ? 
C6B C10B 1.417(3) . ? 
O7B C8B 1.425(3) . ? 
C8B O9B 1.426(3) . ? 
C8B H8B1 0.9900 . ? 
C8B H8B2 0.9900 . ? 
O9B C10B 1.361(3) . ? 
C10B C11B 1.341(3) . ? 
C11B C12B 1.435(3) . ? 
C11B H11B 0.9500 . ? 
C12B C13B 1.378(3) . ? 
C13B C14B 1.405(3) . ? 
C13B H13B 0.9500 . ? 
C14B C1B 1.413(3) 2_665 ? 
C15B C16B 1.202(3) . ? 
C17B C18B 1.523(3) . ? 
C17B H17C 0.9900 . ? 
C17B H17D 0.9900 . ? 
C18B H18D 0.9800 . ? 
C18B H18E 0.9800 . ? 
C18B H18F 0.9800 . ? 
C19B C20B 1.528(3) . ? 
C19B H19C 0.9900 . ? 
C19B H19D 0.9900 . ? 
C20B H20D 0.9800 . ? 
C20B H20E 0.9800 . ? 
C20B H20F 0.9800 . ? 
C21B C22B 1.521(4) . ? 
C21B H21C 0.9900 . ? 
C21B H21D 0.9900 . ? 
C22B H22D 0.9800 . ? 
C22B H22E 0.9800 . ? 
C22B H22F 0.9800 . ? 
 
loop_ 
 _geom_angle_atom_site_label_1 
 _geom_angle_atom_site_label_2 
 _geom_angle_atom_site_label_3 
 _geom_angle 
 _geom_angle_site_symmetry_1 
 _geom_angle_site_symmetry_3 
 _geom_angle_publ_flag 
C16A Si1A C17A 109.87(10) . . ? 
C16A Si1A C21A 106.23(11) . . ? 
C17A Si1A C21A 111.74(13) . . ? 
C16A Si1A C19A 107.49(11) . . ? 
C17A Si1A C19A 109.80(11) . . ? 
C21A Si1A C19A 111.55(12) . . ? 
C2A C1A C14A 121.27(18) . 2_675 ? 
C2A C1A C15A 118.63(18) . . ? 
C14A C1A C15A 120.09(18) 2_675 . ? 
C3A C2A C1A 121.76(18) . . ? 
C3A C2A C14A 118.49(18) . . ? 
C1A C2A C14A 119.75(18) . . ? 
C4A C3A C2A 122.54(18) . . ? 
C4A C3A H3A 118.7 . . ? 
C2A C3A H3A 118.7 . . ? 
C3A C4A C5A 121.13(18) . . ? 
C3A C4A C12A 118.99(18) . . ? 
C5A C4A C12A 119.88(18) . . ? 
C6A C5A C4A 117.53(18) . . ? 
C6A C5A H5A 121.2 . . ? 
C4A C5A H5A 121.2 . . ? 
C5A C6A O7A 128.26(19) . . ? 
C5A C6A C10A 122.68(19) . . ? 
O7A C6A C10A 109.06(17) . . ? 
C6A O7A C8A 107.01(15) . . ? 
O9A C8A O7A 107.60(16) . . ? 
O9A C8A H8A1 110.2 . . ? 
O7A C8A H8A1 110.2 . . ? 
O9A C8A H8A2 110.2 . . ? 
O7A C8A H8A2 110.2 . . ? 
H8A1 C8A H8A2 108.5 . . ? 
C10A O9A C8A 107.14(15) . . ? 
C11A C10A O9A 128.03(19) . . ? 
C11A C10A C6A 122.86(18) . . ? 
O9A C10A C6A 109.11(17) . . ? 
C10A C11A C12A 117.49(19) . . ? 
C10A C11A H11A 121.3 . . ? 
C12A C11A H11A 121.3 . . ? 
C13A C12A C11A 121.73(18) . . ? 
C13A C12A C4A 118.76(18) . . ? 
C11A C12A C4A 119.51(18) . . ? 
C12A C13A C14A 122.61(19) . . ? 
C12A C13A H13A 118.7 . . ? 
C14A C13A H13A 118.7 . . ? 
C13A C14A C1A 122.44(18) . 2_675 ? 
C13A C14A C2A 118.57(18) . . ? 
C1A C14A C2A 118.98(18) 2_675 . ? 
C16A C15A C1A 176.3(2) . . ? 
C15A C16A Si1A 171.20(19) . . ? 
C18A C17A Si1A 113.32(18) . . ? 
C18A C17A H17A 108.9 . . ? 
Si1A C17A H17A 108.9 . . ? 
C18A C17A H17B 108.9 . . ? 
Si1A C17A H17B 108.9 . . ? 
H17A C17A H17B 107.7 . . ? 
C17A C18A H18A 109.5 . . ? 
C17A C18A H18B 109.5 . . ? 
H18A C18A H18B 109.5 . . ? 
C17A C18A H18C 109.5 . . ? 
H18A C18A H18C 109.5 . . ? 
H18B C18A H18C 109.5 . . ? 
C20A C19A Si1A 114.68(17) . . ? 
C20A C19A H19A 108.6 . . ? 
Si1A C19A H19A 108.6 . . ? 
C20A C19A H19B 108.6 . . ? 
Si1A C19A H19B 108.6 . . ? 
H19A C19A H19B 107.6 . . ? 
C19A C20A H20A 109.5 . . ? 
C19A C20A H20B 109.5 . . ? 
H20A C20A H20B 109.5 . . ? 
C19A C20A H20C 109.5 . . ? 
H20A C20A H20C 109.5 . . ? 
H20B C20A H20C 109.5 . . ? 
C22A C21A Si1A 114.54(19) . . ? 
C22A C21A H21A 108.6 . . ? 
Si1A C21A H21A 108.6 . . ? 
C22A C21A H21B 108.6 . . ? 
Si1A C21A H21B 108.6 . . ? 
H21A C21A H21B 107.6 . . ? 
C21A C22A H22A 109.5 . . ? 
C21A C22A H22B 109.5 . . ? 
H22A C22A H22B 109.5 . . ? 
C21A C22A H22C 109.5 . . ? 
H22A C22A H22C 109.5 . . ? 
H22B C22A H22C 109.5 . . ? 
C16B Si1B C19B 109.19(10) . . ? 
C16B Si1B C21B 107.39(10) . . ? 
C19B Si1B C21B 109.87(11) . . ? 
C16B Si1B C17B 107.87(10) . . ? 
C19B Si1B C17B 109.54(10) . . ? 
C21B Si1B C17B 112.88(10) . . ? 
C14B C1B C2B 121.16(18) 2_665 . ? 
C14B C1B C15B 119.37(18) 2_665 . ? 
C2B C1B C15B 119.34(18) . . ? 
C3B C2B C1B 122.05(18) . . ? 
C3B C2B C14B 118.51(18) . . ? 
C1B C2B C14B 119.44(18) . . ? 
C4B C3B C2B 122.51(18) . . ? 
C4B C3B H3B 118.7 . . ? 
C2B C3B H3B 118.7 . . ? 
C3B C4B C5B 121.47(18) . . ? 
C3B C4B C12B 118.91(18) . . ? 
C5B C4B C12B 119.61(18) . . ? 
C6B C5B C4B 117.63(19) . . ? 
C6B C5B H5B 121.2 . . ? 
C4B C5B H5B 121.2 . . ? 
C5B C6B O7B 128.27(19) . . ? 
C5B C6B C10B 122.95(19) . . ? 
O7B C6B C10B 108.78(17) . . ? 
C6B O7B C8B 107.06(16) . . ? 
O7B C8B O9B 107.66(16) . . ? 
O7B C8B H8B1 110.2 . . ? 
O9B C8B H8B1 110.2 . . ? 
O7B C8B H8B2 110.2 . . ? 
O9B C8B H8B2 110.2 . . ? 
H8B1 C8B H8B2 108.5 . . ? 
C10B O9B C8B 106.90(16) . . ? 
C11B C10B O9B 128.3(2) . . ? 
C11B C10B C6B 122.55(19) . . ? 
O9B C10B C6B 109.15(18) . . ? 
C10B C11B C12B 117.54(19) . . ? 
C10B C11B H11B 121.2 . . ? 
C12B C11B H11B 121.2 . . ? 
C13B C12B C11B 121.41(18) . . ? 
C13B C12B C4B 118.91(18) . . ? 
C11B C12B C4B 119.68(18) . . ? 
C12B C13B C14B 122.40(18) . . ? 
C12B C13B H13B 118.8 . . ? 
C14B C13B H13B 118.8 . . ? 
C13B C14B C1B 121.94(18) . 2_665 ? 
C13B C14B C2B 118.68(18) . . ? 
C1B C14B C2B 119.37(18) 2_665 . ? 
C16B C15B C1B 174.9(2) . . ? 
C15B C16B Si1B 175.55(19) . . ? 
C18B C17B Si1B 113.79(17) . . ? 
C18B C17B H17C 108.8 . . ? 
Si1B C17B H17C 108.8 . . ? 
C18B C17B H17D 108.8 . . ? 
Si1B C17B H17D 108.8 . . ? 
H17C C17B H17D 107.7 . . ? 
C17B C18B H18D 109.5 . . ? 
C17B C18B H18E 109.5 . . ? 
H18D C18B H18E 109.5 . . ? 
C17B C18B H18F 109.5 . . ? 
H18D C18B H18F 109.5 . . ? 
H18E C18B H18F 109.5 . . ? 
C20B C19B Si1B 116.30(16) . . ? 
C20B C19B H19C 108.2 . . ? 
Si1B C19B H19C 108.2 . . ? 
C20B C19B H19D 108.2 . . ? 
Si1B C19B H19D 108.2 . . ? 
H19C C19B H19D 107.4 . . ? 
C19B C20B H20D 109.5 . . ? 
C19B C20B H20E 109.5 . . ? 
H20D C20B H20E 109.5 . . ? 
C19B C20B H20F 109.5 . . ? 
H20D C20B H20F 109.5 . . ? 
H20E C20B H20F 109.5 . . ? 
C22B C21B Si1B 115.10(17) . . ? 
C22B C21B H21C 108.5 . . ? 
Si1B C21B H21C 108.5 . . ? 
C22B C21B H21D 108.5 . . ? 
Si1B C21B H21D 108.5 . . ? 
H21C C21B H21D 107.5 . . ? 
C21B C22B H22D 109.5 . . ? 
C21B C22B H22E 109.5 . . ? 
H22D C22B H22E 109.5 . . ? 
C21B C22B H22F 109.5 . . ? 
H22D C22B H22F 109.5 . . ? 
H22E C22B H22F 109.5 . . ? 
 
loop_ 
 _geom_torsion_atom_site_label_1 
 _geom_torsion_atom_site_label_2 
 _geom_torsion_atom_site_label_3 
 _geom_torsion_atom_site_label_4 
 _geom_torsion 
 _geom_torsion_site_symmetry_1 
 _geom_torsion_site_symmetry_2 
 _geom_torsion_site_symmetry_3 
 _geom_torsion_site_symmetry_4 
 _geom_torsion_publ_flag 
C14A C1A C2A C3A 179.38(17) 2_675 . . . ? 
C15A C1A C2A C3A -1.2(3) . . . . ? 
C14A C1A C2A C14A -0.6(3) 2_675 . . . ? 
C15A C1A C2A C14A 178.81(17) . . . . ? 
C1A C2A C3A C4A 178.96(18) . . . . ? 
C14A C2A C3A C4A -1.1(3) . . . . ? 
C2A C3A C4A C5A 178.62(17) . . . . ? 
C2A C3A C4A C12A -0.7(3) . . . . ? 
C3A C4A C5A C6A -179.72(18) . . . . ? 
C12A C4A C5A C6A -0.4(3) . . . . ? 
C4A C5A C6A O7A 178.47(18) . . . . ? 
C4A C5A C6A C10A -1.2(3) . . . . ? 
C5A C6A O7A C8A 178.0(2) . . . . ? 
C10A C6A O7A C8A -2.3(2) . . . . ? 
C6A O7A C8A O9A 2.8(2) . . . . ? 
O7A C8A O9A C10A -2.3(2) . . . . ? 
C8A O9A C10A C11A -179.7(2) . . . . ? 
C8A O9A C10A C6A 0.8(2) . . . . ? 
C5A C6A C10A C11A 1.2(3) . . . . ? 
O7A C6A C10A C11A -178.50(19) . . . . ? 
C5A C6A C10A O9A -179.32(18) . . . . ? 
O7A C6A C10A O9A 1.0(2) . . . . ? 
O9A C10A C11A C12A -178.94(19) . . . . ? 
C6A C10A C11A C12A 0.4(3) . . . . ? 
C10A C11A C12A C13A 177.36(18) . . . . ? 
C10A C11A C12A C4A -1.9(3) . . . . ? 
C3A C4A C12A C13A 2.0(3) . . . . ? 
C5A C4A C12A C13A -177.36(18) . . . . ? 
C3A C4A C12A C11A -178.71(18) . . . . ? 
C5A C4A C12A C11A 1.9(3) . . . . ? 
C11A C12A C13A C14A 179.28(18) . . . . ? 
C4A C12A C13A C14A -1.4(3) . . . . ? 
C12A C13A C14A C1A -179.30(18) . . . 2_675 ? 
C12A C13A C14A C2A -0.4(3) . . . . ? 
C3A C2A C14A C13A 1.7(3) . . . . ? 
C1A C2A C14A C13A -178.40(17) . . . . ? 
C3A C2A C14A C1A -179.39(17) . . . 2_675 ? 
C1A C2A C14A C1A 0.6(3) . . . 2_675 ? 
C16A Si1A C17A C18A 175.3(2) . . . . ? 
C21A Si1A C17A C18A -67.0(2) . . . . ? 
C19A Si1A C17A C18A 57.3(2) . . . . ? 
C16A Si1A C19A C20A 48.7(2) . . . . ? 
C17A Si1A C19A C20A 168.22(19) . . . . ? 
C21A Si1A C19A C20A -67.3(2) . . . . ? 
C16A Si1A C21A C22A 62.2(2) . . . . ? 
C17A Si1A C21A C22A -57.7(2) . . . . ? 
C19A Si1A C21A C22A 178.99(19) . . . . ? 
C14B C1B C2B C3B 178.24(17) 2_665 . . . ? 
C15B C1B C2B C3B -5.8(3) . . . . ? 
C14B C1B C2B C14B -1.9(3) 2_665 . . . ? 
C15B C1B C2B C14B 174.01(18) . . . . ? 
C1B C2B C3B C4B 178.11(18) . . . . ? 
C14B C2B C3B C4B -1.7(3) . . . . ? 
C2B C3B C4B C5B 179.55(18) . . . . ? 
C2B C3B C4B C12B -0.7(3) . . . . ? 
C3B C4B C5B C6B 178.92(18) . . . . ? 
C12B C4B C5B C6B -0.8(3) . . . . ? 
C4B C5B C6B O7B 178.84(18) . . . . ? 
C4B C5B C6B C10B -0.8(3) . . . . ? 
C5B C6B O7B C8B 175.6(2) . . . . ? 
C10B C6B O7B C8B -4.7(2) . . . . ? 
C6B O7B C8B O9B 6.7(2) . . . . ? 
O7B C8B O9B C10B -6.2(2) . . . . ? 
C8B O9B C10B C11B -177.9(2) . . . . ? 
C8B O9B C10B C6B 3.3(2) . . . . ? 
C5B C6B C10B C11B 1.8(3) . . . . ? 
O7B C6B C10B C11B -177.96(19) . . . . ? 
C5B C6B C10B O9B -179.40(19) . . . . ? 
O7B C6B C10B O9B 0.9(2) . . . . ? 
O9B C10B C11B C12B -179.5(2) . . . . ? 
C6B C10B C11B C12B -0.9(3) . . . . ? 
C10B C11B C12B C13B 178.46(19) . . . . ? 
C10B C11B C12B C4B -0.7(3) . . . . ? 
C3B C4B C12B C13B 2.7(3) . . . . ? 
C5B C4B C12B C13B -177.62(18) . . . . ? 
C3B C4B C12B C11B -178.14(18) . . . . ? 
C5B C4B C12B C11B 1.6(3) . . . . ? 
C11B C12B C13B C14B 178.69(19) . . . . ? 
C4B C12B C13B C14B -2.1(3) . . . . ? 
C12B C13B C14B C1B -179.79(18) . . . 2_665 ? 
C12B C13B C14B C2B -0.3(3) . . . . ? 
C3B C2B C14B C13B 2.3(3) . . . . ? 
C1B C2B C14B C13B -177.57(17) . . . . ? 
C3B C2B C14B C1B -178.27(17) . . . 2_665 ? 
C1B C2B C14B C1B 1.9(3) . . . 2_665 ? 
C16B Si1B C17B C18B 46.7(2) . . . . ? 
C19B Si1B C17B C18B -72.0(2) . . . . ? 
C21B Si1B C17B C18B 165.22(18) . . . . ? 
C16B Si1B C19B C20B 50.7(2) . . . . ? 
C21B Si1B C19B C20B -66.9(2) . . . . ? 
C17B Si1B C19B C20B 168.58(18) . . . . ? 
C16B Si1B C21B C22B 54.3(2) . . . . ? 
C19B Si1B C21B C22B 172.91(18) . . . . ? 
C17B Si1B C21B C22B -64.5(2) . . . . ? 
 
_diffrn_measured_fraction_theta_max    0.974 
_diffrn_reflns_theta_full              69.08 
_diffrn_measured_fraction_theta_full   0.974 
_refine_diff_density_max    0.427 
_refine_diff_density_min   -0.268 
_refine_diff_density_rms    0.063 
