 
data_x08135 
 
_audit_creation_method            SHELXL-97 
_chemical_name_systematic 
; 
 ? 
; 
_chemical_name_common             ? 
_chemical_melting_point           ? 
_chemical_formula_moiety 
 'C38 H34 F8 Si2' 
_chemical_formula_sum 
 'C38 H34 F8 Si2' 
_chemical_formula_weight          698.83 
 
loop_ 
 _atom_type_symbol 
 _atom_type_description 
 _atom_type_scat_dispersion_real 
 _atom_type_scat_dispersion_imag 
 _atom_type_scat_source 
 'C'  'C'   0.0181   0.0091 
 'International Tables Vol C Tables 4.2.6.8 and 6.1.1.4' 
 'H'  'H'   0.0000   0.0000 
 'International Tables Vol C Tables 4.2.6.8 and 6.1.1.4' 
 'F'  'F'   0.0727   0.0534 
 'International Tables Vol C Tables 4.2.6.8 and 6.1.1.4' 
 'Si'  'Si'   0.2541   0.3302 
 'International Tables Vol C Tables 4.2.6.8 and 6.1.1.4' 
 
_symmetry_cell_setting            triclinic
_symmetry_space_group_name_H-M    'P -1'
_symmetry_space_group_name_Hall   '-P 1'
 
loop_ 
 _symmetry_equiv_pos_as_xyz 
 'x, y, z' 
 '-x, -y, -z' 
 
_cell_length_a                    11.5502(6) 
_cell_length_b                    11.6710(6) 
_cell_length_c                    13.6657(7) 
_cell_angle_alpha                 66.252(2) 
_cell_angle_beta                  83.719(2) 
_cell_angle_gamma                 79.414(2) 
_cell_volume                      1656.20(15) 
_cell_formula_units_Z             2 
_cell_measurement_temperature     90.0(2) 
_cell_measurement_reflns_used     9936
_cell_measurement_theta_min       3.54
_cell_measurement_theta_max       68.94
 
_exptl_crystal_description        needle
_exptl_crystal_colour             blue
_exptl_crystal_size_max           0.46 
_exptl_crystal_size_mid           0.04 
_exptl_crystal_size_min           0.03 
_exptl_crystal_density_meas       ? 
_exptl_crystal_density_diffrn     1.401 
_exptl_crystal_density_method     'not measured' 
_exptl_crystal_F_000              724 
_exptl_absorpt_coefficient_mu     1.614 
_exptl_absorpt_correction_type    multi-scan 
_exptl_absorpt_correction_T_min   0.563
_exptl_absorpt_correction_T_max   0.953 
_exptl_absorpt_process_details    'Sadabs in APEX2 (BrukerAXS, 2006)' 
 
_exptl_special_details 
; 
 ? 
; 
 
_diffrn_ambient_temperature       90.0(2) 
_diffrn_radiation_wavelength      1.54178 
_diffrn_radiation_type            CuK\a 
_diffrn_radiation_source          'fine-focus rotating anode' 
_diffrn_radiation_monochromator   'graded multilayer optics' 
_diffrn_measurement_device_type   'Bruker X8 Proteum diffractometer'
_diffrn_measurement_method        '\f and \w scans'            
_diffrn_detector_area_resol_mean  18
_diffrn_standards_number          0 
_diffrn_standards_interval_count  . 
_diffrn_standards_interval_time   . 
_diffrn_standards_decay_%         ? 
_diffrn_reflns_number             24152 
_diffrn_reflns_av_R_equivalents   0.0417 
_diffrn_reflns_av_sigmaI/netI     0.0343 
_diffrn_reflns_limit_h_min        -13 
_diffrn_reflns_limit_h_max        13 
_diffrn_reflns_limit_k_min        -14 
_diffrn_reflns_limit_k_max        14 
_diffrn_reflns_limit_l_min        -16 
_diffrn_reflns_limit_l_max        12 
_diffrn_reflns_theta_min          3.54 
_diffrn_reflns_theta_max          68.99 
_reflns_number_total              6051 
_reflns_number_gt                 5220 
_reflns_threshold_expression      >2\s(I)    
 
_computing_data_collection        'APEX2 (Bruker-AXS, 2006)'            
_computing_cell_refinement        'APEX2'            
_computing_data_reduction         'APEX2'            
_computing_structure_solution     'SHELXS-97 (Sheldrick, 2008)' 
_computing_structure_refinement   'SHELXL-97 (Sheldrick, 2008)' 
_computing_molecular_graphics     'XP in SHELXTL (Sheldrick, 2008)'
_computing_publication_material
; 
SHELX97-2 (Sheldrick, 2008) and local procedures 
; 

_publ_section_exptl_refinement
;
H atoms were found in difference Fourier maps and subsequently placed in
idealized positions with constrained distances of 
0.98 \%A (RCH~3~),
0.99 \%A (R~2~CH~2~),
0.95 \%A (C~Ar~H),
and with U~iso~(H) values set to either 1.2U~eq~ or 1.5U~eq~ (RCH~3~) 
of the attached atom. 
;

 
_refine_special_details 
; 
 Refinement of F^2^ against ALL reflections.  The weighted R-factor wR and 
 goodness of fit S are based on F^2^, conventional R-factors R are based 
 on F, with F set to zero for negative F^2^. The threshold expression of 
 F^2^ > 2\s(F^2^) is used only for calculating R-factors(gt) etc. and is 
 not relevant to the choice of reflections for refinement.  R-factors based 
 on F^2^ are statistically about twice as large as those based on F, and R- 
 factors based on ALL data will be even larger. 
; 
 
_refine_ls_structure_factor_coef  Fsqd  
_refine_ls_matrix_type            full 
_refine_ls_weighting_scheme       calc  
_refine_ls_weighting_details 
 'calc w=1/[\s^2^(Fo^2^)+(0.0558P)^2^+0.7485P] where P=(Fo^2^+2Fc^2^)/3' 
_atom_sites_solution_primary      direct 
_atom_sites_solution_secondary    difmap 
_atom_sites_solution_hydrogens    geom 
_refine_ls_hydrogen_treatment     constr 
_refine_ls_extinction_method      none 
_refine_ls_extinction_coef        ? 
_refine_ls_number_reflns          6051 
_refine_ls_number_parameters      439 
_refine_ls_number_restraints      0 
_refine_ls_R_factor_all           0.0433 
_refine_ls_R_factor_gt            0.0360 
_refine_ls_wR_factor_ref          0.1027 
_refine_ls_wR_factor_gt           0.0949 
_refine_ls_goodness_of_fit_ref    1.040 
_refine_ls_restrained_S_all       1.040 
_refine_ls_shift/su_max           0.001 
_refine_ls_shift/su_mean          0.000 
 
loop_ 
 _atom_site_label 
 _atom_site_type_symbol 
 _atom_site_fract_x 
 _atom_site_fract_y 
 _atom_site_fract_z 
 _atom_site_U_iso_or_equiv 
 _atom_site_adp_type 
 _atom_site_occupancy 
 _atom_site_symmetry_multiplicity 
 _atom_site_calc_flag 
 _atom_site_refinement_flags 
 _atom_site_disorder_assembly 
 _atom_site_disorder_group 
Si1 Si 0.13246(3) 0.17048(4) 0.31995(3) 0.01520(11) Uani 1 1 d . . . 
Si2 Si 0.90414(4) 0.74531(4) 0.20501(3) 0.01745(12) Uani 1 1 d . . . 
F1 F 0.38415(8) 0.13946(8) 0.67504(7) 0.0219(2) Uani 1 1 d . . . 
F2 F 0.51771(9) 0.09598(9) 0.84171(7) 0.0260(2) Uani 1 1 d . . . 
F3 F 0.70857(9) 0.20652(9) 0.81177(8) 0.0268(2) Uani 1 1 d . . . 
F4 F 0.76825(8) 0.37462(9) 0.61563(7) 0.0232(2) Uani 1 1 d . . . 
F5 F 0.60345(8) 0.84175(9) -0.14368(7) 0.0229(2) Uani 1 1 d . . . 
F6 F 0.47243(9) 0.88803(9) -0.31304(7) 0.0251(2) Uani 1 1 d . . . 
F7 F 0.28624(8) 0.77138(9) -0.28721(7) 0.0252(2) Uani 1 1 d . . . 
F8 F 0.22499(8) 0.60128(9) -0.09375(7) 0.0234(2) Uani 1 1 d . . . 
C1 C 0.39612(13) 0.42337(14) 0.27740(12) 0.0148(3) Uani 1 1 d . . . 
C2 C 0.46474(13) 0.39660(14) 0.36583(12) 0.0150(3) Uani 1 1 d . . . 
C3 C 0.43833(13) 0.30839(14) 0.46832(12) 0.0155(3) Uani 1 1 d . . . 
H3 H 0.3732 0.2649 0.4785 0.019 Uiso 1 1 calc R . . 
C4 C 0.50490(13) 0.28367(14) 0.55422(12) 0.0161(3) Uani 1 1 d . . . 
C5 C 0.47826(14) 0.19758(14) 0.65922(13) 0.0183(3) Uani 1 1 d . . . 
C6 C 0.54422(14) 0.17444(15) 0.74261(13) 0.0199(3) Uani 1 1 d . . . 
C7 C 0.64450(14) 0.23509(15) 0.72701(13) 0.0196(3) Uani 1 1 d . . . 
C8 C 0.67311(14) 0.31784(15) 0.62912(13) 0.0186(3) Uani 1 1 d . . . 
C9 C 0.60546(13) 0.34695(14) 0.53923(12) 0.0159(3) Uani 1 1 d . . . 
C10 C 0.63225(13) 0.43339(14) 0.43905(12) 0.0154(3) Uani 1 1 d . . . 
H10 H 0.6982 0.4755 0.4293 0.018 Uiso 1 1 calc R . . 
C11 C 0.56453(13) 0.46065(14) 0.35121(12) 0.0147(3) Uani 1 1 d . . . 
C12 C 0.59227(13) 0.55019(14) 0.24916(12) 0.0152(3) Uani 1 1 d . . . 
C13 C 0.52236(13) 0.57886(14) 0.16132(12) 0.0148(3) Uani 1 1 d . . . 
C14 C 0.54876(13) 0.66860(14) 0.05974(12) 0.0166(3) Uani 1 1 d . . . 
H14 H 0.6140 0.7116 0.0504 0.020 Uiso 1 1 calc R . . 
C15 C 0.48220(13) 0.69559(14) -0.02649(12) 0.0162(3) Uani 1 1 d . . . 
C16 C 0.50930(14) 0.78365(14) -0.13034(13) 0.0184(3) Uani 1 1 d . . . 
C17 C 0.44544(14) 0.80773(14) -0.21477(13) 0.0192(3) Uani 1 1 d . . . 
C18 C 0.34701(14) 0.74514(15) -0.20111(13) 0.0198(3) Uani 1 1 d . . . 
C19 C 0.31754(13) 0.66094(15) -0.10424(13) 0.0179(3) Uani 1 1 d . . . 
C20 C 0.38263(13) 0.63141(14) -0.01261(12) 0.0163(3) Uani 1 1 d . . . 
C21 C 0.35540(13) 0.54349(14) 0.08698(12) 0.0156(3) Uani 1 1 d . . . 
H21 H 0.2896 0.5015 0.0957 0.019 Uiso 1 1 calc R . . 
C22 C 0.42265(13) 0.51469(14) 0.17560(12) 0.0149(3) Uani 1 1 d . . . 
C23 C 0.30262(13) 0.35327(14) 0.29038(12) 0.0150(3) Uani 1 1 d . . . 
C24 C 0.22846(13) 0.28817(14) 0.30190(12) 0.0165(3) Uani 1 1 d . . . 
C25 C 0.07428(15) 0.20521(16) 0.18726(13) 0.0229(3) Uani 1 1 d . . . 
H25A H 0.0294 0.2921 0.1600 0.027 Uiso 1 1 calc R . . 
H25B H 0.1414 0.2025 0.1362 0.027 Uiso 1 1 calc R . . 
C26 C -0.00544(17) 0.11243(18) 0.19144(15) 0.0308(4) Uani 1 1 d . . . 
H26A H 0.0408 0.0277 0.2100 0.046 Uiso 1 1 calc R . . 
H26B H -0.0393 0.1400 0.1214 0.046 Uiso 1 1 calc R . . 
H26C H -0.0690 0.1099 0.2456 0.046 Uiso 1 1 calc R . . 
C27 C 0.00867(14) 0.18042(15) 0.41712(13) 0.0199(3) Uani 1 1 d . . . 
H27A H -0.0385 0.1128 0.4292 0.024 Uiso 1 1 calc R . . 
H27B H 0.0422 0.1632 0.4862 0.024 Uiso 1 1 calc R . . 
C28 C -0.07344(15) 0.30661(17) 0.38350(15) 0.0291(4) Uani 1 1 d . . . 
H28A H -0.0285 0.3743 0.3736 0.044 Uiso 1 1 calc R . . 
H28B H -0.1356 0.3029 0.4391 0.044 Uiso 1 1 calc R . . 
H28C H -0.1091 0.3239 0.3161 0.044 Uiso 1 1 calc R . . 
C29 C 0.22601(15) 0.01210(15) 0.37459(14) 0.0238(4) Uani 1 1 d . . . 
H29A H 0.1760 -0.0541 0.3902 0.029 Uiso 1 1 calc R . . 
H29B H 0.2862 0.0050 0.3191 0.029 Uiso 1 1 calc R . . 
C30 C 0.28822(16) -0.01367(17) 0.47609(14) 0.0303(4) Uani 1 1 d . . . 
H30A H 0.3427 0.0474 0.4602 0.045 Uiso 1 1 calc R . . 
H30B H 0.3324 -0.0998 0.5020 0.045 Uiso 1 1 calc R . . 
H30C H 0.2295 -0.0051 0.5312 0.045 Uiso 1 1 calc R . . 
C31 C 0.69121(13) 0.61301(14) 0.23445(12) 0.0156(3) Uani 1 1 d . . . 
C32 C 0.77404(14) 0.66757(14) 0.22137(12) 0.0173(3) Uani 1 1 d . . . 
C33 C 0.88447(16) 0.89762(16) 0.08560(13) 0.0244(4) Uani 1 1 d . . . 
H33A H 0.9541 0.9398 0.0769 0.029 Uiso 1 1 calc R . . 
H33B H 0.8833 0.8782 0.0216 0.029 Uiso 1 1 calc R . . 
C34 C 0.77417(17) 0.99079(17) 0.08810(16) 0.0335(4) Uani 1 1 d . . . 
H34A H 0.7041 0.9535 0.0899 0.050 Uiso 1 1 calc R . . 
H34B H 0.7746 1.0693 0.0240 0.050 Uiso 1 1 calc R . . 
H34C H 0.7728 1.0095 0.1520 0.050 Uiso 1 1 calc R . . 
C35 C 1.03458(14) 0.63551(16) 0.18413(14) 0.0248(4) Uani 1 1 d . . . 
H35A H 1.1027 0.6820 0.1576 0.030 Uiso 1 1 calc R . . 
H35B H 1.0549 0.5656 0.2538 0.030 Uiso 1 1 calc R . . 
C36 C 1.01469(15) 0.57930(17) 0.10528(14) 0.0269(4) Uani 1 1 d . . . 
H36A H 0.9464 0.5346 0.1301 0.040 Uiso 1 1 calc R . . 
H36B H 1.0848 0.5198 0.1004 0.040 Uiso 1 1 calc R . . 
H36C H 1.0002 0.6474 0.0346 0.040 Uiso 1 1 calc R . . 
C37 C 0.91257(15) 0.76841(16) 0.33155(14) 0.0238(4) Uani 1 1 d . . . 
H37A H 0.9927 0.7845 0.3359 0.029 Uiso 1 1 calc R . . 
H37B H 0.8560 0.8439 0.3299 0.029 Uiso 1 1 calc R . . 
C38 C 0.88522(17) 0.65389(17) 0.43085(14) 0.0291(4) Uani 1 1 d . . . 
H38A H 0.8044 0.6404 0.4289 0.044 Uiso 1 1 calc R . . 
H38B H 0.8934 0.6691 0.4951 0.044 Uiso 1 1 calc R . . 
H38C H 0.9403 0.5786 0.4323 0.044 Uiso 1 1 calc R . . 
 
loop_ 
 _atom_site_aniso_label 
 _atom_site_aniso_U_11 
 _atom_site_aniso_U_22 
 _atom_site_aniso_U_33 
 _atom_site_aniso_U_23 
 _atom_site_aniso_U_13 
 _atom_site_aniso_U_12 
Si1 0.0176(2) 0.0163(2) 0.0131(2) -0.00600(16) 0.00116(15) -0.00649(15) 
Si2 0.0183(2) 0.0214(2) 0.0154(2) -0.00773(17) 0.00051(16) -0.00923(16) 
F1 0.0260(5) 0.0227(5) 0.0170(5) -0.0060(4) 0.0021(4) -0.0100(4) 
F2 0.0343(5) 0.0255(5) 0.0138(5) -0.0029(4) -0.0015(4) -0.0048(4) 
F3 0.0292(5) 0.0333(5) 0.0172(5) -0.0082(4) -0.0095(4) -0.0019(4) 
F4 0.0191(5) 0.0321(5) 0.0210(5) -0.0110(4) -0.0039(4) -0.0068(4) 
F5 0.0262(5) 0.0233(5) 0.0194(5) -0.0060(4) 0.0032(4) -0.0125(4) 
F6 0.0323(5) 0.0235(5) 0.0137(5) -0.0010(4) 0.0011(4) -0.0057(4) 
F7 0.0274(5) 0.0331(5) 0.0125(5) -0.0051(4) -0.0064(4) -0.0041(4) 
F8 0.0212(5) 0.0325(5) 0.0170(5) -0.0070(4) -0.0025(4) -0.0105(4) 
C1 0.0146(7) 0.0163(7) 0.0159(8) -0.0087(6) 0.0010(6) -0.0034(6) 
C2 0.0153(7) 0.0160(7) 0.0152(8) -0.0083(6) 0.0016(6) -0.0023(6) 
C3 0.0147(7) 0.0173(7) 0.0159(8) -0.0083(6) 0.0019(6) -0.0033(6) 
C4 0.0174(7) 0.0156(7) 0.0159(8) -0.0084(6) 0.0014(6) 0.0000(6) 
C5 0.0199(8) 0.0180(7) 0.0175(8) -0.0085(6) 0.0004(6) -0.0016(6) 
C6 0.0247(8) 0.0182(7) 0.0138(8) -0.0051(6) 0.0003(6) 0.0006(6) 
C7 0.0228(8) 0.0213(8) 0.0155(8) -0.0094(6) -0.0065(6) 0.0035(6) 
C8 0.0176(7) 0.0204(8) 0.0198(8) -0.0105(6) -0.0019(6) -0.0011(6) 
C9 0.0155(7) 0.0176(7) 0.0166(8) -0.0102(6) -0.0002(6) 0.0009(6) 
C10 0.0138(7) 0.0183(7) 0.0166(8) -0.0098(6) 0.0004(6) -0.0021(6) 
C11 0.0144(7) 0.0167(7) 0.0154(8) -0.0095(6) 0.0016(6) -0.0019(6) 
C12 0.0148(7) 0.0158(7) 0.0171(8) -0.0088(6) 0.0017(6) -0.0033(6) 
C13 0.0156(7) 0.0156(7) 0.0153(8) -0.0087(6) 0.0015(6) -0.0028(6) 
C14 0.0173(7) 0.0167(7) 0.0173(8) -0.0080(6) 0.0029(6) -0.0049(6) 
C15 0.0179(7) 0.0153(7) 0.0159(8) -0.0075(6) 0.0017(6) -0.0018(6) 
C16 0.0203(8) 0.0171(7) 0.0180(8) -0.0071(6) 0.0021(6) -0.0043(6) 
C17 0.0238(8) 0.0168(7) 0.0136(8) -0.0041(6) 0.0025(6) -0.0010(6) 
C18 0.0216(8) 0.0218(8) 0.0154(8) -0.0078(6) -0.0030(6) 0.0009(6) 
C19 0.0160(7) 0.0209(8) 0.0180(8) -0.0088(6) -0.0009(6) -0.0029(6) 
C20 0.0165(7) 0.0164(7) 0.0167(8) -0.0084(6) 0.0015(6) -0.0011(6) 
C21 0.0157(7) 0.0174(7) 0.0157(8) -0.0083(6) 0.0014(6) -0.0045(6) 
C22 0.0156(7) 0.0162(7) 0.0152(8) -0.0089(6) 0.0020(6) -0.0030(6) 
C23 0.0169(7) 0.0167(7) 0.0113(7) -0.0052(6) -0.0005(5) -0.0025(6) 
C24 0.0185(7) 0.0188(7) 0.0116(7) -0.0053(6) -0.0006(6) -0.0029(6) 
C25 0.0275(8) 0.0270(8) 0.0178(8) -0.0096(7) -0.0009(6) -0.0111(7) 
C26 0.0354(10) 0.0393(10) 0.0276(10) -0.0185(8) -0.0003(8) -0.0173(8) 
C27 0.0202(8) 0.0214(8) 0.0199(8) -0.0092(6) 0.0028(6) -0.0072(6) 
C28 0.0224(8) 0.0335(10) 0.0326(10) -0.0166(8) 0.0000(7) 0.0004(7) 
C29 0.0283(9) 0.0189(8) 0.0227(9) -0.0079(7) 0.0063(7) -0.0052(6) 
C30 0.0312(9) 0.0266(9) 0.0233(9) -0.0028(7) -0.0009(7) 0.0024(7) 
C31 0.0175(7) 0.0180(7) 0.0123(7) -0.0070(6) -0.0003(6) -0.0031(6) 
C32 0.0209(8) 0.0197(7) 0.0129(7) -0.0071(6) -0.0010(6) -0.0048(6) 
C33 0.0333(9) 0.0248(8) 0.0170(8) -0.0068(7) 0.0018(7) -0.0136(7) 
C34 0.0380(10) 0.0270(9) 0.0283(10) -0.0022(8) -0.0044(8) -0.0059(8) 
C35 0.0195(8) 0.0303(9) 0.0276(9) -0.0132(7) 0.0016(7) -0.0080(7) 
C36 0.0250(9) 0.0313(9) 0.0268(9) -0.0148(7) 0.0020(7) -0.0038(7) 
C37 0.0255(8) 0.0294(9) 0.0227(9) -0.0131(7) -0.0023(7) -0.0112(7) 
C38 0.0409(10) 0.0312(9) 0.0182(9) -0.0110(7) -0.0050(7) -0.0079(8) 
 
_geom_special_details 
; 
 All esds (except the esd in the dihedral angle between two l.s. planes) 
 are estimated using the full covariance matrix.  The cell esds are taken 
 into account individually in the estimation of esds in distances, angles 
 and torsion angles; correlations between esds in cell parameters are only 
 used when they are defined by crystal symmetry.  An approximate (isotropic) 
 treatment of cell esds is used for estimating esds involving l.s. planes. 
; 
 
loop_ 
 _geom_bond_atom_site_label_1 
 _geom_bond_atom_site_label_2 
 _geom_bond_distance 
 _geom_bond_site_symmetry_2 
 _geom_bond_publ_flag 
Si1 C24 1.8449(16) . ? 
Si1 C27 1.8626(16) . ? 
Si1 C29 1.8635(17) . ? 
Si1 C25 1.8651(17) . ? 
Si2 C32 1.8427(16) . ? 
Si2 C33 1.8630(17) . ? 
Si2 C35 1.8668(17) . ? 
Si2 C37 1.8694(17) . ? 
F1 C5 1.3378(18) . ? 
F2 C6 1.3340(18) . ? 
F3 C7 1.3365(18) . ? 
F4 C8 1.3437(18) . ? 
F5 C16 1.3429(18) . ? 
F6 C17 1.3345(18) . ? 
F7 C18 1.3351(18) . ? 
F8 C19 1.3444(18) . ? 
C1 C22 1.413(2) . ? 
C1 C2 1.414(2) . ? 
C1 C23 1.426(2) . ? 
C2 C3 1.405(2) . ? 
C2 C11 1.440(2) . ? 
C3 C4 1.377(2) . ? 
C3 H3 0.9500 . ? 
C4 C5 1.421(2) . ? 
C4 C9 1.441(2) . ? 
C5 C6 1.349(2) . ? 
C6 C7 1.419(2) . ? 
C7 C8 1.346(2) . ? 
C8 C9 1.418(2) . ? 
C9 C10 1.377(2) . ? 
C10 C11 1.400(2) . ? 
C10 H10 0.9500 . ? 
C11 C12 1.411(2) . ? 
C12 C13 1.412(2) . ? 
C12 C31 1.422(2) . ? 
C13 C14 1.404(2) . ? 
C13 C22 1.441(2) . ? 
C14 C15 1.374(2) . ? 
C14 H14 0.9500 . ? 
C15 C16 1.419(2) . ? 
C15 C20 1.440(2) . ? 
C16 C17 1.343(2) . ? 
C17 C18 1.418(2) . ? 
C18 C19 1.346(2) . ? 
C19 C20 1.420(2) . ? 
C20 C21 1.380(2) . ? 
C21 C22 1.402(2) . ? 
C21 H21 0.9500 . ? 
C23 C24 1.204(2) . ? 
C25 C26 1.526(2) . ? 
C25 H25A 0.9900 . ? 
C25 H25B 0.9900 . ? 
C26 H26A 0.9800 . ? 
C26 H26B 0.9800 . ? 
C26 H26C 0.9800 . ? 
C27 C28 1.522(2) . ? 
C27 H27A 0.9900 . ? 
C27 H27B 0.9900 . ? 
C28 H28A 0.9800 . ? 
C28 H28B 0.9800 . ? 
C28 H28C 0.9800 . ? 
C29 C30 1.528(3) . ? 
C29 H29A 0.9900 . ? 
C29 H29B 0.9900 . ? 
C30 H30A 0.9800 . ? 
C30 H30B 0.9800 . ? 
C30 H30C 0.9800 . ? 
C31 C32 1.203(2) . ? 
C33 C34 1.522(3) . ? 
C33 H33A 0.9900 . ? 
C33 H33B 0.9900 . ? 
C34 H34A 0.9800 . ? 
C34 H34B 0.9800 . ? 
C34 H34C 0.9800 . ? 
C35 C36 1.524(2) . ? 
C35 H35A 0.9900 . ? 
C35 H35B 0.9900 . ? 
C36 H36A 0.9800 . ? 
C36 H36B 0.9800 . ? 
C36 H36C 0.9800 . ? 
C37 C38 1.526(2) . ? 
C37 H37A 0.9900 . ? 
C37 H37B 0.9900 . ? 
C38 H38A 0.9800 . ? 
C38 H38B 0.9800 . ? 
C38 H38C 0.9800 . ? 
 
loop_ 
 _geom_angle_atom_site_label_1 
 _geom_angle_atom_site_label_2 
 _geom_angle_atom_site_label_3 
 _geom_angle 
 _geom_angle_site_symmetry_1 
 _geom_angle_site_symmetry_3 
 _geom_angle_publ_flag 
C24 Si1 C27 109.87(7) . . ? 
C24 Si1 C29 106.40(7) . . ? 
C27 Si1 C29 109.75(7) . . ? 
C24 Si1 C25 108.17(7) . . ? 
C27 Si1 C25 110.26(8) . . ? 
C29 Si1 C25 112.29(8) . . ? 
C32 Si2 C33 108.17(7) . . ? 
C32 Si2 C35 106.72(7) . . ? 
C33 Si2 C35 110.77(8) . . ? 
C32 Si2 C37 106.61(7) . . ? 
C33 Si2 C37 112.70(8) . . ? 
C35 Si2 C37 111.55(8) . . ? 
C22 C1 C2 120.69(13) . . ? 
C22 C1 C23 119.83(13) . . ? 
C2 C1 C23 119.43(13) . . ? 
C3 C2 C1 121.69(14) . . ? 
C3 C2 C11 118.74(14) . . ? 
C1 C2 C11 119.57(14) . . ? 
C4 C3 C2 121.36(14) . . ? 
C4 C3 H3 119.3 . . ? 
C2 C3 H3 119.3 . . ? 
C3 C4 C5 122.52(14) . . ? 
C3 C4 C9 119.82(14) . . ? 
C5 C4 C9 117.65(14) . . ? 
F1 C5 C6 119.62(14) . . ? 
F1 C5 C4 118.53(14) . . ? 
C6 C5 C4 121.84(15) . . ? 
F2 C6 C5 121.93(15) . . ? 
F2 C6 C7 117.80(14) . . ? 
C5 C6 C7 120.27(15) . . ? 
F3 C7 C8 121.96(15) . . ? 
F3 C7 C6 117.91(14) . . ? 
C8 C7 C6 120.13(14) . . ? 
F4 C8 C7 119.43(14) . . ? 
F4 C8 C9 118.82(14) . . ? 
C7 C8 C9 121.74(15) . . ? 
C10 C9 C8 122.38(14) . . ? 
C10 C9 C4 119.27(14) . . ? 
C8 C9 C4 118.34(14) . . ? 
C9 C10 C11 121.54(14) . . ? 
C9 C10 H10 119.2 . . ? 
C11 C10 H10 119.2 . . ? 
C10 C11 C12 121.01(14) . . ? 
C10 C11 C2 119.26(14) . . ? 
C12 C11 C2 119.73(14) . . ? 
C11 C12 C13 120.71(14) . . ? 
C11 C12 C31 119.80(14) . . ? 
C13 C12 C31 119.49(14) . . ? 
C14 C13 C12 121.07(14) . . ? 
C14 C13 C22 119.23(14) . . ? 
C12 C13 C22 119.70(14) . . ? 
C15 C14 C13 121.40(14) . . ? 
C15 C14 H14 119.3 . . ? 
C13 C14 H14 119.3 . . ? 
C14 C15 C16 122.21(14) . . ? 
C14 C15 C20 119.53(14) . . ? 
C16 C15 C20 118.25(14) . . ? 
C17 C16 F5 119.76(14) . . ? 
C17 C16 C15 121.97(15) . . ? 
F5 C16 C15 118.25(14) . . ? 
F6 C17 C16 122.15(14) . . ? 
F6 C17 C18 118.00(14) . . ? 
C16 C17 C18 119.84(14) . . ? 
F7 C18 C19 121.59(14) . . ? 
F7 C18 C17 117.91(14) . . ? 
C19 C18 C17 120.49(15) . . ? 
F8 C19 C18 119.34(14) . . ? 
F8 C19 C20 118.76(13) . . ? 
C18 C19 C20 121.89(14) . . ? 
C21 C20 C19 122.83(14) . . ? 
C21 C20 C15 119.61(14) . . ? 
C19 C20 C15 117.55(14) . . ? 
C20 C21 C22 121.51(14) . . ? 
C20 C21 H21 119.2 . . ? 
C22 C21 H21 119.2 . . ? 
C21 C22 C1 121.71(13) . . ? 
C21 C22 C13 118.71(14) . . ? 
C1 C22 C13 119.57(14) . . ? 
C24 C23 C1 176.27(15) . . ? 
C23 C24 Si1 171.83(13) . . ? 
C26 C25 Si1 113.17(12) . . ? 
C26 C25 H25A 108.9 . . ? 
Si1 C25 H25A 108.9 . . ? 
C26 C25 H25B 108.9 . . ? 
Si1 C25 H25B 108.9 . . ? 
H25A C25 H25B 107.8 . . ? 
C25 C26 H26A 109.5 . . ? 
C25 C26 H26B 109.5 . . ? 
H26A C26 H26B 109.5 . . ? 
C25 C26 H26C 109.5 . . ? 
H26A C26 H26C 109.5 . . ? 
H26B C26 H26C 109.5 . . ? 
C28 C27 Si1 115.26(12) . . ? 
C28 C27 H27A 108.5 . . ? 
Si1 C27 H27A 108.5 . . ? 
C28 C27 H27B 108.5 . . ? 
Si1 C27 H27B 108.5 . . ? 
H27A C27 H27B 107.5 . . ? 
C27 C28 H28A 109.5 . . ? 
C27 C28 H28B 109.5 . . ? 
H28A C28 H28B 109.5 . . ? 
C27 C28 H28C 109.5 . . ? 
H28A C28 H28C 109.5 . . ? 
H28B C28 H28C 109.5 . . ? 
C30 C29 Si1 114.14(12) . . ? 
C30 C29 H29A 108.7 . . ? 
Si1 C29 H29A 108.7 . . ? 
C30 C29 H29B 108.7 . . ? 
Si1 C29 H29B 108.7 . . ? 
H29A C29 H29B 107.6 . . ? 
C29 C30 H30A 109.5 . . ? 
C29 C30 H30B 109.5 . . ? 
H30A C30 H30B 109.5 . . ? 
C29 C30 H30C 109.5 . . ? 
H30A C30 H30C 109.5 . . ? 
H30B C30 H30C 109.5 . . ? 
C32 C31 C12 179.19(17) . . ? 
C31 C32 Si2 177.75(14) . . ? 
C34 C33 Si2 115.96(12) . . ? 
C34 C33 H33A 108.3 . . ? 
Si2 C33 H33A 108.3 . . ? 
C34 C33 H33B 108.3 . . ? 
Si2 C33 H33B 108.3 . . ? 
H33A C33 H33B 107.4 . . ? 
C33 C34 H34A 109.5 . . ? 
C33 C34 H34B 109.5 . . ? 
H34A C34 H34B 109.5 . . ? 
C33 C34 H34C 109.5 . . ? 
H34A C34 H34C 109.5 . . ? 
H34B C34 H34C 109.5 . . ? 
C36 C35 Si2 113.52(12) . . ? 
C36 C35 H35A 108.9 . . ? 
Si2 C35 H35A 108.9 . . ? 
C36 C35 H35B 108.9 . . ? 
Si2 C35 H35B 108.9 . . ? 
H35A C35 H35B 107.7 . . ? 
C35 C36 H36A 109.5 . . ? 
C35 C36 H36B 109.5 . . ? 
H36A C36 H36B 109.5 . . ? 
C35 C36 H36C 109.5 . . ? 
H36A C36 H36C 109.5 . . ? 
H36B C36 H36C 109.5 . . ? 
C38 C37 Si2 112.40(11) . . ? 
C38 C37 H37A 109.1 . . ? 
Si2 C37 H37A 109.1 . . ? 
C38 C37 H37B 109.1 . . ? 
Si2 C37 H37B 109.1 . . ? 
H37A C37 H37B 107.9 . . ? 
C37 C38 H38A 109.5 . . ? 
C37 C38 H38B 109.5 . . ? 
H38A C38 H38B 109.5 . . ? 
C37 C38 H38C 109.5 . . ? 
H38A C38 H38C 109.5 . . ? 
H38B C38 H38C 109.5 . . ? 
 
loop_ 
 _geom_torsion_atom_site_label_1 
 _geom_torsion_atom_site_label_2 
 _geom_torsion_atom_site_label_3 
 _geom_torsion_atom_site_label_4 
 _geom_torsion 
 _geom_torsion_site_symmetry_1 
 _geom_torsion_site_symmetry_2 
 _geom_torsion_site_symmetry_3 
 _geom_torsion_site_symmetry_4 
 _geom_torsion_publ_flag 
C22 C1 C2 C3 178.46(13) . . . . ? 
C23 C1 C2 C3 -4.3(2) . . . . ? 
C22 C1 C2 C11 -1.7(2) . . . . ? 
C23 C1 C2 C11 175.50(13) . . . . ? 
C1 C2 C3 C4 -179.41(13) . . . . ? 
C11 C2 C3 C4 0.7(2) . . . . ? 
C2 C3 C4 C5 178.24(14) . . . . ? 
C2 C3 C4 C9 -1.4(2) . . . . ? 
C3 C4 C5 F1 -0.7(2) . . . . ? 
C9 C4 C5 F1 178.94(12) . . . . ? 
C3 C4 C5 C6 -179.92(14) . . . . ? 
C9 C4 C5 C6 -0.3(2) . . . . ? 
F1 C5 C6 F2 -0.9(2) . . . . ? 
C4 C5 C6 F2 178.35(13) . . . . ? 
F1 C5 C6 C7 179.82(13) . . . . ? 
C4 C5 C6 C7 -0.9(2) . . . . ? 
F2 C6 C7 F3 2.3(2) . . . . ? 
C5 C6 C7 F3 -178.37(14) . . . . ? 
F2 C6 C7 C8 -178.13(14) . . . . ? 
C5 C6 C7 C8 1.2(2) . . . . ? 
F3 C7 C8 F4 -0.5(2) . . . . ? 
C6 C7 C8 F4 179.93(13) . . . . ? 
F3 C7 C8 C9 179.40(13) . . . . ? 
C6 C7 C8 C9 -0.1(2) . . . . ? 
F4 C8 C9 C10 -1.4(2) . . . . ? 
C7 C8 C9 C10 178.62(14) . . . . ? 
F4 C8 C9 C4 178.83(12) . . . . ? 
C7 C8 C9 C4 -1.1(2) . . . . ? 
C3 C4 C9 C10 1.2(2) . . . . ? 
C5 C4 C9 C10 -178.42(13) . . . . ? 
C3 C4 C9 C8 -179.07(13) . . . . ? 
C5 C4 C9 C8 1.3(2) . . . . ? 
C8 C9 C10 C11 179.85(13) . . . . ? 
C4 C9 C10 C11 -0.4(2) . . . . ? 
C9 C10 C11 C12 179.45(13) . . . . ? 
C9 C10 C11 C2 -0.2(2) . . . . ? 
C3 C2 C11 C10 0.0(2) . . . . ? 
C1 C2 C11 C10 -179.82(13) . . . . ? 
C3 C2 C11 C12 -179.59(13) . . . . ? 
C1 C2 C11 C12 0.6(2) . . . . ? 
C10 C11 C12 C13 -178.87(13) . . . . ? 
C2 C11 C12 C13 0.8(2) . . . . ? 
C10 C11 C12 C31 0.7(2) . . . . ? 
C2 C11 C12 C31 -179.65(13) . . . . ? 
C11 C12 C13 C14 179.45(13) . . . . ? 
C31 C12 C13 C14 -0.1(2) . . . . ? 
C11 C12 C13 C22 -0.9(2) . . . . ? 
C31 C12 C13 C22 179.47(13) . . . . ? 
C12 C13 C14 C15 178.99(13) . . . . ? 
C22 C13 C14 C15 -0.6(2) . . . . ? 
C13 C14 C15 C16 -178.37(14) . . . . ? 
C13 C14 C15 C20 0.5(2) . . . . ? 
C14 C15 C16 C17 178.59(15) . . . . ? 
C20 C15 C16 C17 -0.3(2) . . . . ? 
C14 C15 C16 F5 0.1(2) . . . . ? 
C20 C15 C16 F5 -178.78(12) . . . . ? 
F5 C16 C17 F6 0.2(2) . . . . ? 
C15 C16 C17 F6 -178.25(13) . . . . ? 
F5 C16 C17 C18 179.11(13) . . . . ? 
C15 C16 C17 C18 0.6(2) . . . . ? 
F6 C17 C18 F7 -0.8(2) . . . . ? 
C16 C17 C18 F7 -179.70(14) . . . . ? 
F6 C17 C18 C19 178.41(14) . . . . ? 
C16 C17 C18 C19 -0.5(2) . . . . ? 
F7 C18 C19 F8 0.3(2) . . . . ? 
C17 C18 C19 F8 -178.89(13) . . . . ? 
F7 C18 C19 C20 179.20(13) . . . . ? 
C17 C18 C19 C20 0.0(2) . . . . ? 
F8 C19 C20 C21 0.3(2) . . . . ? 
C18 C19 C20 C21 -178.63(15) . . . . ? 
F8 C19 C20 C15 179.24(12) . . . . ? 
C18 C19 C20 C15 0.3(2) . . . . ? 
C14 C15 C20 C21 -0.1(2) . . . . ? 
C16 C15 C20 C21 178.78(14) . . . . ? 
C14 C15 C20 C19 -179.08(14) . . . . ? 
C16 C15 C20 C19 -0.2(2) . . . . ? 
C19 C20 C21 C22 178.84(14) . . . . ? 
C15 C20 C21 C22 -0.1(2) . . . . ? 
C20 C21 C22 C1 -179.06(13) . . . . ? 
C20 C21 C22 C13 -0.1(2) . . . . ? 
C2 C1 C22 C21 -179.53(13) . . . . ? 
C23 C1 C22 C21 3.3(2) . . . . ? 
C2 C1 C22 C13 1.5(2) . . . . ? 
C23 C1 C22 C13 -175.66(13) . . . . ? 
C14 C13 C22 C21 0.4(2) . . . . ? 
C12 C13 C22 C21 -179.19(13) . . . . ? 
C14 C13 C22 C1 179.42(13) . . . . ? 
C12 C13 C22 C1 -0.2(2) . . . . ? 
C24 Si1 C25 C26 179.14(12) . . . . ? 
C27 Si1 C25 C26 -60.70(14) . . . . ? 
C29 Si1 C25 C26 62.02(15) . . . . ? 
C24 Si1 C27 C28 61.97(14) . . . . ? 
C29 Si1 C27 C28 178.64(12) . . . . ? 
C25 Si1 C27 C28 -57.16(14) . . . . ? 
C24 Si1 C29 C30 54.49(13) . . . . ? 
C27 Si1 C29 C30 -64.33(14) . . . . ? 
C25 Si1 C29 C30 172.66(12) . . . . ? 
C32 Si2 C33 C34 57.74(14) . . . . ? 
C35 Si2 C33 C34 174.38(13) . . . . ? 
C37 Si2 C33 C34 -59.86(15) . . . . ? 
C32 Si2 C35 C36 44.88(14) . . . . ? 
C33 Si2 C35 C36 -72.65(14) . . . . ? 
C37 Si2 C35 C36 160.95(12) . . . . ? 
C32 Si2 C37 C38 41.29(15) . . . . ? 
C33 Si2 C37 C38 159.80(12) . . . . ? 
C35 Si2 C37 C38 -74.86(14) . . . . ? 
 
_diffrn_measured_fraction_theta_max    0.984 
_diffrn_reflns_theta_full              68.99 
_diffrn_measured_fraction_theta_full   0.984 
_refine_diff_density_max    0.401 
_refine_diff_density_min   -0.303 
_refine_diff_density_rms    0.055 
