 
data_x12197_a 
 
_audit_creation_method            SHELXL-97 
_chemical_name_systematic 
; 
 ? 
; 
_chemical_name_common             ? 
_chemical_melting_point           ? 
_chemical_formula_moiety 
 'C56 H56 I S Si2' 
_chemical_formula_sum 
 'C56 H56 I S Si2' 
_chemical_formula_weight          944.15 
_chemical_absolute_configuration  .
 
loop_ 
 _atom_type_symbol 
 _atom_type_description 
 _atom_type_scat_dispersion_real 
 _atom_type_scat_dispersion_imag 
 _atom_type_scat_source 
 'C'  'C'   0.0181   0.0091 
 'International Tables Vol C Tables 4.2.6.8 and 6.1.1.4' 
 'H'  'H'   0.0000   0.0000 
 'International Tables Vol C Tables 4.2.6.8 and 6.1.1.4' 
 'Si'  'Si'   0.2541   0.3302 
 'International Tables Vol C Tables 4.2.6.8 and 6.1.1.4' 
 'S'  'S'   0.3331   0.5567 
 'International Tables Vol C Tables 4.2.6.8 and 6.1.1.4' 
 'I'  'I'  -0.3257   6.8362 
 'International Tables Vol C Tables 4.2.6.8 and 6.1.1.4' 
 
_symmetry_cell_setting            ? 
_symmetry_space_group_name_H-M    ? 
_symmetry_space_group_name_Hall   ? 
 
loop_ 
 _symmetry_equiv_pos_as_xyz 
 'x, y, z' 
 '-x, y+1/2, -z+1/2' 
 '-x, -y, -z' 
 'x, -y-1/2, z-1/2' 
 
_cell_length_a                    17.0557(6) 
_cell_length_b                    19.0118(4) 
_cell_length_c                    15.3234(4) 
_cell_angle_alpha                 90.00 
_cell_angle_beta                  110.028(2) 
_cell_angle_gamma                 90.00 
_cell_volume                      4668.3(2) 
_cell_formula_units_Z             4 
_cell_measurement_temperature     296.0(2) 
_cell_measurement_reflns_used     ? 
_cell_measurement_theta_min       ? 
_cell_measurement_theta_max       ? 
 
_exptl_crystal_description        ? 
_exptl_crystal_colour             ? 
_exptl_crystal_size_max           ? 
_exptl_crystal_size_mid           ? 
_exptl_crystal_size_min           ? 
_exptl_crystal_density_meas       ? 
_exptl_crystal_density_diffrn     1.343 
_exptl_crystal_density_method     'not measured' 
_exptl_crystal_F_000              1956 
_exptl_absorpt_coefficient_mu     6.570 
_exptl_absorpt_correction_type    multi-scan 
_exptl_absorpt_correction_T_min   mu
_exptl_absorpt_correction_T_max   mu
_exptl_absorpt_process_details    'Sadabs in APEX2 (BrukerAXS, 2006)' 
 
_exptl_special_details 
; 
 ? 
; 
 
_diffrn_ambient_temperature       296.0(2) 
_diffrn_radiation_wavelength      1.54178 
_diffrn_radiation_type            CuK\a 
_diffrn_radiation_source          'fine-focus rotating anode' 
_diffrn_radiation_monochromator   'graded multilayer optics' 
_diffrn_measurement_device_type   'Bruker X8 Proteum diffractometer'
_diffrn_measurement_method        '\f and \w scans'            
_diffrn_detector_area_resol_mean  5.6
_diffrn_standards_number          0 
_diffrn_standards_interval_count  . 
_diffrn_standards_interval_time   . 
_diffrn_standards_decay_%         ? 
_diffrn_reflns_number             31029 
_diffrn_reflns_av_R_equivalents   0.0605 
_diffrn_reflns_av_sigmaI/netI     0.0494 
_diffrn_reflns_limit_h_min        -18 
_diffrn_reflns_limit_h_max        18 
_diffrn_reflns_limit_k_min        -20 
_diffrn_reflns_limit_k_max        20 
_diffrn_reflns_limit_l_min        -13 
_diffrn_reflns_limit_l_max        16 
_diffrn_reflns_theta_min          2.76 
_diffrn_reflns_theta_max          58.72 
_reflns_number_total              6392 
_reflns_number_gt                 4452 
_reflns_threshold_expression      >2\s(I)    
 
_computing_data_collection        'APEX2 (Bruker-AXS, 2006)'            
_computing_cell_refinement        'APEX2'
_computing_data_reduction         'APEX2'
_computing_structure_solution     'SHELXS-97 (Sheldrick, 2008)' 
_computing_structure_refinement   'SHELXL-97 (Sheldrick, 2008)' 
_computing_molecular_graphics     'XP in SHELXTL (Sheldrick, 2008)'
_computing_publication_material
; 
SHELX-97 (Sheldrick, 2008) and local procedures 
; 
 
_publ_section_exptl_refinement
;
H atoms were found in difference Fourier maps and subsequently placed 
in idealized positions with constrained distances of 
0.98 \%A (RCH~3~),
0.99 \%A (R~2~CH~2~),
1.00 \%A (R~3~CH),
0.95 \%A (C~sp2~H),
0.84 \%A (O-H),
0.88 \%A (N-H),
and with U~iso~(H) values set to either 1.2U~eq~ or 1.5U~eq~ (RCH~3~, OH) 
of the attached atom. 

To ensure satisfactory refinement of the disordered parts of the structure, 
a combination of constraints and restraints were needed.  The constraints 
(SHELXL97 commands EXYZ and EADP) were used to make the coordinates and/or 
displacement parameters of closely proximate atoms equal.  The restraints 
(SHELXL97 commands SAME, DELU) were used to ensure similar geometries and 
displacement parameters of closely proximate, chemically similar groups. 
;

_refine_special_details 
; 
Refinement of F^2^ against all reflections.  The weighted R-value wR and 
goodness of fit S are based on F^2^. Conventional R-values R are based 
on F, with F set to zero for negative F^2^.  The threshold expression of 
F^2^ > 2\s(F^2^) is used only for calculating R-factors(gt) etc. and is 
not relevant to the choice of reflections for refinement.  R-values based 
on F^2^ are statistically about twice as large as those based on F, and  
R-values based on ALL data will be even larger. 
; 
 
_refine_ls_structure_factor_coef  Fsqd  
_refine_ls_matrix_type            full 
_refine_ls_weighting_scheme       calc  
_refine_ls_weighting_details 
 'calc w=1/[\s^2^(Fo^2^)+(0.1000P)^2^] where P=(Fo^2^+2Fc^2^)/3'         
_atom_sites_solution_primary      direct 
_atom_sites_solution_secondary    difmap 
_atom_sites_solution_hydrogens    geom 
_refine_ls_hydrogen_treatment     constr 
_refine_ls_extinction_method      none 
_refine_ls_extinction_coef        ? 
_refine_ls_number_reflns          6392 
_refine_ls_number_parameters      473 
_refine_ls_number_restraints      150 
_refine_ls_R_factor_all           0.1335 
_refine_ls_R_factor_gt            0.1043 
_refine_ls_wR_factor_ref          0.3048 
_refine_ls_wR_factor_gt           0.2882 
_refine_ls_goodness_of_fit_ref    2.038 
_refine_ls_restrained_S_all       2.058 
_refine_ls_shift/su_max           0.837 
_refine_ls_shift/su_mean          0.022 
 
loop_ 
 _atom_site_label 
 _atom_site_type_symbol 
 _atom_site_fract_x 
 _atom_site_fract_y 
 _atom_site_fract_z 
 _atom_site_U_iso_or_equiv 
 _atom_site_adp_type 
 _atom_site_occupancy 
 _atom_site_symmetry_multiplicity 
 _atom_site_calc_flag 
 _atom_site_refinement_flags 
 _atom_site_disorder_assembly 
 _atom_site_disorder_group 
I1 I 0.92834(7) 0.80114(4) 0.36069(6) 0.0872(5) Uani 1 1 d U . . 
I2 I 1.0697(2) 1.63195(7) 0.36978(10) 0.0842(9) Uani 0.702(4) 1 d PU A 1 
I2' I 1.0158(5) 1.6335(2) 0.3684(3) 0.0842(9) Uani 0.298(4) 1 d PU A 2 
Si03 Si 0.6676(2) 1.2359(3) 0.4265(3) 0.0772(11) Uani 1 1 d U A . 
Si04 Si 1.3392(2) 1.1873(3) 0.3812(3) 0.0840(12) Uani 1 1 d U . . 
S2 S 1.0409(3) 0.9370(2) 0.3647(3) 0.0927(12) Uani 1 1 d U . . 
S1 S 0.9479(4) 1.4988(3) 0.3729(3) 0.1097(14) Uani 1 1 d U . . 
C007 C 0.8686(6) 0.9576(4) 0.3706(5) 0.0303(19) Uani 1 1 d U . . 
C008 C 1.1127(8) 1.4781(4) 0.3774(5) 0.044(2) Uani 1 1 d U . . 
C009 C 0.9650(8) 1.2851(6) 0.3887(7) 0.049(2) Uani 1 1 d U A . 
C00A C 0.9480(7) 1.1566(6) 0.3880(8) 0.050(2) Uani 1 1 d U A . 
C00B C 1.0796(7) 1.2081(6) 0.3868(7) 0.045(2) Uani 1 1 d U . . 
C00C C 0.9287(7) 1.0300(6) 0.3790(7) 0.051(2) Uani 1 1 d U . . 
C00D C 0.8999(7) 1.0970(6) 0.3857(7) 0.050(2) Uani 1 1 d U . . 
C00E C 1.0620(7) 1.0789(6) 0.3802(7) 0.051(3) Uani 1 1 d U . . 
C00F C 1.0113(7) 1.0221(6) 0.3736(7) 0.053(2) Uani 1 1 d U . . 
C00G C 1.0487(7) 1.2760(6) 0.3882(8) 0.053(2) Uani 1 1 d U A . 
C00H C 1.0951(8) 1.3362(6) 0.3836(7) 0.055(3) Uani 1 1 d U . . 
C00I C 1.0313(7) 1.1476(5) 0.3838(7) 0.044(2) Uani 1 1 d U . . 
C00J C 0.9327(7) 1.3547(6) 0.3856(8) 0.054(3) Uani 1 1 d U . . 
C00K C 0.9182(7) 1.2262(6) 0.3928(7) 0.046(2) Uani 1 1 d U . . 
C00L C 0.9461(8) 0.9086(6) 0.3681(7) 0.061(3) Uani 1 1 d U . . 
C00M C 0.8366(7) 1.2329(6) 0.4011(8) 0.055(3) Uani 1 1 d U A . 
C00N C 0.9794(8) 1.4122(6) 0.3814(7) 0.056(2) Uani 1 1 d U A . 
C00O C 1.1632(7) 1.2014(6) 0.3860(8) 0.053(3) Uani 1 1 d U . . 
C00P C 1.0636(8) 1.4026(6) 0.3832(7) 0.060(3) Uani 1 1 d U A . 
C00Q C 0.7692(8) 1.2364(7) 0.4084(8) 0.063(3) Uani 1 1 d U . . 
C00R C 0.7545(9) 1.1462(9) 0.5847(9) 0.083(4) Uani 1 1 d U A . 
C00S C 1.0487(12) 1.5218(7) 0.3753(9) 0.093(3) Uani 1 1 d U A . 
C00T C 1.2310(8) 1.1955(8) 0.3845(9) 0.072(4) Uani 1 1 d U . . 
C00U C 0.8035(12) 1.2066(9) 0.6417(11) 0.103(5) Uani 1 1 d U . . 
C00V C 0.5863(10) 1.2159(12) 0.3101(12) 0.122(6) Uani 1 1 d U . . 
C00W C 0.6008(13) 1.1637(12) 0.2505(11) 0.119(6) Uani 1 1 d U A . 
C00X C 1.3219(15) 1.3428(12) 0.3490(14) 0.130(6) Uani 1 1 d U . . 
C00Y C 1.3336(14) 1.1265(16) 0.285(2) 0.179(9) Uani 1 1 d U . . 
C00Z C 0.6678(10) 1.1648(13) 0.5152(13) 0.127(6) Uani 1 1 d U . . 
C010 C 0.6456(14) 1.3243(14) 0.470(2) 0.166(9) Uani 1 1 d U . . 
C011 C 1.2658(13) 1.161(3) 0.186(2) 0.32(2) Uani 1 1 d U . . 
C012 C 1.3763(13) 1.2756(14) 0.363(2) 0.176(9) Uani 1 1 d U . . 
C013 C 1.4127(11) 1.1442(18) 0.4946(18) 0.177(10) Uani 1 1 d U . . 
C014 C 0.7441(14) 1.0862(14) 0.6500(14) 0.151(8) Uani 1 1 d U . . 
C015 C 0.5210(14) 1.1477(15) 0.1633(14) 0.163(10) Uani 1 1 d U . . 
C016 C 1.3297(12) 1.0710(17) 0.549(2) 0.191(13) Uani 1 1 d U . . 
C017 C 1.4089(13) 1.0887(17) 0.5364(16) 0.162(10) Uani 1 1 d U . . 
C018 C 0.6419(15) 1.1012(15) 0.2784(16) 0.160(10) Uani 1 1 d U . . 
C019 C 1.4834(11) 1.0674(14) 0.6267(15) 0.151(9) Uani 1 1 d U . . 
C01A C 1.269(3) 1.080(4) 0.134(4) 0.52(5) Uani 1 1 d U . . 
C01B C 1.3283(19) 1.3658(19) 0.450(2) 0.213(13) Uani 1 1 d U . . 
C01C C 1.349(3) 1.4021(16) 0.322(3) 0.244(17) Uani 1 1 d U . . 
C01D C 1.207(2) 1.131(2) 0.162(2) 0.226(15) Uani 1 1 d U . . 
C01E C 0.659(6) 1.386(2) 0.439(5) 0.52(7) Uani 1 1 d U A . 
C999 C 0.607(4) 1.454(2) 0.468(3) 0.35(3) Uani 1 1 d U . . 
C998 C 0.667(3) 1.397(2) 0.359(3) 0.29(2) Uani 1 1 d U . . 
 
loop_ 
 _atom_site_aniso_label 
 _atom_site_aniso_U_11 
 _atom_site_aniso_U_22 
 _atom_site_aniso_U_33 
 _atom_site_aniso_U_23 
 _atom_site_aniso_U_13 
 _atom_site_aniso_U_12 
I1 0.1591(11) 0.0488(6) 0.0483(6) -0.0020(3) 0.0284(6) -0.0145(5) 
I2 0.160(2) 0.0459(6) 0.0488(7) -0.0039(4) 0.0389(11) -0.0207(11) 
I2' 0.160(2) 0.0459(6) 0.0488(7) -0.0039(4) 0.0389(11) -0.0207(11) 
Si03 0.053(2) 0.122(3) 0.065(2) -0.018(2) 0.0308(18) 0.009(2) 
Si04 0.053(2) 0.126(4) 0.086(3) -0.003(2) 0.042(2) 0.001(2) 
S2 0.131(3) 0.078(3) 0.073(2) 0.0023(18) 0.040(2) -0.001(2) 
S1 0.172(4) 0.074(3) 0.088(3) -0.006(2) 0.051(3) -0.002(2) 
C007 0.105(6) 0.000(3) 0.000(3) -0.002(3) 0.035(4) -0.007(3) 
C008 0.122(7) 0.006(3) 0.000(3) 0.000(3) 0.016(5) -0.038(4) 
C009 0.067(6) 0.046(5) 0.044(6) 0.008(5) 0.031(6) 0.005(4) 
C00A 0.066(6) 0.048(5) 0.049(6) -0.011(5) 0.036(6) -0.008(4) 
C00B 0.049(5) 0.051(5) 0.039(6) -0.005(4) 0.021(5) -0.005(4) 
C00C 0.077(7) 0.043(4) 0.039(5) -0.010(5) 0.030(6) -0.021(4) 
C00D 0.069(7) 0.047(5) 0.040(6) -0.014(5) 0.027(5) -0.015(4) 
C00E 0.072(7) 0.052(5) 0.044(6) -0.008(5) 0.038(6) 0.000(4) 
C00F 0.071(7) 0.058(5) 0.035(5) -0.007(5) 0.026(6) -0.006(4) 
C00G 0.066(6) 0.050(5) 0.052(6) 0.007(5) 0.032(6) 0.004(4) 
C00H 0.086(7) 0.046(5) 0.038(6) 0.008(5) 0.026(6) -0.012(5) 
C00I 0.052(6) 0.044(5) 0.041(6) -0.002(4) 0.023(5) 0.002(4) 
C00J 0.067(7) 0.055(5) 0.041(6) -0.004(5) 0.018(6) 0.006(4) 
C00K 0.058(6) 0.049(5) 0.035(5) -0.004(5) 0.021(5) -0.002(4) 
C00L 0.112(8) 0.036(5) 0.033(6) -0.003(4) 0.022(6) 0.004(5) 
C00M 0.053(6) 0.063(7) 0.053(7) -0.016(5) 0.022(6) -0.003(5) 
C00N 0.083(7) 0.057(5) 0.034(6) -0.002(5) 0.027(6) -0.011(4) 
C00O 0.045(6) 0.067(7) 0.051(7) -0.008(5) 0.020(6) -0.001(5) 
C00P 0.084(7) 0.053(5) 0.041(6) 0.008(5) 0.018(6) -0.025(4) 
C00Q 0.063(6) 0.081(9) 0.052(7) -0.011(6) 0.029(6) -0.001(6) 
C00R 0.069(8) 0.125(12) 0.054(8) 0.007(6) 0.022(6) -0.026(7) 
C00S 0.180(9) 0.044(4) 0.055(8) -0.018(6) 0.040(9) -0.032(5) 
C00T 0.051(6) 0.110(11) 0.063(8) -0.001(7) 0.030(6) -0.002(6) 
C00U 0.113(12) 0.111(12) 0.076(11) -0.022(8) 0.019(9) 0.004(9) 
C00V 0.066(8) 0.216(19) 0.078(8) -0.025(8) 0.016(7) 0.030(11) 
C00W 0.124(14) 0.148(16) 0.060(9) -0.018(8) 0.000(8) 0.011(11) 
C00X 0.162(18) 0.133(10) 0.118(13) 0.023(12) 0.078(14) -0.009(11) 
C00Y 0.118(15) 0.26(2) 0.214(15) -0.120(17) 0.124(12) -0.057(14) 
C00Z 0.065(8) 0.219(15) 0.101(11) 0.040(10) 0.033(7) -0.017(10) 
C010 0.126(16) 0.147(10) 0.27(3) -0.093(14) 0.123(18) -0.022(13) 
C011 0.043(13) 0.69(5) 0.176(14) -0.30(2) -0.036(14) 0.04(2) 
C012 0.092(14) 0.141(10) 0.31(3) 0.032(12) 0.096(17) -0.019(9) 
C013 0.056(10) 0.32(3) 0.165(13) 0.109(17) 0.054(10) 0.031(13) 
C014 0.164(18) 0.192(19) 0.105(14) 0.054(12) 0.057(13) -0.044(15) 
C015 0.134(16) 0.25(3) 0.075(12) -0.013(12) -0.009(10) -0.012(16) 
C016 0.069(9) 0.26(3) 0.23(3) 0.14(2) 0.028(13) 0.022(14) 
C017 0.081(11) 0.27(3) 0.137(17) 0.081(17) 0.037(11) 0.017(15) 
C018 0.128(18) 0.19(2) 0.133(17) -0.032(15) 0.011(13) 0.048(16) 
C019 0.071(10) 0.23(3) 0.155(17) 0.068(16) 0.041(10) 0.017(13) 
C01A 0.21(4) 0.83(9) 0.42(6) -0.47(8) 0.00(4) 0.12(5) 
C01B 0.19(2) 0.31(4) 0.164(18) -0.10(2) 0.08(2) -0.12(2) 
C01C 0.38(5) 0.117(15) 0.30(4) 0.01(2) 0.20(4) -0.05(2) 
C01D 0.23(3) 0.32(4) 0.15(2) -0.14(3) 0.092(14) -0.01(2) 
C01E 1.08(18) 0.150(10) 0.68(10) 0.05(4) 0.77(13) 0.16(5) 
C999 0.54(8) 0.22(3) 0.27(4) -0.05(3) 0.13(5) 0.19(5) 
C998 0.43(7) 0.21(4) 0.26(4) 0.05(3) 0.15(4) 0.17(4) 
 
_geom_special_details 
; 
 All esds (except the esd in the dihedral angle between two l.s. planes) 
 are estimated using the full covariance matrix.  The cell esds are taken 
 into account individually in the estimation of esds in distances, angles 
 and torsion angles; correlations between esds in cell parameters are only 
 used when they are defined by crystal symmetry.  An approximate (isotropic) 
 treatment of cell esds is used for estimating esds involving l.s. planes. 
; 
 
loop_ 
 _geom_bond_atom_site_label_1 
 _geom_bond_atom_site_label_2 
 _geom_bond_distance 
 _geom_bond_site_symmetry_2 
 _geom_bond_publ_flag 
I1 C00L 2.062(11) . ? 
I2 C00S 2.131(14) . ? 
I2' C00S 2.190(17) . ? 
I2' S1 2.822(7) . ? 
Si03 C00Q 1.847(13) . ? 
Si03 C010 1.89(2) . ? 
Si03 C00V 1.885(17) . ? 
Si03 C00Z 1.91(2) . ? 
Si04 C012 1.85(2) . ? 
Si04 C00Y 1.85(2) . ? 
Si04 C00T 1.871(14) . ? 
Si04 C013 1.94(2) . ? 
S2 C00F 1.713(12) . ? 
S2 C00L 1.723(14) . ? 
S1 C00N 1.723(13) . ? 
S1 C00S 1.763(19) . ? 
C007 C00L 1.627(16) . ? 
C007 C00C 1.695(12) . ? 
C008 C00S 1.36(2) . ? 
C008 C00P 1.679(13) . ? 
C009 C00K 1.390(15) . ? 
C009 C00J 1.429(15) . ? 
C009 C00G 1.441(16) . ? 
C00A C00D 1.391(15) . ? 
C00A C00K 1.427(16) . ? 
C00A C00I 1.455(15) . ? 
C00B C00G 1.397(16) . ? 
C00B C00I 1.406(15) . ? 
C00B C00O 1.437(16) . ? 
C00C C00D 1.383(16) . ? 
C00C C00F 1.446(16) . ? 
C00E C00F 1.367(16) . ? 
C00E C00I 1.415(15) . ? 
C00G C00H 1.407(16) . ? 
C00H C00P 1.370(18) . ? 
C00J C00N 1.368(16) . ? 
C00K C00M 1.446(16) . ? 
C00M C00Q 1.194(15) . ? 
C00N C00P 1.438(18) . ? 
C00O C00T 1.169(16) . ? 
C00R C00U 1.51(2) . ? 
C00R C00Z 1.54(2) . ? 
C00R C014 1.57(2) . ? 
C00V C00W 1.43(2) . ? 
C00W C018 1.37(3) . ? 
C00W C015 1.58(3) . ? 
C00X C01C 1.34(3) . ? 
C00X C012 1.55(3) . ? 
C00X C01B 1.58(3) . ? 
C00Y C011 1.69(5) . ? 
C010 C01E 1.31(5) . ? 
C011 C01D 1.10(4) . ? 
C011 C01A 1.73(6) . ? 
C013 C017 1.25(3) . ? 
C016 C017 1.47(3) . ? 
C017 C019 1.58(3) . ? 
C01A C01D 1.58(5) . ? 
C01E C998 1.30(6) . ? 
C01E C999 1.71(5) . ? 
 
loop_ 
 _geom_angle_atom_site_label_1 
 _geom_angle_atom_site_label_2 
 _geom_angle_atom_site_label_3 
 _geom_angle 
 _geom_angle_site_symmetry_1 
 _geom_angle_site_symmetry_3 
 _geom_angle_publ_flag 
C00S I2' S1 38.7(5) . . ? 
C00Q Si03 C010 111.0(8) . . ? 
C00Q Si03 C00V 106.4(7) . . ? 
C010 Si03 C00V 110.0(11) . . ? 
C00Q Si03 C00Z 109.7(7) . . ? 
C010 Si03 C00Z 109.2(12) . . ? 
C00V Si03 C00Z 110.6(10) . . ? 
C012 Si04 C00Y 112.1(14) . . ? 
C012 Si04 C00T 108.7(9) . . ? 
C00Y Si04 C00T 106.9(8) . . ? 
C012 Si04 C013 111.5(13) . . ? 
C00Y Si04 C013 106.9(15) . . ? 
C00T Si04 C013 110.6(7) . . ? 
C00F S2 C00L 89.4(6) . . ? 
C00N S1 C00S 87.6(7) . . ? 
C00N S1 I2' 138.5(5) . . ? 
C00S S1 I2' 50.9(6) . . ? 
C00L C007 C00C 89.6(8) . . ? 
C00S C008 C00P 96.5(10) . . ? 
C00K C009 C00J 121.8(11) . . ? 
C00K C009 C00G 119.3(10) . . ? 
C00J C009 C00G 118.9(10) . . ? 
C00D C00A C00K 122.6(10) . . ? 
C00D C00A C00I 118.6(10) . . ? 
C00K C00A C00I 118.8(9) . . ? 
C00G C00B C00I 122.5(10) . . ? 
C00G C00B C00O 117.5(10) . . ? 
C00I C00B C00O 119.9(10) . . ? 
C00D C00C C00F 118.6(9) . . ? 
C00D C00C C007 122.2(9) . . ? 
C00F C00C C007 119.1(9) . . ? 
C00C C00D C00A 122.0(11) . . ? 
C00F C00E C00I 119.9(10) . . ? 
C00E C00F C00C 121.2(10) . . ? 
C00E C00F S2 123.8(9) . . ? 
C00C C00F S2 115.0(8) . . ? 
C00B C00G C00H 122.1(11) . . ? 
C00B C00G C009 119.4(10) . . ? 
C00H C00G C009 118.5(11) . . ? 
C00P C00H C00G 121.6(12) . . ? 
C00B C00I C00E 122.4(10) . . ? 
C00B C00I C00A 118.1(9) . . ? 
C00E C00I C00A 119.5(9) . . ? 
C00N C00J C009 121.1(11) . . ? 
C009 C00K C00A 121.6(10) . . ? 
C009 C00K C00M 121.2(10) . . ? 
C00A C00K C00M 117.2(10) . . ? 
C007 C00L S2 126.8(8) . . ? 
C007 C00L I1 117.6(8) . . ? 
S2 C00L I1 115.5(7) . . ? 
C00Q C00M C00K 178.1(13) . . ? 
C00J C00N C00P 119.5(11) . . ? 
C00J C00N S1 126.5(10) . . ? 
C00P C00N S1 114.0(9) . . ? 
C00T C00O C00B 179.3(14) . . ? 
C00H C00P C00N 120.3(10) . . ? 
C00H C00P C008 125.9(11) . . ? 
C00N C00P C008 113.7(11) . . ? 
C00M C00Q Si03 175.3(12) . . ? 
C00U C00R C00Z 115.8(16) . . ? 
C00U C00R C014 110.2(14) . . ? 
C00Z C00R C014 108.5(14) . . ? 
C008 C00S S1 128.0(10) . . ? 
C008 C00S I2 117.2(11) . . ? 
S1 C00S I2 114.8(10) . . ? 
C008 C00S I2' 141.5(11) . . ? 
S1 C00S I2' 90.4(9) . . ? 
I2 C00S I2' 24.4(2) . . ? 
C00O C00T Si04 179.2(14) . . ? 
C00W C00V Si03 120.9(13) . . ? 
C018 C00W C00V 125.8(18) . . ? 
C018 C00W C015 107(2) . . ? 
C00V C00W C015 112.9(18) . . ? 
C01C C00X C012 119(3) . . ? 
C01C C00X C01B 99(3) . . ? 
C012 C00X C01B 105(2) . . ? 
C011 C00Y Si04 108.0(19) . . ? 
C00R C00Z Si03 115.0(11) . . ? 
C01E C010 Si03 126(2) . . ? 
C01D C011 C00Y 111(5) . . ? 
C01D C011 C01A 64(3) . . ? 
C00Y C011 C01A 87(3) . . ? 
C00X C012 Si04 123.4(14) . . ? 
C017 C013 Si04 133(2) . . ? 
C013 C017 C016 118(2) . . ? 
C013 C017 C019 120(2) . . ? 
C016 C017 C019 109.2(18) . . ? 
C01D C01A C011 38.5(18) . . ? 
C011 C01D C01A 78(4) . . ? 
C998 C01E C010 125(5) . . ? 
C998 C01E C999 111(5) . . ? 
C010 C01E C999 115(4) . . ? 
 
_diffrn_measured_fraction_theta_max    0.960 
_diffrn_reflns_theta_full              58.72 
_diffrn_measured_fraction_theta_full   0.960 
_refine_diff_density_max    2.062 
_refine_diff_density_min   -1.376 
_refine_diff_density_rms    0.192 
