 
data_k05076 
 
_audit_creation_method            SHELXL-97 
_chemical_name_systematic 
; 
 ? 
; 
_chemical_name_common             ? 
_chemical_melting_point           ? 
_chemical_formula_moiety          ? 
_chemical_formula_sum 
 'C40 H50 S2 Si2' 
_chemical_formula_weight          651.10 
 
loop_ 
 _atom_type_symbol 
 _atom_type_description 
 _atom_type_scat_dispersion_real 
 _atom_type_scat_dispersion_imag 
 _atom_type_scat_source 
 'C'  'C'    .0033    .0016 
 'International Tables Vol C Tables 4.2.6.8 and 6.1.1.4' 
 'H'  'H'    .0000    .0000 
 'International Tables Vol C Tables 4.2.6.8 and 6.1.1.4' 
 'S'  'S'    .1246    .1234 
 'International Tables Vol C Tables 4.2.6.8 and 6.1.1.4' 
 'Si'  'Si'    .0817    .0704 
 'International Tables Vol C Tables 4.2.6.8 and 6.1.1.4' 
 
_symmetry_cell_setting            triclinic
_symmetry_space_group_name_H-M    'P -1'
 
loop_ 
 _symmetry_equiv_pos_as_xyz 
 'x, y, z' 
 '-x, -y, -z' 
 
_cell_length_a                    7.4155(2) 
_cell_length_b                    11.2295(3) 
_cell_length_c                    12.0044(3) 
_cell_angle_alpha                 73.6103(11) 
_cell_angle_beta                  76.7960(11) 
_cell_angle_gamma                 74.4249(11) 
_cell_volume                      911.11(4) 
_cell_formula_units_Z             1 
_cell_measurement_temperature     90.0(2) 
_cell_measurement_reflns_used     4123
_cell_measurement_theta_min       1.00
_cell_measurement_theta_max       27.48
 
_exptl_crystal_description        block
_exptl_crystal_colour             ?
_exptl_crystal_size_max           0.30 
_exptl_crystal_size_mid           0.18 
_exptl_crystal_size_min           0.15 
_exptl_crystal_density_meas       ? 
_exptl_crystal_density_diffrn     1.187 
_exptl_crystal_density_method     'not measured' 
_exptl_crystal_F_000              350 
_exptl_absorpt_coefficient_mu     0.239 
_exptl_absorpt_correction_type    multi-scan
_exptl_absorpt_correction_T_min   0.9318 
_exptl_absorpt_correction_T_max   0.9651 
_exptl_absorpt_process_details    'Scalepack (Otwinowski & Minor, 1997)'
 
_exptl_special_details 
; 
 ? 
; 
 
_diffrn_ambient_temperature       90.0(2) 
_diffrn_radiation_wavelength      0.71073 
_diffrn_radiation_type            MoK\a 
_diffrn_radiation_source          'fine-focus sealed tube' 
_diffrn_radiation_monochromator   graphite 
_diffrn_measurement_device_type   'Nonius KappaCCD diffractometer
_diffrn_measurement_method        '\w scans at fixed \c = 55\%'
_diffrn_detector_area_resol_mean  18
_diffrn_standards_number          ? 
_diffrn_standards_interval_count  ? 
_diffrn_standards_interval_time   ? 
_diffrn_standards_decay_%         ? 
_diffrn_reflns_number             8230 
_diffrn_reflns_av_R_equivalents   0.0299 
_diffrn_reflns_av_sigmaI/netI     0.0463 
_diffrn_reflns_limit_h_min        -9 
_diffrn_reflns_limit_h_max        9 
_diffrn_reflns_limit_k_min        -14 
_diffrn_reflns_limit_k_max        14 
_diffrn_reflns_limit_l_min        -15 
_diffrn_reflns_limit_l_max        15 
_diffrn_reflns_theta_min          1.79 
_diffrn_reflns_theta_max          27.45 
_reflns_number_total              4154 
_reflns_number_gt                 3238 
_reflns_threshold_expression      >2\s(I)    
 
_computing_data_collection        'COLLECT (Nonius, 1998)'
_computing_cell_refinement        'SCALEPACK (Otwinowski & Minor, 1997)'
_computing_data_reduction         'DENZO-SMN (Otwinowski & Minor, 1997)'
_computing_structure_solution     'SHELXS-97 (Sheldrick, 1990)' 
_computing_structure_refinement   'SHELXL-97 (Sheldrick, 1997)' 
_computing_molecular_graphics     'XP in SHELXTL (Sheldrick, 1994)'
_computing_publication_material
; 
SHELX97-2 (Sheldrick, 1997) and local procedures 
; 
 
_refine_special_details 
; 
 Refinement of F^2^ against ALL reflections.  The weighted R-factor wR and 
 goodness of fit S are based on F^2^, conventional R-factors R are based 
 on F, with F set to zero for negative F^2^. The threshold expression of 
 F^2^ > 2sigma(F^2^) is used only for calculating R-factors(gt) etc. and is 
 not relevant to the choice of reflections for refinement.  R-factors based 
 on F^2^ are statistically about twice as large as those based on F, and R- 
 factors based on ALL data will be even larger. 
; 
 
_refine_ls_structure_factor_coef  Fsqd  
_refine_ls_matrix_type            full 
_refine_ls_weighting_scheme       calc  
_refine_ls_weighting_details 
 'calc w=1/[\s^2^(Fo^2^)+(0.0398P)^2^+0.7342P] where P=(Fo^2^+2Fc^2^)/3' 
_atom_sites_solution_primary      direct 
_atom_sites_solution_secondary    difmap 
_atom_sites_solution_hydrogens    geom 
_refine_ls_hydrogen_treatment     mixed 
_refine_ls_extinction_method      none 
_refine_ls_extinction_coef        ? 
_refine_ls_number_reflns          4154 
_refine_ls_number_parameters      223 
_refine_ls_number_restraints      16 
_refine_ls_R_factor_all           0.0701 
_refine_ls_R_factor_gt            0.0497 
_refine_ls_wR_factor_ref          0.1261 
_refine_ls_wR_factor_gt           0.1186 
_refine_ls_goodness_of_fit_ref    1.118 
_refine_ls_restrained_S_all       1.116 
_refine_ls_shift/su_max           0.113 
_refine_ls_shift/su_mean          0.006 
 
loop_ 
 _atom_site_label 
 _atom_site_type_symbol 
 _atom_site_fract_x 
 _atom_site_fract_y 
 _atom_site_fract_z 
 _atom_site_U_iso_or_equiv 
 _atom_site_adp_type 
 _atom_site_occupancy 
 _atom_site_symmetry_multiplicity 
 _atom_site_calc_flag 
 _atom_site_refinement_flags 
 _atom_site_disorder_assembly 
 _atom_site_disorder_group 
Si1 Si 0.20755(8) 0.44236(6) 0.15864(5) 0.02295(16) Uani 1 1 d . . . 
C1 C 0.0575(3) 0.86633(19) 0.03213(18) 0.0211(4) Uani 1 1 d . . . 
C2 C -0.0274(3) 0.9332(2) 0.12082(18) 0.0210(4) Uani 1 1 d . B . 
C3 C -0.0549(3) 0.8695(2) 0.24201(18) 0.0233(4) Uani 1 1 d . . . 
H3 H -0.0195 0.7793 0.2637 0.028 Uiso 1 1 calc R A 1 
C4 C -0.129(3) 0.9337(10) 0.3257(8) 0.0206(13) Uani 0.728(3) 1 d PD B 1 
S5 S -0.17735(14) 0.87391(8) 0.47876(7) 0.0237(3) Uani 0.728(3) 1 d PD B 1 
C6 C -0.2720(17) 1.0279(8) 0.5031(5) 0.0204(11) Uani 0.728(3) 1 d PD B 1 
C7 C -0.2656(12) 1.1178(6) 0.4020(8) 0.0258(9) Uani 0.728(3) 1 d PD B 1 
H7 H -0.3076 1.2061 0.3994 0.031 Uiso 0.728(3) 1 calc PR B 1 
C8 C -0.190(2) 1.0696(9) 0.2985(6) 0.0184(11) Uani 0.728(3) 1 d PD B 1 
C4' C -0.148(9) 0.951(3) 0.324(2) 0.0206(13) Uani 0.272(3) 1 d PD B 2 
C5' C -0.1756(18) 0.9100(10) 0.4508(10) 0.0237(3) Uani 0.272(3) 1 d PD B 2 
H5' H -0.1478 0.8234 0.4925 0.028 Uiso 0.272(3) 1 calc PR B 2 
C6' C -0.244(5) 1.007(2) 0.5027(15) 0.0204(11) Uani 0.272(3) 1 d PD B 2 
S7' S -0.2924(8) 1.1558(4) 0.4027(5) 0.0258(9) Uani 0.272(3) 1 d PD B 2 
C8' C -0.197(7) 1.086(3) 0.2803(18) 0.0184(11) Uani 0.272(3) 1 d PD B 2 
C9 C -0.1698(3) 1.1373(2) 0.17765(18) 0.0238(4) Uani 1 1 d . . . 
H9 H -0.2123 1.2272 0.1572 0.029 Uiso 1 1 calc R B 1 
C10 C -0.0860(3) 1.06977(19) 0.08838(17) 0.0199(4) Uani 1 1 d . . . 
C11 C 0.1137(3) 0.7301(2) 0.06540(18) 0.0242(4) Uani 1 1 d . . . 
C12 C 0.1576(3) 0.6155(2) 0.09722(19) 0.0270(5) Uani 1 1 d . . . 
C13 C 0.3112(3) 0.3586(2) 0.03721(19) 0.0306(5) Uani 1 1 d . . . 
H13A H 0.2239 0.3870 -0.0210 0.037 Uiso 1 1 calc R . . 
H13B H 0.4327 0.3831 -0.0031 0.037 Uiso 1 1 calc R . . 
C14 C 0.3473(4) 0.2134(2) 0.0796(2) 0.0339(5) Uani 1 1 d . . . 
H14A H 0.4366 0.1842 0.1355 0.051 Uiso 1 1 calc R . . 
H14B H 0.4009 0.1749 0.0120 0.051 Uiso 1 1 calc R . . 
H14C H 0.2272 0.1882 0.1182 0.051 Uiso 1 1 calc R . . 
C15 C 0.3789(3) 0.4045(2) 0.26266(19) 0.0288(5) Uani 1 1 d . . . 
H15A H 0.4113 0.3110 0.2927 0.035 Uiso 1 1 calc R . . 
H15B H 0.4969 0.4310 0.2177 0.035 Uiso 1 1 calc R . . 
C16 C 0.3128(4) 0.4651(3) 0.3681(2) 0.0407(6) Uani 1 1 d . . . 
H16A H 0.2812 0.5579 0.3403 0.061 Uiso 1 1 calc R . . 
H16B H 0.4145 0.4406 0.4153 0.061 Uiso 1 1 calc R . . 
H16C H 0.2003 0.4358 0.4166 0.061 Uiso 1 1 calc R . . 
C17 C -0.0258(3) 0.4009(2) 0.2350(2) 0.0295(5) Uani 1 1 d . . . 
H17A H -0.0975 0.4025 0.1742 0.035 Uiso 1 1 calc R . . 
H17B H -0.0001 0.3124 0.2830 0.035 Uiso 1 1 calc R . . 
C18 C -0.1526(4) 0.4854(3) 0.3146(3) 0.0517(8) Uani 1 1 d . . . 
H18A H -0.0888 0.4788 0.3798 0.078 Uiso 1 1 calc R . . 
H18B H -0.2728 0.4579 0.3459 0.078 Uiso 1 1 calc R . . 
H18C H -0.1777 0.5739 0.2691 0.078 Uiso 1 1 calc R . . 
C19 C -0.3308(3) 1.0329(3) 0.62867(19) 0.0369(6) Uani 1 1 d . . . 
H19A H -0.2227 0.9882 0.6711 0.044 Uiso 1 1 calc R B 1 
H19B H -0.4354 0.9876 0.6641 0.044 Uiso 1 1 calc R B 1 
C20 C -0.3967(4) 1.1693(3) 0.6449(2) 0.0467(7) Uani 1 1 d . B . 
H20A H -0.2905 1.2131 0.6097 0.056 Uiso 1 1 calc R C 1 
H20B H -0.5016 1.2138 0.5997 0.056 Uiso 1 1 calc R C 1 
C21 C -0.4632(5) 1.1841(4) 0.7692(3) 0.0316(8) Uani 0.728(3) 1 d PU B 1 
H21A H -0.5749 1.1471 0.8037 0.047 Uiso 0.728(3) 1 calc PR B 1 
H21B H -0.4965 1.2746 0.7694 0.047 Uiso 0.728(3) 1 calc PR B 1 
H21C H -0.3615 1.1401 0.8157 0.047 Uiso 0.728(3) 1 calc PR B 1 
C21' C -0.4543(15) 1.1237(10) 0.7944(8) 0.028(2) Uiso 0.272(3) 1 d PU B 2 
H21D H -0.5029 1.1994 0.8268 0.042 Uiso 0.272(3) 1 calc PR B 2 
H21E H -0.3411 1.0720 0.8275 0.042 Uiso 0.272(3) 1 calc PR B 2 
H21F H -0.5519 1.0736 0.8147 0.042 Uiso 0.272(3) 1 calc PR B 2 
 
loop_ 
 _atom_site_aniso_label 
 _atom_site_aniso_U_11 
 _atom_site_aniso_U_22 
 _atom_site_aniso_U_33 
 _atom_site_aniso_U_23 
 _atom_site_aniso_U_13 
 _atom_site_aniso_U_12 
Si1 0.0256(3) 0.0200(3) 0.0218(3) -0.0029(2) -0.0033(2) -0.0052(2) 
C1 0.0196(10) 0.0206(10) 0.0247(10) -0.0040(8) -0.0054(8) -0.0070(8) 
C2 0.0180(9) 0.0230(10) 0.0226(10) -0.0032(8) -0.0046(8) -0.0068(8) 
C3 0.0209(10) 0.0232(11) 0.0249(11) -0.0019(8) -0.0055(8) -0.0060(8) 
C4 0.016(5) 0.023(3) 0.0215(10) -0.0005(15) -0.0050(12) -0.005(3) 
S5 0.0259(4) 0.0235(5) 0.0196(5) -0.0004(3) -0.0038(3) -0.0069(4) 
C6 0.013(4) 0.025(3) 0.0212(10) -0.0029(14) -0.0038(12) -0.003(2) 
C7 0.0280(17) 0.026(2) 0.0222(7) -0.0019(16) -0.0053(9) -0.0069(17) 
C8 0.0179(15) 0.018(3) 0.019(2) -0.001(2) -0.006(3) -0.005(2) 
C4' 0.016(5) 0.023(3) 0.0215(10) -0.0005(15) -0.0050(12) -0.005(3) 
C5' 0.0259(4) 0.0235(5) 0.0196(5) -0.0004(3) -0.0038(3) -0.0069(4) 
C6' 0.013(4) 0.025(3) 0.0212(10) -0.0029(14) -0.0038(12) -0.003(2) 
S7' 0.0280(17) 0.026(2) 0.0222(7) -0.0019(16) -0.0053(9) -0.0069(17) 
C8' 0.0179(15) 0.018(3) 0.019(2) -0.001(2) -0.006(3) -0.005(2) 
C9 0.0231(10) 0.0241(11) 0.0259(11) -0.0060(9) -0.0033(8) -0.0083(9) 
C10 0.0181(9) 0.0199(10) 0.0223(10) -0.0029(8) -0.0046(8) -0.0061(8) 
C11 0.0227(10) 0.0283(12) 0.0222(10) -0.0061(9) -0.0025(8) -0.0075(9) 
C12 0.0276(11) 0.0285(12) 0.0246(11) -0.0062(9) -0.0028(9) -0.0070(9) 
C13 0.0370(13) 0.0277(12) 0.0255(11) -0.0054(9) -0.0037(9) -0.0063(10) 
C14 0.0400(13) 0.0296(13) 0.0326(12) -0.0122(10) -0.0036(10) -0.0052(10) 
C15 0.0287(11) 0.0267(12) 0.0288(11) -0.0037(9) -0.0056(9) -0.0047(9) 
C16 0.0343(13) 0.0570(17) 0.0355(13) -0.0180(12) -0.0077(11) -0.0084(12) 
C17 0.0307(12) 0.0276(12) 0.0302(12) -0.0041(9) -0.0043(9) -0.0101(10) 
C18 0.0295(13) 0.076(2) 0.0598(18) -0.0377(16) 0.0089(12) -0.0188(14) 
C19 0.0274(12) 0.0655(18) 0.0215(11) -0.0074(11) -0.0026(9) -0.0206(12) 
C20 0.0325(13) 0.079(2) 0.0386(14) -0.0325(14) -0.0002(11) -0.0139(14) 
C21 0.0290(17) 0.043(2) 0.0243(16) -0.0107(16) -0.0017(13) -0.0102(17) 
 
_geom_special_details 
; 
 All esds (except the esd in the dihedral angle between two l.s. planes) 
 are estimated using the full covariance matrix.  The cell esds are taken 
 into account individually in the estimation of esds in distances, angles 
 and torsion angles; correlations between esds in cell parameters are only 
 used when they are defined by crystal symmetry.  An approximate (isotropic) 
 treatment of cell esds is used for estimating esds involving l.s. planes. 
; 
 
loop_ 
 _geom_bond_atom_site_label_1 
 _geom_bond_atom_site_label_2 
 _geom_bond_distance 
 _geom_bond_site_symmetry_2 
 _geom_bond_publ_flag 
Si1 C12 1.841(2) . ? 
Si1 C13 1.864(2) . ? 
Si1 C15 1.868(2) . ? 
Si1 C17 1.876(2) . ? 
C1 C2 1.409(3) . ? 
C1 C10 1.417(3) 2_575 ? 
C1 C11 1.436(3) . ? 
C2 C3 1.423(3) . ? 
C2 C10 1.441(3) . ? 
C3 C4 1.332(9) . ? 
C3 C4' 1.47(3) . ? 
C3 H3 0.9500 . ? 
C4 C8 1.435(6) . ? 
C4 S5 1.757(10) . ? 
S5 C6 1.763(7) . ? 
C6 C7 1.343(10) . ? 
C6 C19 1.483(6) . ? 
C7 C8 1.430(11) . ? 
C7 H7 0.9500 . ? 
C8 C9 1.430(7) . ? 
C4' C8' 1.430(15) . ? 
C4' C5' 1.44(2) . ? 
C5' C6' 1.332(19) . ? 
C5' H5' 0.9500 . ? 
C6' C19 1.578(17) . ? 
C6' S7' 1.76(2) . ? 
S7' C8' 1.77(2) . ? 
C8' C9 1.20(2) . ? 
C9 C10 1.418(3) . ? 
C9 H9 0.9500 . ? 
C10 C1 1.417(3) 2_575 ? 
C11 C12 1.210(3) . ? 
C13 C14 1.533(3) . ? 
C13 H13A 0.9900 . ? 
C13 H13B 0.9900 . ? 
C14 H14A 0.9800 . ? 
C14 H14B 0.9800 . ? 
C14 H14C 0.9800 . ? 
C15 C16 1.527(3) . ? 
C15 H15A 0.9900 . ? 
C15 H15B 0.9900 . ? 
C16 H16A 0.9800 . ? 
C16 H16B 0.9800 . ? 
C16 H16C 0.9800 . ? 
C17 C18 1.523(3) . ? 
C17 H17A 0.9900 . ? 
C17 H17B 0.9900 . ? 
C18 H18A 0.9800 . ? 
C18 H18B 0.9800 . ? 
C18 H18C 0.9800 . ? 
C19 C20 1.531(4) . ? 
C19 H19A 0.9900 . ? 
C19 H19B 0.9900 . ? 
C20 C21 1.503(4) . ? 
C20 C21' 1.707(10) . ? 
C20 H20A 0.9900 . ? 
C20 H20B 0.9900 . ? 
C21 H21A 0.9800 . ? 
C21 H21B 0.9800 . ? 
C21 H21C 0.9800 . ? 
C21' H21D 0.9800 . ? 
C21' H21E 0.9800 . ? 
C21' H21F 0.9800 . ? 
 
loop_ 
 _geom_angle_atom_site_label_1 
 _geom_angle_atom_site_label_2 
 _geom_angle_atom_site_label_3 
 _geom_angle 
 _geom_angle_site_symmetry_1 
 _geom_angle_site_symmetry_3 
 _geom_angle_publ_flag 
C12 Si1 C13 109.65(10) . . ? 
C12 Si1 C15 107.93(10) . . ? 
C13 Si1 C15 110.37(11) . . ? 
C12 Si1 C17 106.57(10) . . ? 
C13 Si1 C17 110.12(11) . . ? 
C15 Si1 C17 112.09(10) . . ? 
C2 C1 C10 121.55(19) . 2_575 ? 
C2 C1 C11 118.78(18) . . ? 
C10 C1 C11 119.66(19) 2_575 . ? 
C1 C2 C3 121.72(19) . . ? 
C1 C2 C10 119.27(18) . . ? 
C3 C2 C10 119.00(19) . . ? 
C4 C3 C2 121.4(5) . . ? 
C4 C3 C4' 6.5(19) . . ? 
C2 C3 C4' 115.7(11) . . ? 
C4 C3 H3 119.3 . . ? 
C2 C3 H3 119.3 . . ? 
C4' C3 H3 124.9 . . ? 
C3 C4 C8 122.0(9) . . ? 
C3 C4 S5 128.6(7) . . ? 
C8 C4 S5 109.4(7) . . ? 
C4 S5 C6 92.1(4) . . ? 
C7 C6 C19 133.2(6) . . ? 
C7 C6 S5 111.8(4) . . ? 
C19 C6 S5 114.9(5) . . ? 
C6 C7 C8 114.5(6) . . ? 
C6 C7 H7 122.8 . . ? 
C8 C7 H7 122.7 . . ? 
C9 C8 C7 129.3(7) . . ? 
C9 C8 C4 118.5(8) . . ? 
C7 C8 C4 112.2(7) . . ? 
C8' C4' C5' 114(2) . . ? 
C8' C4' C3 120(2) . . ? 
C5' C4' C3 126(2) . . ? 
C6' C5' C4' 112.3(15) . . ? 
C6' C5' H5' 123.9 . . ? 
C4' C5' H5' 123.8 . . ? 
C5' C6' C19 139.8(18) . . ? 
C5' C6' S7' 113.5(11) . . ? 
C19 C6' S7' 105.6(11) . . ? 
C6' S7' C8' 91.7(10) . . ? 
C9 C8' C4' 123(2) . . ? 
C9 C8' S7' 129(2) . . ? 
C4' C8' S7' 107.8(18) . . ? 
C8' C9 C10 123.2(13) . . ? 
C8' C9 C8 4(2) . . ? 
C10 C9 C8 119.8(4) . . ? 
C8' C9 H9 116.7 . . ? 
C10 C9 H9 120.1 . . ? 
C8 C9 H9 120.1 . . ? 
C1 C10 C9 121.49(19) 2_575 . ? 
C1 C10 C2 119.18(18) 2_575 . ? 
C9 C10 C2 119.33(18) . . ? 
C12 C11 C1 177.8(2) . . ? 
C11 C12 Si1 174.5(2) . . ? 
C14 C13 Si1 113.30(16) . . ? 
C14 C13 H13A 108.9 . . ? 
Si1 C13 H13A 108.9 . . ? 
C14 C13 H13B 108.9 . . ? 
Si1 C13 H13B 108.9 . . ? 
H13A C13 H13B 107.7 . . ? 
C13 C14 H14A 109.5 . . ? 
C13 C14 H14B 109.5 . . ? 
H14A C14 H14B 109.5 . . ? 
C13 C14 H14C 109.5 . . ? 
H14A C14 H14C 109.5 . . ? 
H14B C14 H14C 109.5 . . ? 
C16 C15 Si1 116.50(16) . . ? 
C16 C15 H15A 108.2 . . ? 
Si1 C15 H15A 108.2 . . ? 
C16 C15 H15B 108.2 . . ? 
Si1 C15 H15B 108.2 . . ? 
H15A C15 H15B 107.3 . . ? 
C15 C16 H16A 109.5 . . ? 
C15 C16 H16B 109.5 . . ? 
H16A C16 H16B 109.5 . . ? 
C15 C16 H16C 109.5 . . ? 
H16A C16 H16C 109.5 . . ? 
H16B C16 H16C 109.5 . . ? 
C18 C17 Si1 116.66(17) . . ? 
C18 C17 H17A 108.1 . . ? 
Si1 C17 H17A 108.1 . . ? 
C18 C17 H17B 108.1 . . ? 
Si1 C17 H17B 108.1 . . ? 
H17A C17 H17B 107.3 . . ? 
C17 C18 H18A 109.5 . . ? 
C17 C18 H18B 109.5 . . ? 
H18A C18 H18B 109.5 . . ? 
C17 C18 H18C 109.5 . . ? 
H18A C18 H18C 109.5 . . ? 
H18B C18 H18C 109.5 . . ? 
C6 C19 C20 112.6(4) . . ? 
C6 C19 C6' 9.4(10) . . ? 
C20 C19 C6' 120.4(9) . . ? 
C6 C19 H19A 109.1 . . ? 
C20 C19 H19A 109.1 . . ? 
C6' C19 H19A 100.6 . . ? 
C6 C19 H19B 109.0 . . ? 
C20 C19 H19B 109.1 . . ? 
C6' C19 H19B 109.0 . . ? 
H19A C19 H19B 107.8 . . ? 
C21 C20 C19 116.5(3) . . ? 
C21 C20 C21' 22.3(3) . . ? 
C19 C20 C21' 94.3(4) . . ? 
C21 C20 H20A 108.2 . . ? 
C19 C20 H20A 108.2 . . ? 
C21' C20 H20A 119.7 . . ? 
C21 C20 H20B 108.2 . . ? 
C19 C20 H20B 108.2 . . ? 
C21' C20 H20B 117.6 . . ? 
H20A C20 H20B 107.3 . . ? 
C20 C21 H21A 109.5 . . ? 
C20 C21 H21B 109.5 . . ? 
C20 C21 H21C 109.5 . . ? 
C20 C21' H21D 109.5 . . ? 
C20 C21' H21E 109.5 . . ? 
H21D C21' H21E 109.5 . . ? 
C20 C21' H21F 109.5 . . ? 
H21D C21' H21F 109.5 . . ? 
H21E C21' H21F 109.5 . . ? 
 
loop_ 
 _geom_torsion_atom_site_label_1 
 _geom_torsion_atom_site_label_2 
 _geom_torsion_atom_site_label_3 
 _geom_torsion_atom_site_label_4 
 _geom_torsion 
 _geom_torsion_site_symmetry_1 
 _geom_torsion_site_symmetry_2 
 _geom_torsion_site_symmetry_3 
 _geom_torsion_site_symmetry_4 
 _geom_torsion_publ_flag 
C10 C1 C2 C3 -179.49(18) 2_575 . . . ? 
C11 C1 C2 C3 1.3(3) . . . . ? 
C10 C1 C2 C10 -0.3(3) 2_575 . . . ? 
C11 C1 C2 C10 -179.41(17) . . . . ? 
C1 C2 C3 C4 177.6(13) . . . . ? 
C10 C2 C3 C4 -1.6(13) . . . . ? 
C1 C2 C3 C4' -179(3) . . . . ? 
C10 C2 C3 C4' 2(3) . . . . ? 
C2 C3 C4 C8 2(3) . . . . ? 
C4' C3 C4 C8 -27(31) . . . . ? 
C2 C3 C4 S5 179.2(12) . . . . ? 
C4' C3 C4 S5 150(35) . . . . ? 
C3 C4 S5 C6 -179(2) . . . . ? 
C8 C4 S5 C6 -0.9(16) . . . . ? 
C4 S5 C6 C7 -0.5(13) . . . . ? 
C4 S5 C6 C19 -177.1(11) . . . . ? 
C19 C6 C7 C8 177.5(13) . . . . ? 
S5 C6 C7 C8 1.8(15) . . . . ? 
C6 C7 C8 C9 177.4(14) . . . . ? 
C6 C7 C8 C4 -3(2) . . . . ? 
C3 C4 C8 C9 0(3) . . . . ? 
S5 C4 C8 C9 -177.9(12) . . . . ? 
C3 C4 C8 C7 179.9(17) . . . . ? 
S5 C4 C8 C7 2(2) . . . . ? 
C4 C3 C4' C8' 150(38) . . . . ? 
C2 C3 C4' C8' -3(7) . . . . ? 
C4 C3 C4' C5' -21(27) . . . . ? 
C2 C3 C4' C5' -174(4) . . . . ? 
C8' C4' C5' C6' 1(7) . . . . ? 
C3 C4' C5' C6' 172(5) . . . . ? 
C4' C5' C6' C19 169(5) . . . . ? 
C4' C5' C6' S7' 3(5) . . . . ? 
C5' C6' S7' C8' -5(3) . . . . ? 
C19 C6' S7' C8' -175(3) . . . . ? 
C5' C4' C8' C9 174(4) . . . . ? 
C3 C4' C8' C9 2(9) . . . . ? 
C5' C4' C8' S7' -4(6) . . . . ? 
C3 C4' C8' S7' -176(4) . . . . ? 
C6' S7' C8' C9 -174(5) . . . . ? 
C6' S7' C8' C4' 5(4) . . . . ? 
C4' C8' C9 C10 0(7) . . . . ? 
S7' C8' C9 C10 178(3) . . . . ? 
C4' C8' C9 C8 -32(39) . . . . ? 
S7' C8' C9 C8 146(47) . . . . ? 
C7 C8 C9 C8' -32(42) . . . . ? 
C4 C8 C9 C8' 148(44) . . . . ? 
C7 C8 C9 C10 178.4(12) . . . . ? 
C4 C8 C9 C10 -1.7(19) . . . . ? 
C8' C9 C10 C1 180(3) . . . 2_575 ? 
C8 C9 C10 C1 -177.9(8) . . . 2_575 ? 
C8' C9 C10 C2 -1(3) . . . . ? 
C8 C9 C10 C2 1.8(9) . . . . ? 
C1 C2 C10 C1 0.2(3) . . . 2_575 ? 
C3 C2 C10 C1 179.51(18) . . . 2_575 ? 
C1 C2 C10 C9 -179.41(18) . . . . ? 
C3 C2 C10 C9 -0.1(3) . . . . ? 
C2 C1 C11 C12 11(6) . . . . ? 
C10 C1 C11 C12 -168(6) 2_575 . . . ? 
C1 C11 C12 Si1 11(8) . . . . ? 
C13 Si1 C12 C11 157(2) . . . . ? 
C15 Si1 C12 C11 -83(2) . . . . ? 
C17 Si1 C12 C11 38(2) . . . . ? 
C12 Si1 C13 C14 -176.79(16) . . . . ? 
C15 Si1 C13 C14 64.44(19) . . . . ? 
C17 Si1 C13 C14 -59.8(2) . . . . ? 
C12 Si1 C15 C16 60.9(2) . . . . ? 
C13 Si1 C15 C16 -179.27(18) . . . . ? 
C17 Si1 C15 C16 -56.1(2) . . . . ? 
C12 Si1 C17 C18 -46.0(2) . . . . ? 
C13 Si1 C17 C18 -164.88(19) . . . . ? 
C15 Si1 C17 C18 71.8(2) . . . . ? 
C7 C6 C19 C20 -0.2(16) . . . . ? 
S5 C6 C19 C20 175.3(6) . . . . ? 
C7 C6 C19 C6' -147(14) . . . . ? 
S5 C6 C19 C6' 28(12) . . . . ? 
C5' C6' C19 C6 -143(17) . . . . ? 
S7' C6' C19 C6 24(11) . . . . ? 
C5' C6' C19 C20 -179(4) . . . . ? 
S7' C6' C19 C20 -12(3) . . . . ? 
C6 C19 C20 C21 178.7(6) . . . . ? 
C6' C19 C20 C21 -175.4(18) . . . . ? 
C6 C19 C20 C21' 177.6(7) . . . . ? 
C6' C19 C20 C21' -176.5(18) . . . . ? 
 
_diffrn_measured_fraction_theta_max     .997 
_diffrn_reflns_theta_full              27.45 
_diffrn_measured_fraction_theta_full    .997 
_refine_diff_density_max     .361 
_refine_diff_density_min    -.304 
_refine_diff_density_rms     .056 
