 
data_k05177 
 
_audit_creation_method            SHELXL-97 
_chemical_name_systematic 
; 
 ? 
; 
_chemical_name_common             ? 
_chemical_melting_point           ? 
_chemical_formula_moiety          ? 
_chemical_formula_sum 
 'C46 H62 S2 Si2' 
_chemical_formula_weight          735.26 
 
loop_ 
 _atom_type_symbol 
 _atom_type_description 
 _atom_type_scat_dispersion_real 
 _atom_type_scat_dispersion_imag 
 _atom_type_scat_source 
 'C'  'C'    .0033    .0016 
 'International Tables Vol C Tables 4.2.6.8 and 6.1.1.4' 
 'H'  'H'    .0000    .0000 
 'International Tables Vol C Tables 4.2.6.8 and 6.1.1.4' 
 'S'  'S'    .1246    .1234 
 'International Tables Vol C Tables 4.2.6.8 and 6.1.1.4' 
 'Si'  'Si'    .0817    .0704 
 'International Tables Vol C Tables 4.2.6.8 and 6.1.1.4' 
 
_symmetry_cell_setting            triclinic
_symmetry_space_group_name_H-M    'P -1'
 
loop_ 
 _symmetry_equiv_pos_as_xyz 
 'x, y, z' 
 '-x, -y, -z' 
 
_cell_length_a                    9.6979(3) 
_cell_length_b                    10.2742(3) 
_cell_length_c                    11.4437(4) 
_cell_angle_alpha                 106.9781(14) 
_cell_angle_beta                  100.7143(13) 
_cell_angle_gamma                 90.5583(14) 
_cell_volume                      1069.03(6) 
_cell_formula_units_Z             1 
_cell_measurement_temperature     90.0(2) 
_cell_measurement_reflns_used     4866
_cell_measurement_theta_min       1.00
_cell_measurement_theta_max       27.48
 
_exptl_crystal_description        block
_exptl_crystal_colour             'brown/purple'
_exptl_crystal_size_max           0.25 
_exptl_crystal_size_mid           0.20 
_exptl_crystal_size_min           0.15 
_exptl_crystal_density_meas       ? 
_exptl_crystal_density_diffrn     1.142 
_exptl_crystal_density_method     'not measured' 
_exptl_crystal_F_000              398 
_exptl_absorpt_coefficient_mu     0.211 
_exptl_absorpt_correction_type    multi-scan
_exptl_absorpt_correction_T_min   0.9492 
_exptl_absorpt_correction_T_max   0.9691 
_exptl_absorpt_process_details    'Scalepack (Otwinowski & Minor, 1997)'
 
_exptl_special_details 
; 
 ? 
; 
 
_diffrn_ambient_temperature       90.0(2) 
_diffrn_radiation_wavelength      0.71073 
_diffrn_radiation_type            MoK\a 
_diffrn_radiation_source          'fine-focus sealed tube' 
_diffrn_radiation_monochromator   graphite 
_diffrn_measurement_device_type   'Nonius KappaCCD diffractometer
_diffrn_measurement_method        '\w scans at fixed \c = 55\%'
_diffrn_detector_area_resol_mean  18
_diffrn_standards_number          ? 
_diffrn_standards_interval_count  ? 
_diffrn_standards_interval_time   ? 
_diffrn_standards_decay_%         ? 
_diffrn_reflns_number             7544 
_diffrn_reflns_av_R_equivalents   0.0408 
_diffrn_reflns_av_sigmaI/netI     0.0612 
_diffrn_reflns_limit_h_min        -11 
_diffrn_reflns_limit_h_max        11 
_diffrn_reflns_limit_k_min        -12 
_diffrn_reflns_limit_k_max        12 
_diffrn_reflns_limit_l_min        -13 
_diffrn_reflns_limit_l_max        13 
_diffrn_reflns_theta_min          1.90 
_diffrn_reflns_theta_max          24.99 
_reflns_number_total              3775 
_reflns_number_gt                 2194 
_reflns_threshold_expression      >2\s(I)    
 
_computing_data_collection        'COLLECT (Nonius, 1998)'
_computing_cell_refinement        'SCALEPACK (Otwinowski & Minor, 1997)'
_computing_data_reduction         'DENZO-SMN (Otwinowski & Minor, 1997)'
_computing_structure_solution     'SHELXS-97 (Sheldrick, 1990)' 
_computing_structure_refinement   'SHELXL-97 (Sheldrick, 1997)' 
_computing_molecular_graphics     'XP in SHELXTL (Sheldrick, 1994)'
_computing_publication_material
; 
SHELX97-2 (Sheldrick, 1997) and local procedures 
; 
 
_refine_special_details 
; 
 Refinement of F^2^ against ALL reflections.  The weighted R-factor wR and 
 goodness of fit S are based on F^2^, conventional R-factors R are based 
 on F, with F set to zero for negative F^2^. The threshold expression of 
 F^2^ > 2sigma(F^2^) is used only for calculating R-factors(gt) etc. and is 
 not relevant to the choice of reflections for refinement.  R-factors based 
 on F^2^ are statistically about twice as large as those based on F, and R- 
 factors based on ALL data will be even larger. 
; 
 
_refine_ls_structure_factor_coef  Fsqd  
_refine_ls_matrix_type            full 
_refine_ls_weighting_scheme       calc  
_refine_ls_weighting_details 
 'calc w=1/[\s^2^(Fo^2^)+(0.0976P)^2^+0.3676P] where P=(Fo^2^+2Fc^2^)/3' 
_atom_sites_solution_primary      direct 
_atom_sites_solution_secondary    difmap 
_atom_sites_solution_hydrogens    geom 
_refine_ls_hydrogen_treatment     constr 
_refine_ls_extinction_method      none 
_refine_ls_extinction_coef        ? 
_refine_ls_number_reflns          3775 
_refine_ls_number_parameters      268 
_refine_ls_number_restraints      102 
_refine_ls_R_factor_all           0.1205 
_refine_ls_R_factor_gt            0.0678 
_refine_ls_wR_factor_ref          0.2059 
_refine_ls_wR_factor_gt           0.1771 
_refine_ls_goodness_of_fit_ref    1.080 
_refine_ls_restrained_S_all       1.091 
_refine_ls_shift/su_max           0.118 
_refine_ls_shift/su_mean          0.007 
 
loop_ 
 _atom_site_label 
 _atom_site_type_symbol 
 _atom_site_fract_x 
 _atom_site_fract_y 
 _atom_site_fract_z 
 _atom_site_U_iso_or_equiv 
 _atom_site_adp_type 
 _atom_site_occupancy 
 _atom_site_symmetry_multiplicity 
 _atom_site_calc_flag 
 _atom_site_refinement_flags 
 _atom_site_disorder_assembly 
 _atom_site_disorder_group 
Si1 Si 0.67279(10) 0.08940(10) 0.25645(9) 0.0539(4) Uani 1 1 d U . . 
C1 C 0.5401(4) 0.4006(3) 0.0601(3) 0.0551(9) Uani 1 1 d U . . 
C2 C 0.6265(4) 0.4319(3) -0.0165(3) 0.0520(8) Uani 1 1 d U B . 
C3 C 0.7504(4) 0.3657(3) -0.0350(3) 0.0591(9) Uani 1 1 d U . . 
H3 H 0.7777 0.2979 0.0045 0.071 Uiso 1 1 calc R A 1 
C4 C 0.8323(4) 0.3981(4) -0.1099(3) 0.0601(9) Uani 0.567(4) 1 d PDU B 1 
S5 S 0.9892(3) 0.3240(3) -0.1404(3) 0.0808(9) Uani 0.567(4) 1 d PDU B 1 
C6 C 1.0197(18) 0.427(3) -0.219(2) 0.077(4) Uani 0.567(4) 1 d PDU B 1 
C7 C 0.9023(14) 0.5025(13) -0.2372(13) 0.0695(10) Uani 0.567(4) 1 d PDU B 1 
H7 H 0.8947 0.5534 -0.2951 0.083 Uiso 0.567(4) 1 calc PR B 1 
C8 C 0.7932(4) 0.5023(4) -0.1676(3) 0.0606(9) Uani 0.567(4) 1 d PDU B 1 
C4' C 0.8323(4) 0.3981(4) -0.1099(3) 0.0601(9) Uani 0.433(4) 1 d PDU B 2 
C5' C 0.9595(16) 0.3552(17) -0.1502(17) 0.0808(9) Uani 0.433(4) 1 d PDU B 2 
H5' H 1.0161 0.2945 -0.1169 0.097 Uiso 0.433(4) 1 calc PR B 2 
C6' C 0.997(3) 0.407(4) -0.242(3) 0.077(4) Uani 0.433(4) 1 d PDU B 2 
S7' S 0.9096(5) 0.5395(4) -0.2560(4) 0.0695(10) Uani 0.433(4) 1 d PDU B 2 
C8' C 0.7932(4) 0.5023(4) -0.1676(3) 0.0606(9) Uani 0.433(4) 1 d PDU B 2 
C9 C 0.6729(4) 0.5655(4) -0.1531(3) 0.0597(9) Uani 1 1 d U . . 
H9 H 0.6469 0.6320 -0.1944 0.072 Uiso 1 1 calc R B 1 
C10 C 0.5855(4) 0.5345(3) -0.0779(3) 0.0538(9) Uani 1 1 d U . . 
C11 C 0.5822(4) 0.3003(3) 0.1236(3) 0.0582(9) Uani 1 1 d U . . 
C12 C 0.6178(4) 0.2170(4) 0.1762(3) 0.0589(10) Uani 1 1 d U . . 
C13 C 0.5154(4) -0.0362(4) 0.2209(3) 0.0600(10) Uani 1 1 d U . . 
H13 H 0.4912 -0.0747 0.1281 0.072 Uiso 1 1 calc R . . 
C14 C 0.3831(4) 0.0271(4) 0.2609(4) 0.0781(12) Uani 1 1 d U . . 
H14A H 0.3034 -0.0413 0.2279 0.117 Uiso 1 1 calc R . . 
H14B H 0.3631 0.1046 0.2284 0.117 Uiso 1 1 calc R . . 
H14C H 0.3981 0.0585 0.3521 0.117 Uiso 1 1 calc R . . 
C15 C 0.5503(5) -0.1562(4) 0.2706(4) 0.0868(14) Uani 1 1 d U . . 
H15A H 0.5708 -0.1245 0.3619 0.130 Uiso 1 1 calc R . . 
H15B H 0.6327 -0.1976 0.2406 0.130 Uiso 1 1 calc R . . 
H15C H 0.4700 -0.2241 0.2413 0.130 Uiso 1 1 calc R . . 
C16 C 0.7355(4) 0.1861(4) 0.4253(3) 0.0660(10) Uani 1 1 d U . . 
H16 H 0.8101 0.2550 0.4271 0.079 Uiso 1 1 calc R . . 
C17 C 0.6244(5) 0.2681(6) 0.4875(4) 0.1132(18) Uani 1 1 d U . . 
H17A H 0.5566 0.2059 0.5018 0.170 Uiso 1 1 calc R . . 
H17B H 0.5754 0.3184 0.4332 0.170 Uiso 1 1 calc R . . 
H17C H 0.6700 0.3326 0.5674 0.170 Uiso 1 1 calc R . . 
C18 C 0.8087(5) 0.0972(5) 0.5033(4) 0.0927(15) Uani 1 1 d U . . 
H18A H 0.8469 0.1548 0.5884 0.139 Uiso 1 1 calc R . . 
H18B H 0.8854 0.0527 0.4654 0.139 Uiso 1 1 calc R . . 
H18C H 0.7403 0.0275 0.5056 0.139 Uiso 1 1 calc R . . 
C19 C 0.8200(4) 0.0023(4) 0.1894(3) 0.0626(10) Uani 1 1 d U . . 
H19 H 0.8458 -0.0707 0.2297 0.075 Uiso 1 1 calc R . . 
C20 C 0.9515(4) 0.0977(5) 0.2167(4) 0.0872(13) Uani 1 1 d U . . 
H20A H 1.0249 0.0474 0.1782 0.131 Uiso 1 1 calc R . . 
H20B H 0.9852 0.1335 0.3070 0.131 Uiso 1 1 calc R . . 
H20C H 0.9286 0.1736 0.1824 0.131 Uiso 1 1 calc R . . 
C21 C 0.7755(5) -0.0681(4) 0.0483(4) 0.0826(12) Uani 1 1 d U . . 
H21A H 0.7446 0.0000 0.0061 0.124 Uiso 1 1 calc R . . 
H21B H 0.6980 -0.1368 0.0328 0.124 Uiso 1 1 calc R . . 
H21C H 0.8556 -0.1124 0.0161 0.124 Uiso 1 1 calc R . . 
C22 C 1.1430(10) 0.4334(15) -0.2835(8) 0.113(4) Uani 0.567(4) 1 d PDU B 1 
H22A H 1.1633 0.5299 -0.2778 0.135 Uiso 0.567(4) 1 calc PR B 1 
H22B H 1.2265 0.4046 -0.2354 0.135 Uiso 0.567(4) 1 calc PR B 1 
C23 C 1.1275(8) 0.3497(12) -0.4183(7) 0.086(3) Uani 0.567(4) 1 d PDU B 1 
H23A H 1.0521 0.3870 -0.4678 0.103 Uiso 0.567(4) 1 calc PR B 1 
H23B H 1.0944 0.2557 -0.4257 0.103 Uiso 0.567(4) 1 calc PR B 1 
C24 C 1.2554(8) 0.3406(13) -0.4790(8) 0.079(4) Uani 0.567(4) 1 d PDU B 1 
H24A H 1.2755 0.4279 -0.4930 0.119 Uiso 0.567(4) 1 calc PR B 1 
H24B H 1.2365 0.2683 -0.5590 0.119 Uiso 0.567(4) 1 calc PR B 1 
H24C H 1.3368 0.3196 -0.4242 0.119 Uiso 0.567(4) 1 calc PR B 1 
C22' C 1.1319(8) 0.3606(9) -0.2854(8) 0.067(3) Uani 0.433(4) 1 d PRDU B 2 
H22C H 1.1249 0.2611 -0.3276 0.081 Uiso 0.433(4) 1 calc PR B 2 
H22D H 1.2136 0.3838 -0.2150 0.081 Uiso 0.433(4) 1 calc PR B 2 
C23' C 1.1425(11) 0.4426(12) -0.3772(12) 0.083(3) Uani 0.433(4) 1 d PDU B 2 
H23C H 1.0544 0.4255 -0.4407 0.099 Uiso 0.433(4) 1 calc PR B 2 
H23D H 1.1536 0.5412 -0.3315 0.099 Uiso 0.433(4) 1 calc PR B 2 
C24' C 1.2680(16) 0.4027(17) -0.4426(15) 0.095(6) Uani 0.433(4) 1 d PDU B 2 
H24C H 1.3555 0.4213 -0.3800 0.143 Uiso 0.433(4) 1 calc PR B 2 
H24D H 1.2718 0.4560 -0.5004 0.143 Uiso 0.433(4) 1 calc PR B 2 
H24E H 1.2565 0.3053 -0.4888 0.143 Uiso 0.433(4) 1 calc PR B 2 
 
loop_ 
 _atom_site_aniso_label 
 _atom_site_aniso_U_11 
 _atom_site_aniso_U_22 
 _atom_site_aniso_U_33 
 _atom_site_aniso_U_23 
 _atom_site_aniso_U_13 
 _atom_site_aniso_U_12 
Si1 0.0568(6) 0.0579(6) 0.0545(6) 0.0316(5) 0.0054(5) 0.0111(5) 
C1 0.074(2) 0.0386(18) 0.047(2) 0.0151(15) -0.0062(17) 0.0107(17) 
C2 0.064(2) 0.0417(19) 0.0439(19) 0.0114(15) -0.0044(16) 0.0108(16) 
C3 0.071(2) 0.045(2) 0.053(2) 0.0131(16) -0.0063(18) 0.0122(18) 
C4 0.064(2) 0.053(2) 0.051(2) 0.0055(16) -0.0021(17) 0.0090(18) 
S5 0.0628(16) 0.0905(19) 0.0638(12) -0.0042(10) -0.0071(11) 0.0291(10) 
C6 0.053(6) 0.118(9) 0.032(9) -0.008(8) -0.013(7) 0.000(6) 
C7 0.0794(15) 0.064(2) 0.0693(18) 0.0324(13) 0.0049(11) 0.0041(15) 
C8 0.068(2) 0.061(2) 0.046(2) 0.0111(17) 0.0000(17) 0.0064(18) 
C4' 0.064(2) 0.053(2) 0.051(2) 0.0055(16) -0.0021(17) 0.0090(18) 
C5' 0.0628(16) 0.0905(19) 0.0638(12) -0.0042(10) -0.0071(11) 0.0291(10) 
C6' 0.053(6) 0.118(9) 0.032(9) -0.008(8) -0.013(7) 0.000(6) 
S7' 0.0794(15) 0.064(2) 0.0693(18) 0.0324(13) 0.0049(11) 0.0041(15) 
C8' 0.068(2) 0.061(2) 0.046(2) 0.0111(17) 0.0000(17) 0.0064(18) 
C9 0.076(2) 0.053(2) 0.048(2) 0.0189(17) -0.0002(18) 0.0061(18) 
C10 0.068(2) 0.0433(19) 0.0446(19) 0.0136(15) -0.0035(16) 0.0100(17) 
C11 0.066(2) 0.051(2) 0.056(2) 0.0203(17) 0.0012(18) 0.0115(18) 
C12 0.064(2) 0.054(2) 0.062(2) 0.0276(18) 0.0038(18) 0.0121(18) 
C13 0.065(2) 0.060(2) 0.057(2) 0.0283(18) -0.0002(18) 0.0032(18) 
C14 0.066(2) 0.095(3) 0.077(3) 0.032(2) 0.013(2) -0.009(2) 
C15 0.100(3) 0.068(3) 0.086(3) 0.039(2) -0.022(2) -0.018(2) 
C16 0.062(2) 0.080(3) 0.058(2) 0.030(2) 0.0046(18) -0.006(2) 
C17 0.102(4) 0.133(4) 0.079(3) -0.011(3) 0.023(3) -0.005(3) 
C18 0.111(4) 0.102(3) 0.062(3) 0.047(2) -0.023(2) -0.035(3) 
C19 0.067(2) 0.067(2) 0.071(2) 0.044(2) 0.0172(19) 0.0208(19) 
C20 0.065(3) 0.118(4) 0.100(3) 0.056(3) 0.029(2) 0.021(2) 
C21 0.096(3) 0.085(3) 0.079(3) 0.034(2) 0.031(2) 0.033(2) 
C22 0.092(6) 0.159(13) 0.055(6) -0.015(6) 0.012(5) -0.005(7) 
C23 0.054(5) 0.128(8) 0.065(5) 0.019(5) 0.001(4) -0.004(5) 
C24 0.074(6) 0.103(11) 0.092(7) 0.067(8) 0.030(5) 0.037(6) 
C22' 0.045(5) 0.038(6) 0.107(9) 0.006(5) 0.012(5) -0.008(4) 
C23' 0.061(6) 0.091(9) 0.077(9) 0.004(7) 0.001(5) -0.028(7) 
C24' 0.098(10) 0.092(14) 0.108(11) 0.033(9) 0.043(8) 0.016(8) 
 
_geom_special_details 
; 
 All esds (except the esd in the dihedral angle between two l.s. planes) 
 are estimated using the full covariance matrix.  The cell esds are taken 
 into account individually in the estimation of esds in distances, angles 
 and torsion angles; correlations between esds in cell parameters are only 
 used when they are defined by crystal symmetry.  An approximate (isotropic) 
 treatment of cell esds is used for estimating esds involving l.s. planes. 
; 
 
loop_ 
 _geom_bond_atom_site_label_1 
 _geom_bond_atom_site_label_2 
 _geom_bond_distance 
 _geom_bond_site_symmetry_2 
 _geom_bond_publ_flag 
Si1 C12 1.838(3) . ? 
Si1 C19 1.860(4) . ? 
Si1 C16 1.877(4) . ? 
Si1 C13 1.894(4) . ? 
C1 C10 1.413(5) 2_665 ? 
C1 C2 1.417(5) . ? 
C1 C11 1.447(4) . ? 
C2 C3 1.406(5) . ? 
C2 C10 1.449(4) . ? 
C3 C4 1.374(5) . ? 
C3 H3 0.9500 . ? 
C4 C8 1.434(5) . ? 
C4 S5 1.756(4) . ? 
S5 C6 1.64(3) . ? 
C6 C7 1.40(3) . ? 
C6 C22 1.527(11) . ? 
C7 C8 1.438(12) . ? 
C7 H7 0.9500 . ? 
C8 C9 1.354(5) . ? 
C5' C6' 1.41(3) . ? 
C5' H5' 0.9500 . ? 
C6' C22' 1.516(12) . ? 
C6' S7' 1.64(4) . ? 
C9 C10 1.409(5) . ? 
C9 H9 0.9500 . ? 
C10 C1 1.413(5) 2_665 ? 
C11 C12 1.202(4) . ? 
C13 C15 1.518(5) . ? 
C13 C14 1.529(5) . ? 
C13 H13 1.0000 . ? 
C14 H14A 0.9800 . ? 
C14 H14B 0.9800 . ? 
C14 H14C 0.9800 . ? 
C15 H15A 0.9800 . ? 
C15 H15B 0.9800 . ? 
C15 H15C 0.9800 . ? 
C16 C17 1.526(6) . ? 
C16 C18 1.546(5) . ? 
C16 H16 1.0000 . ? 
C17 H17A 0.9800 . ? 
C17 H17B 0.9800 . ? 
C17 H17C 0.9800 . ? 
C18 H18A 0.9800 . ? 
C18 H18B 0.9800 . ? 
C18 H18C 0.9800 . ? 
C19 C20 1.528(5) . ? 
C19 C21 1.539(5) . ? 
C19 H19 1.0000 . ? 
C20 H20A 0.9800 . ? 
C20 H20B 0.9800 . ? 
C20 H20C 0.9800 . ? 
C21 H21A 0.9800 . ? 
C21 H21B 0.9800 . ? 
C21 H21C 0.9800 . ? 
C22 C23 1.510(9) . ? 
C22 H22A 0.9900 . ? 
C22 H22B 0.9900 . ? 
C23 C24 1.522(7) . ? 
C23 H23A 0.9900 . ? 
C23 H23B 0.9900 . ? 
C24 H24A 0.9800 . ? 
C24 H24B 0.9800 . ? 
C24 H24C 0.9800 . ? 
C22' C23' 1.543(9) . ? 
C22' H22C 0.9901 . ? 
C22' H22D 0.9900 . ? 
C23' C24' 1.542(9) . ? 
C23' H23C 0.9900 . ? 
C23' H23D 0.9900 . ? 
C24' H24C 0.9800 . ? 
C24' H24D 0.9800 . ? 
C24' H24E 0.9800 . ? 
 
loop_ 
 _geom_angle_atom_site_label_1 
 _geom_angle_atom_site_label_2 
 _geom_angle_atom_site_label_3 
 _geom_angle 
 _geom_angle_site_symmetry_1 
 _geom_angle_site_symmetry_3 
 _geom_angle_publ_flag 
C12 Si1 C19 107.56(16) . . ? 
C12 Si1 C16 106.44(16) . . ? 
C19 Si1 C16 110.29(17) . . ? 
C12 Si1 C13 106.41(15) . . ? 
C19 Si1 C13 110.14(17) . . ? 
C16 Si1 C13 115.56(17) . . ? 
C10 C1 C2 122.2(3) 2_665 . ? 
C10 C1 C11 118.7(3) 2_665 . ? 
C2 C1 C11 119.1(3) . . ? 
C3 C2 C1 121.8(3) . . ? 
C3 C2 C10 119.2(3) . . ? 
C1 C2 C10 118.9(3) . . ? 
C4 C3 C2 120.6(3) . . ? 
C4 C3 H3 119.7 . . ? 
C2 C3 H3 119.7 . . ? 
C3 C4 C8 119.9(3) . . ? 
C3 C4 S5 125.3(3) . . ? 
C8 C4 S5 114.8(3) . . ? 
C6 S5 C4 92.5(6) . . ? 
C7 C6 C22 121(2) . . ? 
C7 C6 S5 109.6(8) . . ? 
C22 C6 S5 128.5(19) . . ? 
C6 C7 C8 119.6(12) . . ? 
C6 C7 H7 120.3 . . ? 
C8 C7 H7 120.2 . . ? 
C9 C8 C4 120.4(3) . . ? 
C9 C8 C7 137.1(5) . . ? 
C4 C8 C7 102.3(5) . . ? 
C6' C5' H5' 121.7 . . ? 
C5' C6' C22' 117(3) . . ? 
C5' C6' S7' 112.1(10) . . ? 
C22' C6' S7' 129(2) . . ? 
C8 C9 C10 121.3(3) . . ? 
C8 C9 H9 119.3 . . ? 
C10 C9 H9 119.3 . . ? 
C9 C10 C1 122.7(3) . 2_665 ? 
C9 C10 C2 118.4(3) . . ? 
C1 C10 C2 118.9(3) 2_665 . ? 
C12 C11 C1 179.7(4) . . ? 
C11 C12 Si1 179.8(4) . . ? 
C15 C13 C14 111.0(3) . . ? 
C15 C13 Si1 112.1(2) . . ? 
C14 C13 Si1 114.7(3) . . ? 
C15 C13 H13 106.1 . . ? 
C14 C13 H13 106.1 . . ? 
Si1 C13 H13 106.1 . . ? 
C13 C14 H14A 109.5 . . ? 
C13 C14 H14B 109.5 . . ? 
H14A C14 H14B 109.5 . . ? 
C13 C14 H14C 109.5 . . ? 
H14A C14 H14C 109.5 . . ? 
H14B C14 H14C 109.5 . . ? 
C13 C15 H15A 109.5 . . ? 
C13 C15 H15B 109.5 . . ? 
H15A C15 H15B 109.5 . . ? 
C13 C15 H15C 109.5 . . ? 
H15A C15 H15C 109.5 . . ? 
H15B C15 H15C 109.5 . . ? 
C17 C16 C18 111.4(4) . . ? 
C17 C16 Si1 114.5(3) . . ? 
C18 C16 Si1 113.3(3) . . ? 
C17 C16 H16 105.6 . . ? 
C18 C16 H16 105.6 . . ? 
Si1 C16 H16 105.6 . . ? 
C16 C17 H17A 109.5 . . ? 
C16 C17 H17B 109.5 . . ? 
H17A C17 H17B 109.5 . . ? 
C16 C17 H17C 109.5 . . ? 
H17A C17 H17C 109.5 . . ? 
H17B C17 H17C 109.5 . . ? 
C16 C18 H18A 109.5 . . ? 
C16 C18 H18B 109.5 . . ? 
H18A C18 H18B 109.5 . . ? 
C16 C18 H18C 109.5 . . ? 
H18A C18 H18C 109.5 . . ? 
H18B C18 H18C 109.5 . . ? 
C20 C19 C21 110.3(3) . . ? 
C20 C19 Si1 112.8(3) . . ? 
C21 C19 Si1 111.7(3) . . ? 
C20 C19 H19 107.3 . . ? 
C21 C19 H19 107.3 . . ? 
Si1 C19 H19 107.3 . . ? 
C19 C20 H20A 109.5 . . ? 
C19 C20 H20B 109.5 . . ? 
H20A C20 H20B 109.5 . . ? 
C19 C20 H20C 109.5 . . ? 
H20A C20 H20C 109.5 . . ? 
H20B C20 H20C 109.5 . . ? 
C19 C21 H21A 109.5 . . ? 
C19 C21 H21B 109.5 . . ? 
H21A C21 H21B 109.5 . . ? 
C19 C21 H21C 109.5 . . ? 
H21A C21 H21C 109.5 . . ? 
H21B C21 H21C 109.5 . . ? 
C23 C22 C6 117.9(12) . . ? 
C23 C22 H22A 107.8 . . ? 
C6 C22 H22A 108.0 . . ? 
C23 C22 H22B 107.8 . . ? 
C6 C22 H22B 107.7 . . ? 
H22A C22 H22B 107.1 . . ? 
C22 C23 C24 118.5(7) . . ? 
C22 C23 H23A 107.7 . . ? 
C24 C23 H23A 107.7 . . ? 
C22 C23 H23B 107.7 . . ? 
C24 C23 H23B 107.7 . . ? 
H23A C23 H23B 107.1 . . ? 
C6' C22' C23' 101.9(16) . . ? 
C6' C22' H22C 111.5 . . ? 
C23' C22' H22C 111.3 . . ? 
C6' C22' H22D 111.4 . . ? 
C23' C22' H22D 111.4 . . ? 
H22C C22' H22D 109.2 . . ? 
C24' C23' C22' 111.3(9) . . ? 
C24' C23' H23C 109.4 . . ? 
C22' C23' H23C 109.4 . . ? 
C24' C23' H23D 109.4 . . ? 
C22' C23' H23D 109.3 . . ? 
H23C C23' H23D 108.0 . . ? 
C23' C24' H24C 109.5 . . ? 
C23' C24' H24D 109.5 . . ? 
H24C C24' H24D 109.5 . . ? 
C23' C24' H24E 109.5 . . ? 
H24C C24' H24E 109.5 . . ? 
H24D C24' H24E 109.5 . . ? 
 
loop_ 
 _geom_torsion_atom_site_label_1 
 _geom_torsion_atom_site_label_2 
 _geom_torsion_atom_site_label_3 
 _geom_torsion_atom_site_label_4 
 _geom_torsion 
 _geom_torsion_site_symmetry_1 
 _geom_torsion_site_symmetry_2 
 _geom_torsion_site_symmetry_3 
 _geom_torsion_site_symmetry_4 
 _geom_torsion_publ_flag 
C10 C1 C2 C3 -179.2(3) 2_665 . . . ? 
C11 C1 C2 C3 1.6(5) . . . . ? 
C10 C1 C2 C10 0.5(5) 2_665 . . . ? 
C11 C1 C2 C10 -178.7(3) . . . . ? 
C1 C2 C3 C4 180.0(3) . . . . ? 
C10 C2 C3 C4 0.4(5) . . . . ? 
C2 C3 C4 C8 1.4(5) . . . . ? 
C2 C3 C4 S5 179.8(3) . . . . ? 
C3 C4 S5 C6 -174.7(10) . . . . ? 
C8 C4 S5 C6 3.7(10) . . . . ? 
C4 S5 C6 C7 -8.6(17) . . . . ? 
C4 S5 C6 C22 -180(2) . . . . ? 
C22 C6 C7 C8 -175.2(15) . . . . ? 
S5 C6 C7 C8 13(2) . . . . ? 
C3 C4 C8 C9 -2.7(5) . . . . ? 
S5 C4 C8 C9 178.7(3) . . . . ? 
C3 C4 C8 C7 -179.1(7) . . . . ? 
S5 C4 C8 C7 2.3(7) . . . . ? 
C6 C7 C8 C9 175.0(15) . . . . ? 
C6 C7 C8 C4 -9.5(18) . . . . ? 
C4 C8 C9 C10 2.2(5) . . . . ? 
C7 C8 C9 C10 177.1(9) . . . . ? 
C8 C9 C10 C1 179.5(3) . . . 2_665 ? 
C8 C9 C10 C2 -0.5(5) . . . . ? 
C3 C2 C10 C9 -0.8(5) . . . . ? 
C1 C2 C10 C9 179.5(3) . . . . ? 
C3 C2 C10 C1 179.2(3) . . . 2_665 ? 
C1 C2 C10 C1 -0.4(5) . . . 2_665 ? 
C10 C1 C11 C12 -167(100) 2_665 . . . ? 
C2 C1 C11 C12 12(82) . . . . ? 
C1 C11 C12 Si1 -21(100) . . . . ? 
C19 Si1 C12 C11 -2(100) . . . . ? 
C16 Si1 C12 C11 116(100) . . . . ? 
C13 Si1 C12 C11 -120(100) . . . . ? 
C12 Si1 C13 C15 174.1(3) . . . . ? 
C19 Si1 C13 C15 57.8(3) . . . . ? 
C16 Si1 C13 C15 -68.0(3) . . . . ? 
C12 Si1 C13 C14 -58.2(3) . . . . ? 
C19 Si1 C13 C14 -174.5(2) . . . . ? 
C16 Si1 C13 C14 59.7(3) . . . . ? 
C12 Si1 C16 C17 60.3(4) . . . . ? 
C19 Si1 C16 C17 176.7(3) . . . . ? 
C13 Si1 C16 C17 -57.6(4) . . . . ? 
C12 Si1 C16 C18 -170.5(3) . . . . ? 
C19 Si1 C16 C18 -54.1(3) . . . . ? 
C13 Si1 C16 C18 71.7(3) . . . . ? 
C12 Si1 C19 C20 65.4(3) . . . . ? 
C16 Si1 C19 C20 -50.3(3) . . . . ? 
C13 Si1 C19 C20 -179.0(2) . . . . ? 
C12 Si1 C19 C21 -59.5(3) . . . . ? 
C16 Si1 C19 C21 -175.2(3) . . . . ? 
C13 Si1 C19 C21 56.1(3) . . . . ? 
C7 C6 C22 C23 -79(3) . . . . ? 
S5 C6 C22 C23 91(2) . . . . ? 
C6 C22 C23 C24 -172.4(17) . . . . ? 
C5' C6' C22' C23' -177(3) . . . . ? 
S7' C6' C22' C23' -16(3) . . . . ? 
C6' C22' C23' C24' -175.4(19) . . . . ? 
 
_diffrn_measured_fraction_theta_max    1.000 
_diffrn_reflns_theta_full              24.99 
_diffrn_measured_fraction_theta_full   1.000 
_refine_diff_density_max     .538 
_refine_diff_density_min    -.284 
_refine_diff_density_rms     .050 
