 
data_k06270 
 
_audit_creation_method            SHELXL-97 
_chemical_name_systematic 
; 
 ? 
; 
_chemical_name_common             ? 
_chemical_melting_point           ? 
_chemical_formula_moiety          
 'C34 H38 Ge2 S2' 
_chemical_formula_sum 
 'C34 H38 Ge2 S2' 
_chemical_formula_weight          655.94 
 
loop_ 
 _atom_type_symbol 
 _atom_type_description 
 _atom_type_scat_dispersion_real 
 _atom_type_scat_dispersion_imag 
 _atom_type_scat_source 
 'C'  'C'    .0033    .0016 
 'International Tables Vol C Tables 4.2.6.8 and 6.1.1.4' 
 'H'  'H'    .0000    .0000 
 'International Tables Vol C Tables 4.2.6.8 and 6.1.1.4' 
 'Ge'  'Ge'    .1547   1.8001 
 'International Tables Vol C Tables 4.2.6.8 and 6.1.1.4' 
 'S'  'S'    .1246    .1234 
 'International Tables Vol C Tables 4.2.6.8 and 6.1.1.4' 
 
_symmetry_cell_setting            triclinic
_symmetry_space_group_name_H-M    'P -1'
 
loop_ 
 _symmetry_equiv_pos_as_xyz 
 'x, y, z' 
 '-x, -y, -z' 
 
_cell_length_a                    6.7462(2) 
_cell_length_b                    7.3377(2) 
_cell_length_c                    16.3372(4) 
_cell_angle_alpha                 92.2320(11) 
_cell_angle_beta                  93.7446(10) 
_cell_angle_gamma                 104.2515(11) 
_cell_volume                      780.89(4) 
_cell_formula_units_Z             1 
_cell_measurement_temperature     90.0(2) 
_cell_measurement_reflns_used     3539
_cell_measurement_theta_min       1.00
_cell_measurement_theta_max       27.48
 
_exptl_crystal_description        plate
_exptl_crystal_colour             red
_exptl_crystal_size_max           0.25 
_exptl_crystal_size_mid           0.22 
_exptl_crystal_size_min           0.08 
_exptl_crystal_density_meas       ? 
_exptl_crystal_density_diffrn     1.395 
_exptl_crystal_density_method     'not measured' 
_exptl_crystal_F_000              338 
_exptl_absorpt_coefficient_mu     2.080 
_exptl_absorpt_correction_type    multi-scan
_exptl_absorpt_correction_T_min   0.6244 
_exptl_absorpt_correction_T_max   0.8513 
_exptl_absorpt_process_details    'Scalepack (Otwinowski & Minor, 1997)'
 
_exptl_special_details 
; 
 ? 
; 
 
_diffrn_ambient_temperature       90.0(2) 
_diffrn_radiation_wavelength      0.71073 
_diffrn_radiation_type            MoK\a 
_diffrn_radiation_source          'fine-focus sealed tube' 
_diffrn_radiation_monochromator   graphite 
_diffrn_measurement_device_type   'Nonius KappaCCD diffractometer'
_diffrn_measurement_method        '\w scans at fixed \c = 55\%'
_diffrn_detector_area_resol_mean  18
_diffrn_standards_number          ? 
_diffrn_standards_interval_count  ? 
_diffrn_standards_interval_time   ? 
_diffrn_standards_decay_%         ? 
_diffrn_reflns_number             7059 
_diffrn_reflns_av_R_equivalents   0.0244 
_diffrn_reflns_av_sigmaI/netI     0.0342 
_diffrn_reflns_limit_h_min        -8 
_diffrn_reflns_limit_h_max        8 
_diffrn_reflns_limit_k_min        -9 
_diffrn_reflns_limit_k_max        9 
_diffrn_reflns_limit_l_min        -21 
_diffrn_reflns_limit_l_max        21 
_diffrn_reflns_theta_min          1.25 
_diffrn_reflns_theta_max          27.44 
_reflns_number_total              3571 
_reflns_number_gt                 3060 
_reflns_threshold_expression      >2\s(I)    
 
_computing_data_collection        'COLLECT (Nonius, 1998)'
_computing_cell_refinement        'SCALEPACK (Otwinowski & Minor, 1997)'
_computing_data_reduction         'DENZO-SMN (Otwinowski & Minor, 1997)'
_computing_structure_solution     'SHELXS-97 (Sheldrick, 1990)' 
_computing_structure_refinement   'SHELXL-97 (Sheldrick, 1997)' 
_computing_molecular_graphics     'XP in SHELXTL (Sheldrick, 1994)'
_computing_publication_material
; 
SHELX97-2 (Sheldrick, 1997) and local procedures 
; 
 
_refine_special_details 
; 
 Refinement of F^2^ against ALL reflections.  The weighted R-factor wR and 
 goodness of fit S are based on F^2^, conventional R-factors R are based 
 on F, with F set to zero for negative F^2^. The threshold expression of 
 F^2^ > 2sigma(F^2^) is used only for calculating R-factors(gt) etc. and is 
 not relevant to the choice of reflections for refinement.  R-factors based 
 on F^2^ are statistically about twice as large as those based on F, and R- 
 factors based on ALL data will be even larger. 
; 
 
_refine_ls_structure_factor_coef  Fsqd  
_refine_ls_matrix_type            full 
_refine_ls_weighting_scheme       calc  
_refine_ls_weighting_details 
 'calc w=1/[\s^2^(Fo^2^)+(0.0299P)^2^+0.3246P] where P=(Fo^2^+2Fc^2^)/3' 
_atom_sites_solution_primary      direct 
_atom_sites_solution_secondary    difmap 
_atom_sites_solution_hydrogens    geom 
_refine_ls_hydrogen_treatment     constr 
_refine_ls_extinction_method      none 
_refine_ls_extinction_coef        ? 
_refine_ls_number_reflns          3571 
_refine_ls_number_parameters      188 
_refine_ls_number_restraints      165 
_refine_ls_R_factor_all           0.0379 
_refine_ls_R_factor_gt            0.0283 
_refine_ls_wR_factor_ref          0.0692 
_refine_ls_wR_factor_gt           0.0652 
_refine_ls_goodness_of_fit_ref    1.057 
_refine_ls_restrained_S_all       1.075 
_refine_ls_shift/su_max           0.001 
_refine_ls_shift/su_mean          0.000 
 
loop_ 
 _atom_site_label 
 _atom_site_type_symbol 
 _atom_site_fract_x 
 _atom_site_fract_y 
 _atom_site_fract_z 
 _atom_site_U_iso_or_equiv 
 _atom_site_adp_type 
 _atom_site_occupancy 
 _atom_site_symmetry_multiplicity 
 _atom_site_calc_flag 
 _atom_site_refinement_flags 
 _atom_site_disorder_assembly 
 _atom_site_disorder_group 
Ge1 Ge 0.17444(3) 0.53713(3) 0.828638(12) 0.02776(8) Uani 1 1 d . . . 
C1 C 0.4187(3) 0.5206(3) 0.57666(11) 0.0206(4) Uani 1 1 d . . . 
C2 C 0.6238(3) 0.6172(3) 0.56533(11) 0.0200(4) Uani 1 1 d . B . 
C3 C 0.7476(3) 0.7387(3) 0.62872(11) 0.0236(4) Uani 1 1 d U . . 
H3 H 0.6932 0.7584 0.6796 0.028 Uiso 1 1 calc R A 1 
C4 C 0.9463(3) 0.8276(3) 0.61608(12) 0.0243(4) Uani 0.797(3) 1 d PDU B 1 
S5 S 1.12717(13) 0.9832(2) 0.68362(7) 0.0313(2) Uani 0.797(3) 1 d PDU B 1 
C6 C 1.3127(4) 1.0023(4) 0.61315(18) 0.0295(6) Uani 0.797(3) 1 d PDU B 1 
H6 H 1.4481 1.0776 0.6263 0.035 Uiso 0.797(3) 1 calc PR B 1 
C7 C 1.2569(8) 0.9028(8) 0.5354(3) 0.0280(8) Uani 0.797(3) 1 d PDU B 1 
H7 H 1.3396 0.9020 0.4906 0.034 Uiso 0.797(3) 1 calc PR B 1 
C8 C 1.0330(3) 0.7974(3) 0.54064(12) 0.0240(4) Uani 0.797(3) 1 d PDU B 1 
C4' C 0.9463(3) 0.8276(3) 0.61608(12) 0.0243(4) Uani 0.203(3) 1 d PDU B 2 
C5' C 1.086(2) 0.970(3) 0.6780(12) 0.0271(16) Uiso 0.203(3) 1 d PDU B 2 
H5' H 1.0540 1.0155 0.7295 0.033 Uiso 0.203(3) 1 calc PR B 2 
C6' C 1.2712(17) 1.0198(16) 0.6420(6) 0.0270(15) Uiso 0.203(3) 1 d PDU B 2 
H6' H 1.3899 1.1039 0.6687 0.032 Uiso 0.203(3) 1 calc PR B 2 
S7' S 1.2691(10) 0.9219(10) 0.5499(3) 0.0315(10) Uiso 0.203(3) 1 d PDU B 2 
C8' C 1.0330(3) 0.7974(3) 0.54064(12) 0.0240(4) Uani 0.203(3) 1 d PDU B 2 
C9 C 0.9149(3) 0.6843(3) 0.47787(11) 0.0221(4) Uani 1 1 d U . . 
H9 H 0.9722 0.6668 0.4274 0.027 Uiso 1 1 calc R B 1 
C10 C 0.7068(3) 0.5929(2) 0.48790(11) 0.0200(4) Uani 1 1 d . . . 
C11 C 0.3401(3) 0.5370(3) 0.65511(12) 0.0230(4) Uani 1 1 d . . . 
C12 C 0.2757(3) 0.5459(3) 0.72166(12) 0.0281(4) Uani 1 1 d . . . 
C13 C -0.1240(3) 0.4866(4) 0.81496(14) 0.0381(5) Uani 1 1 d . . . 
H13A H -0.1794 0.4572 0.8689 0.046 Uiso 1 1 calc R . . 
H13B H -0.1614 0.6025 0.7978 0.046 Uiso 1 1 calc R . . 
C14 C -0.2263(4) 0.3265(4) 0.75300(16) 0.0462(6) Uani 1 1 d . . . 
H14A H -0.1748 0.3549 0.6990 0.069 Uiso 1 1 calc R . . 
H14B H -0.3751 0.3114 0.7495 0.069 Uiso 1 1 calc R . . 
H14C H -0.1951 0.2097 0.7704 0.069 Uiso 1 1 calc R . . 
C15 C 0.2608(4) 0.3319(3) 0.88137(14) 0.0392(5) Uani 1 1 d . . . 
H15A H 0.2386 0.2234 0.8409 0.047 Uiso 1 1 calc R . . 
H15B H 0.4096 0.3733 0.8976 0.047 Uiso 1 1 calc R . . 
C16 C 0.1488(7) 0.2680(5) 0.95610(19) 0.0813(12) Uani 1 1 d . . . 
H16A H 0.1737 0.3733 0.9973 0.122 Uiso 1 1 calc R . . 
H16B H 0.1986 0.1646 0.9791 0.122 Uiso 1 1 calc R . . 
H16C H 0.0014 0.2246 0.9405 0.122 Uiso 1 1 calc R . . 
C17 C 0.2924(4) 0.7780(3) 0.88992(14) 0.0425(6) Uani 1 1 d . . . 
H17A H 0.1987 0.8613 0.8809 0.051 Uiso 1 1 calc R . . 
H17B H 0.3007 0.7557 0.9493 0.051 Uiso 1 1 calc R . . 
C18 C 0.5043(4) 0.8794(4) 0.86676(18) 0.0539(7) Uani 1 1 d . . . 
H18A H 0.5996 0.7997 0.8769 0.081 Uiso 1 1 calc R . . 
H18B H 0.5526 0.9981 0.9000 0.081 Uiso 1 1 calc R . . 
H18C H 0.4974 0.9056 0.8084 0.081 Uiso 1 1 calc R . . 
 
loop_ 
 _atom_site_aniso_label 
 _atom_site_aniso_U_11 
 _atom_site_aniso_U_22 
 _atom_site_aniso_U_33 
 _atom_site_aniso_U_23 
 _atom_site_aniso_U_13 
 _atom_site_aniso_U_12 
Ge1 0.02922(13) 0.03223(13) 0.02203(12) -0.00008(8) 0.00856(8) 0.00662(9) 
C1 0.0225(9) 0.0203(9) 0.0205(9) 0.0027(7) 0.0047(7) 0.0069(7) 
C2 0.0198(9) 0.0192(9) 0.0218(9) 0.0032(7) 0.0035(7) 0.0054(7) 
C3 0.0240(9) 0.0243(10) 0.0222(9) 0.0000(7) 0.0032(7) 0.0054(7) 
C4 0.0225(8) 0.0219(8) 0.0280(8) 0.0005(7) -0.0014(7) 0.0055(7) 
S5 0.0247(5) 0.0306(4) 0.0353(4) -0.0052(3) -0.0035(4) 0.0031(4) 
C6 0.0198(11) 0.0294(13) 0.0375(15) 0.0000(11) 0.0016(10) 0.0033(10) 
C7 0.0234(13) 0.0260(16) 0.0336(19) -0.0046(15) -0.0072(14) 0.0079(11) 
C8 0.0214(8) 0.0211(8) 0.0305(8) 0.0044(7) 0.0030(7) 0.0066(7) 
C4' 0.0225(8) 0.0219(8) 0.0280(8) 0.0005(7) -0.0014(7) 0.0055(7) 
C8' 0.0214(8) 0.0211(8) 0.0305(8) 0.0044(7) 0.0030(7) 0.0066(7) 
C9 0.0203(8) 0.0220(9) 0.0253(9) 0.0041(7) 0.0067(7) 0.0060(7) 
C10 0.0194(9) 0.0179(9) 0.0240(9) 0.0039(7) 0.0045(7) 0.0061(7) 
C11 0.0204(9) 0.0209(9) 0.0269(10) 0.0014(7) 0.0033(7) 0.0033(7) 
C12 0.0277(10) 0.0287(11) 0.0269(10) 0.0001(8) 0.0061(8) 0.0045(8) 
C13 0.0327(11) 0.0508(14) 0.0334(11) -0.0003(10) 0.0105(9) 0.0134(10) 
C14 0.0305(12) 0.0566(16) 0.0490(14) -0.0058(12) 0.0073(10) 0.0061(11) 
C15 0.0465(13) 0.0407(13) 0.0323(12) 0.0019(10) 0.0036(10) 0.0146(11) 
C16 0.138(3) 0.082(2) 0.0456(17) 0.0308(16) 0.0381(19) 0.057(2) 
C17 0.0534(15) 0.0369(13) 0.0342(12) -0.0079(10) 0.0096(11) 0.0050(11) 
C18 0.0503(15) 0.0445(15) 0.0580(16) -0.0103(13) -0.0009(13) -0.0018(12) 
 
_geom_special_details 
; 
 All esds (except the esd in the dihedral angle between two l.s. planes) 
 are estimated using the full covariance matrix.  The cell esds are taken 
 into account individually in the estimation of esds in distances, angles 
 and torsion angles; correlations between esds in cell parameters are only 
 used when they are defined by crystal symmetry.  An approximate (isotropic) 
 treatment of cell esds is used for estimating esds involving l.s. planes. 
; 
 
loop_ 
 _geom_bond_atom_site_label_1 
 _geom_bond_atom_site_label_2 
 _geom_bond_distance 
 _geom_bond_site_symmetry_2 
 _geom_bond_publ_flag 
Ge1 C12 1.915(2) . ? 
Ge1 C13 1.952(2) . ? 
Ge1 C15 1.954(2) . ? 
Ge1 C17 1.956(2) . ? 
C1 C10 1.411(3) 2_666 ? 
C1 C2 1.419(2) . ? 
C1 C11 1.431(3) . ? 
C2 C3 1.419(3) . ? 
C2 C10 1.438(2) . ? 
C3 C4 1.371(3) . ? 
C3 H3 0.9500 . ? 
C4 C8 1.431(3) . ? 
C4 S5 1.747(2) . ? 
S5 C6 1.740(3) . ? 
C6 C7 1.420(5) . ? 
C6 H6 0.9500 . ? 
C7 C8 1.528(5) . ? 
C7 H7 0.9500 . ? 
C8 C9 1.370(3) . ? 
C5' C6' 1.387(16) . ? 
C5' H5' 0.9500 . ? 
C6' S7' 1.640(10) . ? 
C6' H6' 0.9500 . ? 
C9 C10 1.422(2) . ? 
C9 H9 0.9500 . ? 
C10 C1 1.411(3) 2_666 ? 
C11 C12 1.202(3) . ? 
C13 C14 1.516(3) . ? 
C13 H13A 0.9900 . ? 
C13 H13B 0.9900 . ? 
C14 H14A 0.9800 . ? 
C14 H14B 0.9800 . ? 
C14 H14C 0.9800 . ? 
C15 C16 1.507(4) . ? 
C15 H15A 0.9900 . ? 
C15 H15B 0.9900 . ? 
C16 H16A 0.9800 . ? 
C16 H16B 0.9800 . ? 
C16 H16C 0.9800 . ? 
C17 C18 1.520(4) . ? 
C17 H17A 0.9900 . ? 
C17 H17B 0.9900 . ? 
C18 H18A 0.9800 . ? 
C18 H18B 0.9800 . ? 
C18 H18C 0.9800 . ? 
 
loop_ 
 _geom_angle_atom_site_label_1 
 _geom_angle_atom_site_label_2 
 _geom_angle_atom_site_label_3 
 _geom_angle 
 _geom_angle_site_symmetry_1 
 _geom_angle_site_symmetry_3 
 _geom_angle_publ_flag 
C12 Ge1 C13 108.07(9) . . ? 
C12 Ge1 C15 106.09(9) . . ? 
C13 Ge1 C15 111.20(11) . . ? 
C12 Ge1 C17 109.30(10) . . ? 
C13 Ge1 C17 110.86(11) . . ? 
C15 Ge1 C17 111.13(11) . . ? 
C10 C1 C2 120.86(16) 2_666 . ? 
C10 C1 C11 119.90(16) 2_666 . ? 
C2 C1 C11 119.23(16) . . ? 
C1 C2 C3 121.13(16) . . ? 
C1 C2 C10 119.35(16) . . ? 
C3 C2 C10 119.51(16) . . ? 
C4 C3 C2 119.56(17) . . ? 
C4 C3 H3 120.2 . . ? 
C2 C3 H3 120.2 . . ? 
C3 C4 C8 121.28(18) . . ? 
C3 C4 S5 128.18(16) . . ? 
C8 C4 S5 110.53(14) . . ? 
C6 S5 C4 91.31(13) . . ? 
C7 C6 S5 118.4(3) . . ? 
C7 C6 H6 120.8 . . ? 
S5 C6 H6 120.8 . . ? 
C6 C7 C8 104.0(4) . . ? 
C6 C7 H7 128.0 . . ? 
C8 C7 H7 128.0 . . ? 
C9 C8 C4 120.13(17) . . ? 
C9 C8 C7 124.1(2) . . ? 
C4 C8 C7 115.7(2) . . ? 
C6' C5' H5' 127.9 . . ? 
C5' C6' S7' 114.9(10) . . ? 
C5' C6' H6' 122.6 . . ? 
S7' C6' H6' 122.6 . . ? 
C8 C9 C10 120.26(17) . . ? 
C8 C9 H9 119.9 . . ? 
C10 C9 H9 119.9 . . ? 
C1 C10 C9 121.10(16) 2_666 . ? 
C1 C10 C2 119.74(16) 2_666 . ? 
C9 C10 C2 119.16(17) . . ? 
C12 C11 C1 178.0(2) . . ? 
C11 C12 Ge1 174.87(19) . . ? 
C14 C13 Ge1 114.72(15) . . ? 
C14 C13 H13A 108.6 . . ? 
Ge1 C13 H13A 108.6 . . ? 
C14 C13 H13B 108.6 . . ? 
Ge1 C13 H13B 108.6 . . ? 
H13A C13 H13B 107.6 . . ? 
C13 C14 H14A 109.5 . . ? 
C13 C14 H14B 109.5 . . ? 
H14A C14 H14B 109.5 . . ? 
C13 C14 H14C 109.5 . . ? 
H14A C14 H14C 109.5 . . ? 
H14B C14 H14C 109.5 . . ? 
C16 C15 Ge1 113.80(19) . . ? 
C16 C15 H15A 108.8 . . ? 
Ge1 C15 H15A 108.8 . . ? 
C16 C15 H15B 108.8 . . ? 
Ge1 C15 H15B 108.8 . . ? 
H15A C15 H15B 107.7 . . ? 
C15 C16 H16A 109.5 . . ? 
C15 C16 H16B 109.5 . . ? 
H16A C16 H16B 109.5 . . ? 
C15 C16 H16C 109.5 . . ? 
H16A C16 H16C 109.5 . . ? 
H16B C16 H16C 109.5 . . ? 
C18 C17 Ge1 114.42(17) . . ? 
C18 C17 H17A 108.7 . . ? 
Ge1 C17 H17A 108.7 . . ? 
C18 C17 H17B 108.7 . . ? 
Ge1 C17 H17B 108.7 . . ? 
H17A C17 H17B 107.6 . . ? 
C17 C18 H18A 109.5 . . ? 
C17 C18 H18B 109.5 . . ? 
H18A C18 H18B 109.5 . . ? 
C17 C18 H18C 109.5 . . ? 
H18A C18 H18C 109.5 . . ? 
H18B C18 H18C 109.5 . . ? 
 
loop_ 
 _geom_torsion_atom_site_label_1 
 _geom_torsion_atom_site_label_2 
 _geom_torsion_atom_site_label_3 
 _geom_torsion_atom_site_label_4 
 _geom_torsion 
 _geom_torsion_site_symmetry_1 
 _geom_torsion_site_symmetry_2 
 _geom_torsion_site_symmetry_3 
 _geom_torsion_site_symmetry_4 
 _geom_torsion_publ_flag 
C10 C1 C2 C3 176.91(17) 2_666 . . . ? 
C11 C1 C2 C3 -4.0(3) . . . . ? 
C10 C1 C2 C10 -2.4(3) 2_666 . . . ? 
C11 C1 C2 C10 176.71(16) . . . . ? 
C1 C2 C3 C4 178.99(17) . . . . ? 
C10 C2 C3 C4 -1.7(3) . . . . ? 
C2 C3 C4 C8 -1.2(3) . . . . ? 
C2 C3 C4 S5 179.63(16) . . . . ? 
C3 C4 S5 C6 178.2(2) . . . . ? 
C8 C4 S5 C6 -1.00(17) . . . . ? 
C4 S5 C6 C7 1.7(3) . . . . ? 
S5 C6 C7 C8 -1.7(5) . . . . ? 
C3 C4 C8 C9 2.8(3) . . . . ? 
S5 C4 C8 C9 -177.89(15) . . . . ? 
C3 C4 C8 C7 -179.0(3) . . . . ? 
S5 C4 C8 C7 0.3(3) . . . . ? 
C6 C7 C8 C9 178.9(2) . . . . ? 
C6 C7 C8 C4 0.9(5) . . . . ? 
C4 C8 C9 C10 -1.4(3) . . . . ? 
C7 C8 C9 C10 -179.4(3) . . . . ? 
C8 C9 C10 C1 178.50(17) . . . 2_666 ? 
C8 C9 C10 C2 -1.5(3) . . . . ? 
C1 C2 C10 C1 2.4(3) . . . 2_666 ? 
C3 C2 C10 C1 -176.95(16) . . . 2_666 ? 
C1 C2 C10 C9 -177.60(17) . . . . ? 
C3 C2 C10 C9 3.1(3) . . . . ? 
C10 C1 C11 C12 85(6) 2_666 . . . ? 
C2 C1 C11 C12 -94(6) . . . . ? 
C1 C11 C12 Ge1 -14(8) . . . . ? 
C13 Ge1 C12 C11 -98(2) . . . . ? 
C15 Ge1 C12 C11 21(2) . . . . ? 
C17 Ge1 C12 C11 141(2) . . . . ? 
C12 Ge1 C13 C14 47.4(2) . . . . ? 
C15 Ge1 C13 C14 -68.6(2) . . . . ? 
C17 Ge1 C13 C14 167.19(18) . . . . ? 
C12 Ge1 C15 C16 -164.2(2) . . . . ? 
C13 Ge1 C15 C16 -46.9(2) . . . . ? 
C17 Ge1 C15 C16 77.1(2) . . . . ? 
C12 Ge1 C17 C18 -29.9(2) . . . . ? 
C13 Ge1 C17 C18 -148.95(19) . . . . ? 
C15 Ge1 C17 C18 86.8(2) . . . . ? 
 
_diffrn_measured_fraction_theta_max     .999 
_diffrn_reflns_theta_full              27.44 
_diffrn_measured_fraction_theta_full    .999 
_refine_diff_density_max     .391 
_refine_diff_density_min    -.309 
_refine_diff_density_rms     .060 
