 
data_x06156 
 
_audit_creation_method            SHELXL-97 
_chemical_name_systematic 
; 
 ? 
; 
_chemical_name_common             ? 
_chemical_melting_point           ? 
_chemical_formula_moiety          
 'C34 H36 F2 S2 Si2'  
_chemical_formula_sum 
 'C34 H36 F2 S2 Si2' 
_chemical_formula_weight          602.93 
 
loop_ 
 _atom_type_symbol 
 _atom_type_description 
 _atom_type_scat_dispersion_real 
 _atom_type_scat_dispersion_imag 
 _atom_type_scat_source 
 'C'  'C'    .0181    .0091 
 'International Tables Vol C Tables 4.2.6.8 and 6.1.1.4' 
 'H'  'H'    .0000    .0000 
 'International Tables Vol C Tables 4.2.6.8 and 6.1.1.4' 
 'F'  'F'    .0727    .0534 
 'International Tables Vol C Tables 4.2.6.8 and 6.1.1.4' 
 'Si'  'Si'    .2541    .3302 
 'International Tables Vol C Tables 4.2.6.8 and 6.1.1.4' 
 'S'  'S'    .3331    .5567 
 'International Tables Vol C Tables 4.2.6.8 and 6.1.1.4' 
 
_symmetry_cell_setting            triclinic
_symmetry_space_group_name_H-M    'P -1'
 
loop_ 
 _symmetry_equiv_pos_as_xyz 
 'x, y, z' 
 '-x, -y, -z' 
 
_cell_length_a                    7.1153(14) 
_cell_length_b                    7.2342(14) 
_cell_length_c                    16.626(3) 
_cell_angle_alpha                 97.522(9) 
_cell_angle_beta                  91.361(9) 
_cell_angle_gamma                 107.491(10) 
_cell_volume                      807.4(3) 
_cell_formula_units_Z             1 
_cell_measurement_temperature     295(2) 
_cell_measurement_reflns_used     3404
_cell_measurement_theta_min       5.38
_cell_measurement_theta_max       69.86
 
_exptl_crystal_description        'irregular block'
_exptl_crystal_colour             red
_exptl_crystal_size_max           0.22 
_exptl_crystal_size_mid           0.20 
_exptl_crystal_size_min           0.16 
_exptl_crystal_density_meas       ? 
_exptl_crystal_density_diffrn     1.240 
_exptl_crystal_density_method     'not measured' 
_exptl_crystal_F_000              318 
_exptl_absorpt_coefficient_mu     2.472 
_exptl_absorpt_correction_type    multi-scan
_exptl_absorpt_correction_T_min   0.6528
_exptl_absorpt_correction_T_max   0.6932 
_exptl_absorpt_process_details    'Sadabs in APEX2 (Bruker-Nonius, 2004)'
 
_exptl_special_details 
; 
Crystals undergo a destructive phase transition at temperatures below
room temperature.
; 
 
_diffrn_ambient_temperature       295(2) 
_diffrn_radiation_wavelength      1.54178 
_diffrn_radiation_type            CuK\a 
_diffrn_radiation_source          'fine-focus rotating anode' 
_diffrn_radiation_monochromator   'Helios multilayer optics'
_diffrn_measurement_device_type   'X8 Proteum diffractometer'
_diffrn_measurement_method        '\w and \f scans'
_diffrn_detector_area_resol_mean  18
_diffrn_standards_number          ? 
_diffrn_standards_interval_count  ? 
_diffrn_standards_interval_time   ? 
_diffrn_standards_decay_%         ? 
_diffrn_reflns_number             4302 
_diffrn_reflns_av_R_equivalents   0.0365 
_diffrn_reflns_av_sigmaI/netI     0.0442 
_diffrn_reflns_limit_h_min        -7 
_diffrn_reflns_limit_h_max        7 
_diffrn_reflns_limit_k_min        -7 
_diffrn_reflns_limit_k_max        7 
_diffrn_reflns_limit_l_min        -18 
_diffrn_reflns_limit_l_max        18 
_diffrn_reflns_theta_min          5.38 
_diffrn_reflns_theta_max          59.88 
_reflns_number_total              1924 
_reflns_number_gt                 1546 
_reflns_threshold_expression      >2\s(I)    
 
_computing_data_collection        'APEX2 (Bruker-Nonius, 2004)'
_computing_cell_refinement        'APEX2 (Bruker-Nonius, 2004)'
_computing_data_reduction         'APEX2 (Bruker-Nonius, 2004)'
_computing_structure_solution     'SHELXS-97 (Sheldrick, 1990)' 
_computing_structure_refinement   'SHELXL-97 (Sheldrick, 1997)' 
_computing_molecular_graphics     'XP in SHELXTL (Sheldrick, 1994)'
_computing_publication_material
; 
SHELX97-2 (Sheldrick, 1997) and local procedures 
; 
 
_refine_special_details 
; 
 Refinement of F^2^ against ALL reflections.  The weighted R-factor wR and 
 goodness of fit S are based on F^2^, conventional R-factors R are based 
 on F, with F set to zero for negative F^2^. The threshold expression of 
 F^2^ > 2sigma(F^2^) is used only for calculating R-factors(gt) etc. and is 
 not relevant to the choice of reflections for refinement.  R-factors based 
 on F^2^ are statistically about twice as large as those based on F, and R- 
 factors based on ALL data will be even larger. 
; 
 
_refine_ls_structure_factor_coef  Fsqd  
_refine_ls_matrix_type            full 
_refine_ls_weighting_scheme       calc  
_refine_ls_weighting_details 
 'calc w=1/[\s^2^(Fo^2^)+6.6215P] where P=(Fo^2^+2Fc^2^)/3' 
_atom_sites_solution_primary      direct 
_atom_sites_solution_secondary    difmap 
_atom_sites_solution_hydrogens    geom 
_refine_ls_hydrogen_treatment     constr 
_refine_ls_extinction_method      none 
_refine_ls_extinction_coef        ? 
_refine_ls_number_reflns          1924 
_refine_ls_number_parameters      221 
_refine_ls_number_restraints      219 
_refine_ls_R_factor_all           0.1506 
_refine_ls_R_factor_gt            0.1211 
_refine_ls_wR_factor_ref          0.2556 
_refine_ls_wR_factor_gt           0.2374 
_refine_ls_goodness_of_fit_ref    1.133 
_refine_ls_restrained_S_all       1.078 
_refine_ls_shift/su_max           0.002 
_refine_ls_shift/su_mean          0.000 
 
loop_ 
 _atom_site_label 
 _atom_site_type_symbol 
 _atom_site_fract_x 
 _atom_site_fract_y 
 _atom_site_fract_z 
 _atom_site_U_iso_or_equiv 
 _atom_site_adp_type 
 _atom_site_occupancy 
 _atom_site_symmetry_multiplicity 
 _atom_site_calc_flag 
 _atom_site_refinement_flags 
 _atom_site_disorder_assembly 
 _atom_site_disorder_group 
Si1 Si 0.2757(5) 0.8861(5) 0.67669(14) 0.0801(10) Uani 1 1 d . . . 
C1 C 0.0670(11) 0.9607(10) 0.9238(4) 0.0367(17) Uani 1 1 d . . . 
C2 C -0.1300(11) 0.8699(10) 0.9366(4) 0.0364(16) Uani 1 1 d . B . 
C3 C -0.2615(11) 0.7402(11) 0.8758(4) 0.0446(16) Uani 1 1 d U . . 
H3 H -0.2166 0.7098 0.8252 0.053 Uiso 1 1 calc R A 1 
C4 C -0.4506(10) 0.6594(10) 0.8896(4) 0.0456(15) Uani 0.733(7) 1 d PDU B 1 
S5 S -0.6308(5) 0.4927(9) 0.8216(2) 0.0657(12) Uani 0.733(7) 1 d PDU B 1 
C6 C -0.7986(16) 0.493(2) 0.8963(8) 0.057(2) Uani 0.733(7) 1 d PDU B 1 
F1 F -0.9835(10) 0.3885(15) 0.8744(5) 0.075(2) Uani 0.733(7) 1 d PDU B 1 
C7 C -0.729(3) 0.617(4) 0.9638(12) 0.051(3) Uani 0.733(7) 1 d PDU B 1 
H7 H -0.8069 0.6436 1.0052 0.061 Uiso 0.733(7) 1 calc PR B 1 
C8 C -0.5215(10) 0.7031(10) 0.9657(4) 0.0417(14) Uani 0.733(7) 1 d PDU B 1 
C4' C -0.4506(10) 0.6594(10) 0.8896(4) 0.0456(15) Uani 0.267(7) 1 d PDU B 2 
C5' C -0.601(4) 0.514(8) 0.838(2) 0.057(4) Uani 0.267(7) 1 d PDU B 2 
H5' H -0.5790 0.4483 0.7894 0.068 Uiso 0.267(7) 1 calc PR B 2 
F1' F -0.948(2) 0.369(4) 0.8362(13) 0.083(6) Uani 0.267(7) 1 d PDU B 2 
C6' C -0.776(3) 0.485(7) 0.8692(13) 0.060(4) Uani 0.267(7) 1 d PDU B 2 
S7' S -0.7701(16) 0.581(3) 0.9714(9) 0.064(3) Uani 0.267(7) 1 d PDU B 2 
C8' C -0.5215(10) 0.7031(10) 0.9657(4) 0.0417(14) Uani 0.267(7) 1 d PDU B 2 
C9 C -0.4007(10) 0.8282(10) 1.0262(4) 0.0381(15) Uani 1 1 d U . . 
H9 H -0.4501 0.8600 1.0756 0.046 Uiso 1 1 calc R B 1 
C10 C -0.2004(11) 0.9096(10) 1.0139(4) 0.0393(17) Uani 1 1 d . . . 
C11 C 0.1359(12) 0.9295(12) 0.8454(5) 0.049(2) Uani 1 1 d . . . 
C12 C 0.1912(13) 0.9051(12) 0.7788(5) 0.056(2) Uani 1 1 d . . . 
C13 C 0.5413(18) 0.916(2) 0.6840(6) 0.101(4) Uani 1 1 d . . . 
H13A H 0.5597 0.8018 0.7039 0.122 Uiso 1 1 calc R . . 
H13B H 0.5881 0.9172 0.6296 0.122 Uiso 1 1 calc R . . 
C14 C 0.667(2) 1.094(3) 0.7371(10) 0.152(7) Uani 1 1 d . . . 
H14A H 0.6489 1.2086 0.7189 0.228 Uiso 1 1 calc R . . 
H14B H 0.8034 1.0996 0.7344 0.228 Uiso 1 1 calc R . . 
H14C H 0.6308 1.0895 0.7921 0.228 Uiso 1 1 calc R . . 
C15 C 0.140(3) 0.634(2) 0.6232(7) 0.132(6) Uani 1 1 d . . . 
H15A H 0.1721 0.6266 0.5668 0.159 Uiso 1 1 calc R . . 
H15B H 0.1891 0.5404 0.6471 0.159 Uiso 1 1 calc R . . 
C16 C -0.070(3) 0.573(3) 0.6253(11) 0.202(10) Uani 1 1 d . . . 
H16A H -0.1056 0.5557 0.6798 0.303 Uiso 1 1 calc R . . 
H16B H -0.1259 0.4519 0.5897 0.303 Uiso 1 1 calc R . . 
H16C H -0.1206 0.6716 0.6078 0.303 Uiso 1 1 calc R . . 
C17 C 0.219(2) 1.0844(19) 0.6293(6) 0.107(4) Uani 1 1 d . . . 
H17A H 0.0771 1.0596 0.6264 0.129 Uiso 1 1 calc R . . 
H17B H 0.2778 1.2077 0.6645 0.129 Uiso 1 1 calc R . . 
C18 C 0.290(3) 1.106(3) 0.5457(7) 0.159(7) Uani 1 1 d . . . 
H18A H 0.4296 1.1706 0.5498 0.239 Uiso 1 1 calc R . . 
H18B H 0.2232 1.1821 0.5200 0.239 Uiso 1 1 calc R . . 
H18C H 0.2619 0.9787 0.5141 0.239 Uiso 1 1 calc R . . 
 
loop_ 
 _atom_site_aniso_label 
 _atom_site_aniso_U_11 
 _atom_site_aniso_U_22 
 _atom_site_aniso_U_33 
 _atom_site_aniso_U_23 
 _atom_site_aniso_U_13 
 _atom_site_aniso_U_12 
Si1 0.099(2) 0.107(2) 0.0398(14) 0.0032(13) 0.0130(13) 0.0426(19) 
C1 0.055(5) 0.035(4) 0.028(4) 0.005(3) 0.003(3) 0.025(4) 
C2 0.047(4) 0.034(4) 0.034(4) 0.007(3) 0.007(3) 0.019(3) 
C3 0.061(3) 0.044(4) 0.026(3) -0.003(3) 0.000(3) 0.014(3) 
C4 0.058(3) 0.039(3) 0.041(3) 0.008(2) -0.001(2) 0.017(3) 
S5 0.064(2) 0.071(3) 0.055(2) -0.0026(17) -0.0106(15) 0.0153(18) 
C6 0.058(4) 0.046(5) 0.067(5) 0.010(5) -0.004(3) 0.014(4) 
F1 0.063(3) 0.079(5) 0.068(5) 0.000(5) 0.000(3) 0.003(4) 
C7 0.054(4) 0.044(6) 0.058(4) 0.017(4) -0.001(3) 0.017(5) 
C8 0.056(3) 0.033(3) 0.043(3) 0.014(2) 0.002(2) 0.019(3) 
C4' 0.058(3) 0.039(3) 0.041(3) 0.008(2) -0.001(2) 0.017(3) 
C5' 0.062(5) 0.050(7) 0.055(6) 0.004(6) -0.009(5) 0.014(6) 
F1' 0.062(6) 0.089(12) 0.082(11) -0.006(11) -0.014(8) 0.008(9) 
C6' 0.058(5) 0.056(7) 0.065(6) 0.010(7) -0.010(5) 0.015(6) 
S7' 0.053(4) 0.058(8) 0.075(5) 0.003(5) 0.002(3) 0.012(4) 
C8' 0.056(3) 0.033(3) 0.043(3) 0.014(2) 0.002(2) 0.019(3) 
C9 0.050(4) 0.038(4) 0.033(3) 0.016(2) 0.009(3) 0.017(3) 
C10 0.045(5) 0.036(4) 0.041(4) 0.005(3) 0.002(3) 0.019(4) 
C11 0.058(5) 0.045(5) 0.042(5) -0.002(4) -0.003(4) 0.018(4) 
C12 0.063(6) 0.049(5) 0.056(5) 0.004(4) 0.007(4) 0.018(4) 
C13 0.114(10) 0.148(12) 0.065(7) 0.030(7) 0.038(7) 0.066(9) 
C14 0.081(10) 0.195(18) 0.149(14) -0.010(13) 0.010(9) 0.010(11) 
C15 0.186(16) 0.145(13) 0.053(7) -0.024(7) 0.001(9) 0.048(12) 
C16 0.19(2) 0.20(2) 0.127(14) -0.043(13) -0.006(14) -0.037(17) 
C17 0.160(12) 0.132(11) 0.053(6) 0.023(6) 0.019(7) 0.075(10) 
C18 0.237(19) 0.222(19) 0.079(8) 0.085(10) 0.053(10) 0.131(16) 
 
_geom_special_details 
; 
 All esds (except the esd in the dihedral angle between two l.s. planes) 
 are estimated using the full covariance matrix.  The cell esds are taken 
 into account individually in the estimation of esds in distances, angles 
 and torsion angles; correlations between esds in cell parameters are only 
 used when they are defined by crystal symmetry.  An approximate (isotropic) 
 treatment of cell esds is used for estimating esds involving l.s. planes. 
; 
 
loop_ 
 _geom_bond_atom_site_label_1 
 _geom_bond_atom_site_label_2 
 _geom_bond_distance 
 _geom_bond_site_symmetry_2 
 _geom_bond_publ_flag 
Si1 C12 1.816(9) . ? 
Si1 C13 1.837(12) . ? 
Si1 C17 1.863(12) . ? 
Si1 C15 1.879(15) . ? 
C1 C2 1.392(10) . ? 
C1 C11 1.418(10) . ? 
C1 C10 1.420(10) 2_577 ? 
C2 C3 1.399(10) . ? 
C2 C10 1.417(9) . ? 
C3 C4 1.334(10) . ? 
C3 H3 0.9300 . ? 
C4 C8 1.407(10) . ? 
C4 S5 1.738(7) . ? 
S5 C6 1.744(13) . ? 
C6 F1 1.320(11) . ? 
C6 C7 1.32(2) . ? 
C7 C8 1.417(18) . ? 
C7 H7 0.9300 . ? 
C8 C9 1.350(9) . ? 
C5' C6' 1.32(2) . ? 
C5' H5' 0.9300 . ? 
F1' C6' 1.318(13) . ? 
C6' S7' 1.744(15) . ? 
C9 C10 1.400(10) . ? 
C9 H9 0.9300 . ? 
C10 C1 1.420(10) 2_577 ? 
C11 C12 1.194(10) . ? 
C13 C14 1.490(18) . ? 
C13 H13A 0.9700 . ? 
C13 H13B 0.9700 . ? 
C14 H14A 0.9600 . ? 
C14 H14B 0.9600 . ? 
C14 H14C 0.9600 . ? 
C15 C16 1.43(2) . ? 
C15 H15A 0.9700 . ? 
C15 H15B 0.9700 . ? 
C16 H16A 0.9600 . ? 
C16 H16B 0.9600 . ? 
C16 H16C 0.9600 . ? 
C17 C18 1.500(14) . ? 
C17 H17A 0.9700 . ? 
C17 H17B 0.9700 . ? 
C18 H18A 0.9600 . ? 
C18 H18B 0.9600 . ? 
C18 H18C 0.9600 . ? 
 
loop_ 
 _geom_angle_atom_site_label_1 
 _geom_angle_atom_site_label_2 
 _geom_angle_atom_site_label_3 
 _geom_angle 
 _geom_angle_site_symmetry_1 
 _geom_angle_site_symmetry_3 
 _geom_angle_publ_flag 
C12 Si1 C13 108.6(4) . . ? 
C12 Si1 C17 105.8(4) . . ? 
C13 Si1 C17 112.4(6) . . ? 
C12 Si1 C15 107.4(6) . . ? 
C13 Si1 C15 109.1(7) . . ? 
C17 Si1 C15 113.2(7) . . ? 
C2 C1 C11 119.3(6) . . ? 
C2 C1 C10 122.1(6) . 2_577 ? 
C11 C1 C10 118.5(7) . 2_577 ? 
C1 C2 C3 122.4(6) . . ? 
C1 C2 C10 119.0(6) . . ? 
C3 C2 C10 118.6(7) . . ? 
C4 C3 C2 120.9(6) . . ? 
C4 C3 H3 119.6 . . ? 
C2 C3 H3 119.6 . . ? 
C3 C4 C8 120.5(5) . . ? 
C3 C4 S5 126.5(6) . . ? 
C8 C4 S5 113.0(4) . . ? 
C6 S5 C4 88.0(4) . . ? 
F1 C6 C7 128.1(13) . . ? 
F1 C6 S5 115.7(8) . . ? 
C7 C6 S5 115.7(10) . . ? 
C6 C7 C8 111.9(15) . . ? 
C6 C7 H7 124.0 . . ? 
C8 C7 H7 124.0 . . ? 
C9 C8 C4 120.9(6) . . ? 
C9 C8 C7 128.2(10) . . ? 
C4 C8 C7 110.6(9) . . ? 
C6' C5' H5' 124.3 . . ? 
F1' C6' C5' 127.6(18) . . ? 
F1' C6' S7' 116.1(13) . . ? 
C5' C6' S7' 115.3(13) . . ? 
C8 C9 C10 119.5(6) . . ? 
C8 C9 H9 120.2 . . ? 
C10 C9 H9 120.2 . . ? 
C9 C10 C2 119.6(6) . . ? 
C9 C10 C1 121.5(6) . 2_577 ? 
C2 C10 C1 118.8(7) . 2_577 ? 
C12 C11 C1 178.6(9) . . ? 
C11 C12 Si1 175.9(8) . . ? 
C14 C13 Si1 116.0(9) . . ? 
C14 C13 H13A 108.3 . . ? 
Si1 C13 H13A 108.3 . . ? 
C14 C13 H13B 108.3 . . ? 
Si1 C13 H13B 108.3 . . ? 
H13A C13 H13B 107.4 . . ? 
C13 C14 H14A 109.5 . . ? 
C13 C14 H14B 109.5 . . ? 
H14A C14 H14B 109.5 . . ? 
C13 C14 H14C 109.5 . . ? 
H14A C14 H14C 109.5 . . ? 
H14B C14 H14C 109.5 . . ? 
C16 C15 Si1 116.3(13) . . ? 
C16 C15 H15A 108.2 . . ? 
Si1 C15 H15A 108.2 . . ? 
C16 C15 H15B 108.2 . . ? 
Si1 C15 H15B 108.2 . . ? 
H15A C15 H15B 107.4 . . ? 
C15 C16 H16A 109.5 . . ? 
C15 C16 H16B 109.5 . . ? 
H16A C16 H16B 109.5 . . ? 
C15 C16 H16C 109.5 . . ? 
H16A C16 H16C 109.5 . . ? 
H16B C16 H16C 109.5 . . ? 
C18 C17 Si1 115.2(9) . . ? 
C18 C17 H17A 108.5 . . ? 
Si1 C17 H17A 108.5 . . ? 
C18 C17 H17B 108.5 . . ? 
Si1 C17 H17B 108.5 . . ? 
H17A C17 H17B 107.5 . . ? 
C17 C18 H18A 109.5 . . ? 
C17 C18 H18B 109.5 . . ? 
H18A C18 H18B 109.5 . . ? 
C17 C18 H18C 109.5 . . ? 
H18A C18 H18C 109.5 . . ? 
H18B C18 H18C 109.5 . . ? 
 
loop_ 
 _geom_torsion_atom_site_label_1 
 _geom_torsion_atom_site_label_2 
 _geom_torsion_atom_site_label_3 
 _geom_torsion_atom_site_label_4 
 _geom_torsion 
 _geom_torsion_site_symmetry_1 
 _geom_torsion_site_symmetry_2 
 _geom_torsion_site_symmetry_3 
 _geom_torsion_site_symmetry_4 
 _geom_torsion_publ_flag 
C11 C1 C2 C3 3.3(10) . . . . ? 
C10 C1 C2 C3 -179.2(7) 2_577 . . . ? 
C11 C1 C2 C10 -176.8(7) . . . . ? 
C10 C1 C2 C10 0.7(11) 2_577 . . . ? 
C1 C2 C3 C4 -178.3(7) . . . . ? 
C10 C2 C3 C4 1.8(11) . . . . ? 
C2 C3 C4 C8 -0.1(11) . . . . ? 
C2 C3 C4 S5 -178.6(6) . . . . ? 
C3 C4 S5 C6 -179.4(9) . . . . ? 
C8 C4 S5 C6 2.0(9) . . . . ? 
C4 S5 C6 F1 176.0(13) . . . . ? 
C4 S5 C6 C7 4.0(19) . . . . ? 
F1 C6 C7 C8 -179.7(15) . . . . ? 
S5 C6 C7 C8 -9(3) . . . . ? 
C3 C4 C8 C9 0.5(11) . . . . ? 
S5 C4 C8 C9 179.2(6) . . . . ? 
C3 C4 C8 C7 174.3(14) . . . . ? 
S5 C4 C8 C7 -7.0(15) . . . . ? 
C6 C7 C8 C9 -176.8(14) . . . . ? 
C6 C7 C8 C4 10(3) . . . . ? 
C4 C8 C9 C10 -2.5(10) . . . . ? 
C7 C8 C9 C10 -175.1(16) . . . . ? 
C8 C9 C10 C2 4.2(10) . . . . ? 
C8 C9 C10 C1 -179.0(6) . . . 2_577 ? 
C1 C2 C10 C9 176.3(6) . . . . ? 
C3 C2 C10 C9 -3.8(10) . . . . ? 
C1 C2 C10 C1 -0.6(11) . . . 2_577 ? 
C3 C2 C10 C1 179.2(6) . . . 2_577 ? 
C2 C1 C11 C12 64(37) . . . . ? 
C10 C1 C11 C12 -113(37) 2_577 . . . ? 
C1 C11 C12 Si1 42(44) . . . . ? 
C13 Si1 C12 C11 102(11) . . . . ? 
C17 Si1 C12 C11 -19(11) . . . . ? 
C15 Si1 C12 C11 -140(11) . . . . ? 
C12 Si1 C13 C14 -53.0(12) . . . . ? 
C17 Si1 C13 C14 63.7(12) . . . . ? 
C15 Si1 C13 C14 -169.8(11) . . . . ? 
C12 Si1 C15 C16 51.5(15) . . . . ? 
C13 Si1 C15 C16 169.0(13) . . . . ? 
C17 Si1 C15 C16 -65.0(15) . . . . ? 
C12 Si1 C17 C18 175.8(11) . . . . ? 
C13 Si1 C17 C18 57.4(13) . . . . ? 
C15 Si1 C17 C18 -66.8(14) . . . . ? 
 
_diffrn_measured_fraction_theta_max     .810 
_diffrn_reflns_theta_full              59.88 
_diffrn_measured_fraction_theta_full    .810 
_refine_diff_density_max     .473 
_refine_diff_density_min    -.416 
_refine_diff_density_rms     .097 
