 
data_k06143 
 
_audit_creation_method            SHELXL-97 
_chemical_name_systematic 
; 
 ? 
; 
_chemical_name_common             ? 
_chemical_melting_point           ? 
_chemical_formula_moiety          ? 
_chemical_formula_sum 
 'C40 H48 I2 S2 Si2' 
_chemical_formula_weight          902.88 
 
loop_ 
 _atom_type_symbol 
 _atom_type_description 
 _atom_type_scat_dispersion_real 
 _atom_type_scat_dispersion_imag 
 _atom_type_scat_source 
 'C'  'C'   0.0033   0.0016 
 'International Tables Vol C Tables 4.2.6.8 and 6.1.1.4' 
 'H'  'H'   0.0000   0.0000 
 'International Tables Vol C Tables 4.2.6.8 and 6.1.1.4' 
 'S'  'S'   0.1246   0.1234 
 'International Tables Vol C Tables 4.2.6.8 and 6.1.1.4' 
 'Si'  'Si'   0.0817   0.0704 
 'International Tables Vol C Tables 4.2.6.8 and 6.1.1.4' 
 'I'  'I'  -0.4742   1.8119 
 'International Tables Vol C Tables 4.2.6.8 and 6.1.1.4' 
 
_symmetry_cell_setting            triclinic 
_symmetry_space_group_name_H-M    'P-1' 
 
loop_ 
 _symmetry_equiv_pos_as_xyz 
 'x, y, z' 
 '-x, -y, -z' 
 
_cell_length_a                    8.9992(1) 
_cell_length_b                    10.4922(1) 
_cell_length_c                    11.2633(2) 
_cell_angle_alpha                 108.8144(7) 
_cell_angle_beta                  95.9468(6) 
_cell_angle_gamma                 92.1074(7) 
_cell_volume                      998.47(2) 
_cell_formula_units_Z             1 
_cell_measurement_temperature     90.0(2) 
_cell_measurement_reflns_used     4476 
_cell_measurement_theta_min       1.00 
_cell_measurement_theta_max       27.48 
 
_exptl_crystal_description        'irregular thin block' 
_exptl_crystal_colour             red 
_exptl_crystal_size_max           0.25 
_exptl_crystal_size_mid           0.11 
_exptl_crystal_size_min           0.06 
_exptl_crystal_density_meas       ? 
_exptl_crystal_density_diffrn     1.502 
_exptl_crystal_density_method     'not measured' 
_exptl_crystal_F_000              454 
_exptl_absorpt_coefficient_mu     1.766 
_exptl_absorpt_correction_type    multi-scan 
_exptl_absorpt_correction_T_min   0.6665 
_exptl_absorpt_correction_T_max   0.9014 
_exptl_absorpt_process_details    'Scalepack (Otwinowski & Minor, 1997)' 
 
_exptl_special_details 
; 
 ? 
; 
 
_diffrn_ambient_temperature       90.0(2) 
_diffrn_radiation_wavelength      0.71073 
_diffrn_radiation_type            MoK\a 
_diffrn_radiation_source          'fine-focus sealed tube' 
_diffrn_radiation_monochromator   graphite 
_diffrn_measurement_device_type   'Nonius KappaCCD diffractometer' 
_diffrn_measurement_method        '\w scans at fixed \c = 55\%' 
_diffrn_detector_area_resol_mean  18
_diffrn_standards_number          ? 
_diffrn_standards_interval_count  ? 
_diffrn_standards_interval_time   ? 
_diffrn_standards_decay_%         ? 
_diffrn_reflns_number             8082 
_diffrn_reflns_av_R_equivalents   0.0287 
_diffrn_reflns_av_sigmaI/netI     0.0416 
_diffrn_reflns_limit_h_min        -11 
_diffrn_reflns_limit_h_max        11 
_diffrn_reflns_limit_k_min        -13 
_diffrn_reflns_limit_k_max        13 
_diffrn_reflns_limit_l_min        -14 
_diffrn_reflns_limit_l_max        14 
_diffrn_reflns_theta_min          1.92 
_diffrn_reflns_theta_max          26.49 
_reflns_number_total              4135 
_reflns_number_gt                 2971 
_reflns_threshold_expression      >2\s(I) 
 
_computing_data_collection       'COLLECT (Nonius, 1997)'
_computing_cell_refinement       'DENZO-SMN (Nonius, 1997)'
_computing_data_reduction        'DENZO-SMN (Nonius, 1997)'
_computing_structure_solution    'SHELXS-97 (Sheldrick, 1990)'
_computing_structure_refinement  'SHELXL-97 (Sheldrick, 1997)'
_computing_molecular_graphics    'XP in SHELXTL (Bruker, 1995)'
_computing_publication_material  'SHELX-97 and local procedures' 
 
_refine_special_details 
; 
 Refinement of F^2^ against ALL reflections.  The weighted R-factor wR and 
 goodness of fit S are based on F^2^, conventional R-factors R are based 
 on F, with F set to zero for negative F^2^. The threshold expression of 
 F^2^ > 2sigma(F^2^) is used only for calculating R-factors(gt) etc. and is 
 not relevant to the choice of reflections for refinement.  R-factors based 
 on F^2^ are statistically about twice as large as those based on F, and R- 
 factors based on ALL data will be even larger. 
; 
 
_refine_ls_structure_factor_coef  Fsqd  
_refine_ls_matrix_type            full 
_refine_ls_weighting_scheme       calc  
_refine_ls_weighting_details 
 'calc w=1/[\s^2^(Fo^2^)+(0.0000P)^2^+2.5151P] where P=(Fo^2^+2Fc^2^)/3' 
_atom_sites_solution_primary      direct 
_atom_sites_solution_secondary    difmap 
_atom_sites_solution_hydrogens    geom 
_refine_ls_hydrogen_treatment     constr 
_refine_ls_extinction_method      SHELXL 
_refine_ls_extinction_coef        0.0033(7) 
_refine_ls_extinction_expression 
 'Fc^*^=kFc[1+0.001xFc^2^\l^3^/sin(2\q)]^-1/4^' 
_refine_ls_number_reflns          4135 
_refine_ls_number_parameters      349 
_refine_ls_number_restraints      348 
_refine_ls_R_factor_all           0.0762 
_refine_ls_R_factor_gt            0.0485 
_refine_ls_wR_factor_ref          0.1026 
_refine_ls_wR_factor_gt           0.0928 
_refine_ls_goodness_of_fit_ref    1.110 
_refine_ls_restrained_S_all       1.088 
_refine_ls_shift/su_max           0.002 
_refine_ls_shift/su_mean          0.000 
 
loop_ 
 _atom_site_label 
 _atom_site_type_symbol 
 _atom_site_fract_x 
 _atom_site_fract_y 
 _atom_site_fract_z 
 _atom_site_U_iso_or_equiv 
 _atom_site_adp_type 
 _atom_site_occupancy 
 _atom_site_symmetry_multiplicity 
 _atom_site_calc_flag 
 _atom_site_refinement_flags 
 _atom_site_disorder_assembly 
 _atom_site_disorder_group 
C1 C 0.5429(5) 0.9050(4) 0.5592(4) 0.0474(11) Uani 1 1 d . . . 
C2 C 0.6365(5) 0.9356(4) 0.4776(4) 0.0466(11) Uani 1 1 d . B . 
C3 C 0.7719(5) 0.8725(4) 0.4529(4) 0.0499(11) Uani 1 1 d . . . 
H3 H 0.8026 0.8110 0.4952 0.060 Uiso 1 1 calc R A 1 
C4 C 0.855(2) 0.897(2) 0.374(2) 0.0458(13) Uani 0.649(4) 1 d PDU B 1 
S5 S 1.0231(3) 0.8255(2) 0.3282(2) 0.0475(6) Uani 0.649(4) 1 d PDU B 1 
C6 C 1.0332(16) 0.9220(17) 0.2264(17) 0.0498(14) Uani 0.649(4) 1 d PDU B 1 
I1 I 1.2082(2) 0.89403(18) 0.11694(17) 0.0603(3) Uani 0.649(4) 1 d PDU B 1 
C7 C 0.9244(14) 1.0007(12) 0.2283(11) 0.0513(16) Uani 0.649(4) 1 d PDU B 1 
H7 H 0.9175 1.0596 0.1795 0.062 Uiso 0.649(4) 1 calc PR B 1 
C8 C 0.815(2) 0.991(2) 0.311(2) 0.0482(14) Uani 0.649(4) 1 d PDU B 1 
C8' C 0.811(4) 1.008(4) 0.308(4) 0.0482(14) Uani 0.351(4) 1 d PDU B 2 
S7' S 0.9327(8) 1.0267(7) 0.2004(6) 0.0644(14) Uani 0.351(4) 1 d PDU B 2 
C6' C 1.043(3) 0.904(3) 0.233(3) 0.054(2) Uani 0.351(4) 1 d PDU B 2 
I1' I 1.2237(5) 0.8570(4) 0.1315(4) 0.0968(11) Uani 0.351(4) 1 d PDU B 2 
C5' C 0.999(2) 0.8572(19) 0.3182(18) 0.0525(18) Uani 0.351(4) 1 d PDU B 2 
H5' H 1.0516 0.7949 0.3483 0.063 Uiso 0.351(4) 1 calc PR B 2 
C4' C 0.861(4) 0.909(4) 0.363(4) 0.0458(13) Uani 0.351(4) 1 d PDU B 2 
C9 C 0.6858(6) 1.0605(4) 0.3340(4) 0.0525(12) Uani 1 1 d . . . 
H9 H 0.6612 1.1257 0.2944 0.063 Uiso 1 1 calc R B 1 
C10 C 0.5927(5) 1.0327(4) 0.4171(4) 0.0461(11) Uani 1 1 d . . . 
C11 C 0.5838(5) 0.8073(4) 0.6191(4) 0.0502(11) Uani 1 1 d . C . 
C12 C 0.6166(5) 0.7266(5) 0.6713(4) 0.0520(12) Uani 1 1 d . . . 
Si1 Si 0.6614(3) 0.6074(3) 0.7552(2) 0.0379(5) Uani 0.795(4) 1 d PD C 1 
C13 C 0.7098(7) 0.7184(5) 0.9249(5) 0.0503(13) Uani 0.795(4) 1 d PDU C 1 
H13 H 0.7967 0.7807 0.9250 0.060 Uiso 0.795(4) 1 calc PR C 1 
C14 C 0.5864(11) 0.8102(10) 0.9757(9) 0.058(2) Uani 0.795(4) 1 d PDU C 1 
H14A H 0.5024 0.7560 0.9886 0.087 Uiso 0.795(4) 1 calc PR C 1 
H14B H 0.5518 0.8548 0.9148 0.087 Uiso 0.795(4) 1 calc PR C 1 
H14C H 0.6261 0.8786 1.0563 0.087 Uiso 0.795(4) 1 calc PR C 1 
C15 C 0.7660(9) 0.6417(7) 1.0116(6) 0.076(2) Uani 0.795(4) 1 d PDU C 1 
H15A H 0.8009 0.7056 1.0958 0.114 Uiso 0.795(4) 1 calc PR C 1 
H15B H 0.8491 0.5894 0.9775 0.114 Uiso 0.795(4) 1 calc PR C 1 
H15C H 0.6846 0.5803 1.0176 0.114 Uiso 0.795(4) 1 calc PR C 1 
C16 C 0.5001(7) 0.4767(6) 0.7227(5) 0.0553(14) Uani 0.795(4) 1 d PDU C 1 
H16 H 0.4780 0.4376 0.6287 0.066 Uiso 0.795(4) 1 calc PR C 1 
C17 C 0.3575(7) 0.5341(8) 0.7695(7) 0.072(2) Uani 0.795(4) 1 d PDU C 1 
H17A H 0.2744 0.4643 0.7366 0.108 Uiso 0.795(4) 1 calc PR C 1 
H17B H 0.3361 0.6107 0.7402 0.108 Uiso 0.795(4) 1 calc PR C 1 
H17C H 0.3694 0.5647 0.8621 0.108 Uiso 0.795(4) 1 calc PR C 1 
C18 C 0.5378(9) 0.3592(6) 0.7693(7) 0.0657(18) Uani 0.795(4) 1 d PDU C 1 
H18A H 0.5690 0.3934 0.8606 0.099 Uiso 0.795(4) 1 calc PR C 1 
H18B H 0.6194 0.3129 0.7260 0.099 Uiso 0.795(4) 1 calc PR C 1 
H18C H 0.4492 0.2957 0.7512 0.099 Uiso 0.795(4) 1 calc PR C 1 
C19 C 0.8304(7) 0.5225(6) 0.6945(5) 0.0557(14) Uani 0.795(4) 1 d PDU C 1 
H19 H 0.8592 0.4625 0.7450 0.067 Uiso 0.795(4) 1 calc PR C 1 
C20 C 0.7970(9) 0.4328(10) 0.5547(7) 0.070(2) Uani 0.795(4) 1 d PDU C 1 
H20A H 0.7754 0.4897 0.5020 0.104 Uiso 0.795(4) 1 calc PR C 1 
H20B H 0.7101 0.3694 0.5445 0.104 Uiso 0.795(4) 1 calc PR C 1 
H20C H 0.8842 0.3822 0.5289 0.104 Uiso 0.795(4) 1 calc PR C 1 
C21 C 0.9634(8) 0.6257(11) 0.7136(8) 0.081(2) Uani 0.795(4) 1 d PDU C 1 
H21A H 1.0462 0.5798 0.6718 0.121 Uiso 0.795(4) 1 calc PR C 1 
H21B H 0.9961 0.6680 0.8042 0.121 Uiso 0.795(4) 1 calc PR C 1 
H21C H 0.9330 0.6951 0.6770 0.121 Uiso 0.795(4) 1 calc PR C 1 
Si1' Si 0.6796(12) 0.6317(12) 0.7842(10) 0.0379(5) Uani 0.205(4) 1 d PDU C 2 
C13' C 0.8786(14) 0.6673(18) 0.8618(15) 0.053(4) Uani 0.205(4) 1 d PDU C 2 
H13' H 0.8893 0.7667 0.9083 0.064 Uiso 0.205(4) 1 calc PR C 2 
C14' C 0.909(3) 0.601(3) 0.964(2) 0.073(5) Uani 0.205(4) 1 d PDU C 2 
H14D H 0.8854 0.5033 0.9269 0.109 Uiso 0.205(4) 1 calc PR C 2 
H14E H 0.8457 0.6380 1.0313 0.109 Uiso 0.205(4) 1 calc PR C 2 
H14F H 1.0145 0.6194 0.9997 0.109 Uiso 0.205(4) 1 calc PR C 2 
C15' C 0.996(2) 0.644(4) 0.773(2) 0.077(6) Uani 0.205(4) 1 d PDU C 2 
H15D H 1.0952 0.6490 0.8204 0.116 Uiso 0.205(4) 1 calc PR C 2 
H15E H 0.9946 0.7123 0.7310 0.116 Uiso 0.205(4) 1 calc PR C 2 
H15F H 0.9758 0.5538 0.7090 0.116 Uiso 0.205(4) 1 calc PR C 2 
C16' C 0.5352(16) 0.6668(17) 0.8972(14) 0.048(3) Uani 0.205(4) 1 d PDU C 2 
H16' H 0.5515 0.6037 0.9467 0.058 Uiso 0.205(4) 1 calc PR C 2 
C17' C 0.556(3) 0.807(3) 0.993(3) 0.051(6) Uani 0.205(4) 1 d PDU C 2 
H17D H 0.6276 0.8626 0.9680 0.077 Uiso 0.205(4) 1 calc PR C 2 
H17E H 0.5934 0.8014 1.0763 0.077 Uiso 0.205(4) 1 calc PR C 2 
H17F H 0.4592 0.8476 0.9983 0.077 Uiso 0.205(4) 1 calc PR C 2 
C18' C 0.3738(16) 0.634(2) 0.835(2) 0.049(4) Uani 0.205(4) 1 d PDU C 2 
H18D H 0.3069 0.6846 0.8936 0.074 Uiso 0.205(4) 1 calc PR C 2 
H18E H 0.3476 0.5374 0.8118 0.074 Uiso 0.205(4) 1 calc PR C 2 
H18F H 0.3631 0.6606 0.7583 0.074 Uiso 0.205(4) 1 calc PR C 2 
C19' C 0.640(2) 0.4597(13) 0.6653(13) 0.050(3) Uani 0.205(4) 1 d PDU C 2 
H19' H 0.5357 0.4588 0.6246 0.060 Uiso 0.205(4) 1 calc PR C 2 
C20' C 0.634(3) 0.3476(17) 0.725(2) 0.059(4) Uani 0.205(4) 1 d PDU C 2 
H20D H 0.6025 0.2609 0.6595 0.089 Uiso 0.205(4) 1 calc PR C 2 
H20E H 0.5625 0.3677 0.7876 0.089 Uiso 0.205(4) 1 calc PR C 2 
H20F H 0.7337 0.3426 0.7673 0.089 Uiso 0.205(4) 1 calc PR C 2 
C21' C 0.737(3) 0.428(3) 0.557(2) 0.060(5) Uani 0.205(4) 1 d PDU C 2 
H21D H 0.8429 0.4421 0.5918 0.091 Uiso 0.205(4) 1 calc PR C 2 
H21E H 0.7154 0.4879 0.5073 0.091 Uiso 0.205(4) 1 calc PR C 2 
H21F H 0.7142 0.3339 0.5030 0.091 Uiso 0.205(4) 1 calc PR C 2 
 
loop_ 
 _atom_site_aniso_label 
 _atom_site_aniso_U_11 
 _atom_site_aniso_U_22 
 _atom_site_aniso_U_33 
 _atom_site_aniso_U_23 
 _atom_site_aniso_U_13 
 _atom_site_aniso_U_12 
C1 0.072(3) 0.033(2) 0.034(2) 0.0103(18) -0.004(2) 0.014(2) 
C2 0.066(3) 0.032(2) 0.036(2) 0.0068(18) -0.006(2) 0.011(2) 
C3 0.071(3) 0.035(2) 0.039(2) 0.0079(19) -0.007(2) 0.013(2) 
C4 0.062(2) 0.032(3) 0.040(3) 0.0105(19) -0.0052(18) 0.008(2) 
S5 0.0623(13) 0.0377(13) 0.0441(10) 0.0176(8) -0.0027(9) 0.0107(8) 
C6 0.066(3) 0.039(4) 0.046(3) 0.019(3) -0.001(3) 0.006(3) 
I1 0.0701(5) 0.0578(7) 0.0609(4) 0.0300(5) 0.0089(3) 0.0070(5) 
C7 0.073(3) 0.037(4) 0.048(4) 0.022(2) -0.002(3) 0.008(3) 
C8 0.065(2) 0.034(4) 0.042(2) 0.012(2) -0.0047(18) 0.007(2) 
C8' 0.065(2) 0.034(4) 0.042(2) 0.012(2) -0.0047(18) 0.007(2) 
S7' 0.083(3) 0.054(3) 0.061(3) 0.0247(19) 0.009(2) 0.008(2) 
C6' 0.066(4) 0.042(5) 0.048(4) 0.010(3) -0.002(3) 0.004(3) 
I1' 0.1023(17) 0.075(2) 0.102(2) 0.0049(12) 0.0379(15) 0.0088(13) 
C5' 0.064(4) 0.039(4) 0.049(4) 0.011(3) -0.006(3) 0.008(3) 
C4' 0.062(2) 0.032(3) 0.040(3) 0.0105(19) -0.0052(18) 0.008(2) 
C9 0.078(3) 0.040(2) 0.040(2) 0.017(2) -0.001(2) 0.015(2) 
C10 0.068(3) 0.033(2) 0.032(2) 0.0067(18) -0.005(2) 0.012(2) 
C11 0.066(3) 0.040(2) 0.046(3) 0.016(2) 0.005(2) 0.019(2) 
C12 0.063(3) 0.049(3) 0.050(3) 0.020(2) 0.014(2) 0.025(2) 
Si1 0.0427(9) 0.0371(13) 0.0360(13) 0.0145(9) 0.0031(9) 0.0123(8) 
C13 0.059(3) 0.043(3) 0.049(3) 0.016(2) 0.003(2) 0.002(2) 
C14 0.070(5) 0.059(4) 0.045(4) 0.008(3) 0.029(3) 0.001(3) 
C15 0.110(6) 0.060(4) 0.051(4) 0.019(3) -0.022(4) -0.009(4) 
C16 0.063(3) 0.057(3) 0.045(3) 0.017(3) 0.001(3) 0.004(3) 
C17 0.057(4) 0.082(5) 0.078(5) 0.028(4) 0.005(3) 0.003(3) 
C18 0.086(5) 0.052(4) 0.059(4) 0.021(3) 0.004(4) -0.004(3) 
C19 0.064(3) 0.060(4) 0.052(3) 0.026(3) 0.009(3) 0.030(3) 
C20 0.085(6) 0.073(4) 0.053(3) 0.016(3) 0.021(4) 0.038(4) 
C21 0.048(4) 0.112(6) 0.078(5) 0.026(5) 0.008(4) 0.018(3) 
Si1' 0.0427(9) 0.0371(13) 0.0360(13) 0.0145(9) 0.0031(9) 0.0123(8) 
C13' 0.044(4) 0.053(9) 0.065(10) 0.023(7) -0.003(5) 0.008(7) 
C14' 0.074(10) 0.060(10) 0.079(10) 0.031(8) -0.035(7) 0.001(9) 
C15' 0.040(5) 0.094(12) 0.082(12) 0.008(11) 0.004(8) 0.011(10) 
C16' 0.055(5) 0.046(6) 0.049(6) 0.019(5) 0.016(4) 0.008(6) 
C17' 0.059(10) 0.053(8) 0.046(9) 0.015(7) 0.026(8) 0.008(8) 
C18' 0.049(5) 0.047(9) 0.058(9) 0.018(7) 0.024(6) 0.014(7) 
C19' 0.061(7) 0.047(5) 0.043(6) 0.013(4) 0.009(5) 0.005(6) 
C20' 0.084(11) 0.039(5) 0.052(9) 0.012(7) -0.001(9) 0.006(9) 
C21' 0.069(10) 0.061(9) 0.052(7) 0.014(6) 0.021(7) 0.034(9) 
 
_geom_special_details 
; 
 All esds (except the esd in the dihedral angle between two l.s. planes) 
 are estimated using the full covariance matrix.  The cell esds are taken 
 into account individually in the estimation of esds in distances, angles 
 and torsion angles; correlations between esds in cell parameters are only 
 used when they are defined by crystal symmetry.  An approximate (isotropic) 
 treatment of cell esds is used for estimating esds involving l.s. planes. 
; 
 
loop_ 
 _geom_bond_atom_site_label_1 
 _geom_bond_atom_site_label_2 
 _geom_bond_distance 
 _geom_bond_site_symmetry_2 
 _geom_bond_publ_flag 
C1 C2 1.409(6) . ? 
C1 C10 1.415(6) 2_676 ? 
C1 C11 1.437(6) . ? 
C2 C3 1.419(6) . ? 
C2 C10 1.443(6) . ? 
C3 C4 1.298(12) . ? 
C3 C4' 1.493(18) . ? 
C3 H3 0.9500 . ? 
C4 C8 1.426(7) . ? 
C4 S5 1.764(15) . ? 
S5 C6 1.764(10) . ? 
C6 C7 1.301(14) . ? 
C6 I1 2.071(6) . ? 
C7 C8 1.441(16) . ? 
C7 H7 0.9500 . ? 
C8 C9 1.402(12) . ? 
C8' C9 1.295(18) . ? 
C8' C4' 1.428(9) . ? 
C8' S7' 1.764(19) . ? 
S7' C6' 1.760(15) . ? 
C6' C5' 1.301(16) . ? 
C6' I1' 2.067(8) . ? 
C5' C4' 1.444(19) . ? 
C5' H5' 0.9500 . ? 
C9 C10 1.408(6) . ? 
C9 H9 0.9500 . ? 
C10 C1 1.415(6) 2_676 ? 
C11 C12 1.205(6) . ? 
C12 Si1 1.828(5) . ? 
C12 Si1' 1.908(14) . ? 
Si1 C19 1.869(6) . ? 
Si1 C16 1.882(6) . ? 
Si1 C13 1.886(6) . ? 
C13 C15 1.515(8) . ? 
C13 C14 1.530(10) . ? 
C13 H13 1.0000 . ? 
C14 H14A 0.9800 . ? 
C14 H14B 0.9800 . ? 
C14 H14C 0.9800 . ? 
C15 H15A 0.9800 . ? 
C15 H15B 0.9800 . ? 
C15 H15C 0.9800 . ? 
C16 C17 1.510(9) . ? 
C16 C18 1.524(8) . ? 
C16 H16 1.0000 . ? 
C17 H17A 0.9800 . ? 
C17 H17B 0.9800 . ? 
C17 H17C 0.9800 . ? 
C18 H18A 0.9800 . ? 
C18 H18B 0.9800 . ? 
C18 H18C 0.9800 . ? 
C19 C21 1.534(10) . ? 
C19 C20 1.543(9) . ? 
C19 H19 1.0000 . ? 
C20 H20A 0.9800 . ? 
C20 H20B 0.9800 . ? 
C20 H20C 0.9800 . ? 
C21 H21A 0.9800 . ? 
C21 H21B 0.9800 . ? 
C21 H21C 0.9800 . ? 
Si1' C19' 1.864(10) . ? 
Si1' C16' 1.876(10) . ? 
Si1' C13' 1.878(10) . ? 
C13' C15' 1.506(12) . ? 
C13' C14' 1.534(13) . ? 
C13' H13' 1.0000 . ? 
C14' H14D 0.9800 . ? 
C14' H14E 0.9800 . ? 
C14' H14F 0.9800 . ? 
C15' H15D 0.9800 . ? 
C15' H15E 0.9800 . ? 
C15' H15F 0.9800 . ? 
C16' C17' 1.510(13) . ? 
C16' C18' 1.523(12) . ? 
C16' H16' 1.0000 . ? 
C17' H17D 0.9800 . ? 
C17' H17E 0.9800 . ? 
C17' H17F 0.9800 . ? 
C18' H18D 0.9800 . ? 
C18' H18E 0.9800 . ? 
C18' H18F 0.9800 . ? 
C19' C21' 1.527(13) . ? 
C19' C20' 1.536(13) . ? 
C19' H19' 1.0000 . ? 
C20' H20D 0.9800 . ? 
C20' H20E 0.9800 . ? 
C20' H20F 0.9800 . ? 
C21' H21D 0.9800 . ? 
C21' H21E 0.9800 . ? 
C21' H21F 0.9800 . ? 
 
loop_ 
 _geom_angle_atom_site_label_1 
 _geom_angle_atom_site_label_2 
 _geom_angle_atom_site_label_3 
 _geom_angle 
 _geom_angle_site_symmetry_1 
 _geom_angle_site_symmetry_3 
 _geom_angle_publ_flag 
C2 C1 C10 121.6(4) . 2_676 ? 
C2 C1 C11 119.9(4) . . ? 
C10 C1 C11 118.5(4) 2_676 . ? 
C1 C2 C3 121.6(4) . . ? 
C1 C2 C10 119.1(4) . . ? 
C3 C2 C10 119.3(4) . . ? 
C4 C3 C2 121.5(8) . . ? 
C4 C3 C4' 4.2(17) . . ? 
C2 C3 C4' 117.4(11) . . ? 
C4 C3 H3 119.3 . . ? 
C2 C3 H3 119.3 . . ? 
C4' C3 H3 123.3 . . ? 
C3 C4 C8 121.3(14) . . ? 
C3 C4 S5 128.0(10) . . ? 
C8 C4 S5 110.7(10) . . ? 
C6 S5 C4 89.9(5) . . ? 
C7 C6 S5 114.1(6) . . ? 
C7 C6 I1 128.2(8) . . ? 
S5 C6 I1 117.7(5) . . ? 
C6 C7 C8 114.3(9) . . ? 
C6 C7 H7 122.9 . . ? 
C8 C7 H7 122.9 . . ? 
C9 C8 C4 120.3(14) . . ? 
C9 C8 C7 128.7(11) . . ? 
C4 C8 C7 111.0(11) . . ? 
C9 C8' C4' 119(2) . . ? 
C9 C8' S7' 130.2(19) . . ? 
C4' C8' S7' 110.4(14) . . ? 
C6' S7' C8' 89.8(7) . . ? 
C5' C6' S7' 114.8(8) . . ? 
C5' C6' I1' 129.7(11) . . ? 
S7' C6' I1' 115.5(7) . . ? 
C6' C5' C4' 113.4(11) . . ? 
C6' C5' H5' 123.3 . . ? 
C4' C5' H5' 123.3 . . ? 
C8' C4' C5' 111.4(15) . . ? 
C8' C4' C3 120(2) . . ? 
C5' C4' C3 128.6(18) . . ? 
C8' C9 C8 7.0(18) . . ? 
C8' C9 C10 125.6(12) . . ? 
C8 C9 C10 119.1(7) . . ? 
C8' C9 H9 113.9 . . ? 
C8 C9 H9 120.5 . . ? 
C10 C9 H9 120.5 . . ? 
C9 C10 C1 122.1(4) . 2_676 ? 
C9 C10 C2 118.6(4) . . ? 
C1 C10 C2 119.3(4) 2_676 . ? 
C12 C11 C1 178.7(5) . . ? 
C11 C12 Si1 177.7(4) . . ? 
C11 C12 Si1' 168.0(5) . . ? 
Si1 C12 Si1' 10.8(3) . . ? 
C12 Si1 C19 107.8(3) . . ? 
C12 Si1 C16 109.8(3) . . ? 
C19 Si1 C16 109.2(3) . . ? 
C12 Si1 C13 103.8(3) . . ? 
C19 Si1 C13 109.9(3) . . ? 
C16 Si1 C13 116.0(3) . . ? 
C15 C13 C14 112.9(7) . . ? 
C15 C13 Si1 113.2(4) . . ? 
C14 C13 Si1 113.5(5) . . ? 
C15 C13 H13 105.4 . . ? 
C14 C13 H13 105.4 . . ? 
Si1 C13 H13 105.4 . . ? 
C17 C16 C18 110.6(5) . . ? 
C17 C16 Si1 113.8(5) . . ? 
C18 C16 Si1 113.4(4) . . ? 
C17 C16 H16 106.1 . . ? 
C18 C16 H16 106.1 . . ? 
Si1 C16 H16 106.1 . . ? 
C21 C19 C20 111.0(6) . . ? 
C21 C19 Si1 111.2(5) . . ? 
C20 C19 Si1 111.7(4) . . ? 
C21 C19 H19 107.6 . . ? 
C20 C19 H19 107.6 . . ? 
Si1 C19 H19 107.6 . . ? 
C19' Si1' C16' 110.5(8) . . ? 
C19' Si1' C13' 113.7(8) . . ? 
C16' Si1' C13' 114.5(8) . . ? 
C19' Si1' C12 95.7(7) . . ? 
C16' Si1' C12 103.1(8) . . ? 
C13' Si1' C12 117.5(8) . . ? 
C15' C13' C14' 112.8(14) . . ? 
C15' C13' Si1' 115.4(11) . . ? 
C14' C13' Si1' 112.3(10) . . ? 
C15' C13' H13' 105.1 . . ? 
C14' C13' H13' 105.1 . . ? 
Si1' C13' H13' 105.1 . . ? 
C13' C14' H14D 109.5 . . ? 
C13' C14' H14E 109.5 . . ? 
H14D C14' H14E 109.5 . . ? 
C13' C14' H14F 109.5 . . ? 
H14D C14' H14F 109.5 . . ? 
H14E C14' H14F 109.5 . . ? 
C13' C15' H15D 109.5 . . ? 
C13' C15' H15E 109.5 . . ? 
H15D C15' H15E 109.5 . . ? 
C13' C15' H15F 109.5 . . ? 
H15D C15' H15F 109.5 . . ? 
H15E C15' H15F 109.5 . . ? 
C17' C16' C18' 110.9(13) . . ? 
C17' C16' Si1' 113.7(12) . . ? 
C18' C16' Si1' 114.6(10) . . ? 
C17' C16' H16' 105.6 . . ? 
C18' C16' H16' 105.6 . . ? 
Si1' C16' H16' 105.6 . . ? 
C16' C17' H17D 109.5 . . ? 
C16' C17' H17E 109.5 . . ? 
H17D C17' H17E 109.5 . . ? 
C16' C17' H17F 109.5 . . ? 
H17D C17' H17F 109.5 . . ? 
H17E C17' H17F 109.5 . . ? 
C16' C18' H18D 109.5 . . ? 
C16' C18' H18E 109.5 . . ? 
H18D C18' H18E 109.5 . . ? 
C16' C18' H18F 109.5 . . ? 
H18D C18' H18F 109.5 . . ? 
H18E C18' H18F 109.5 . . ? 
C21' C19' C20' 112.6(14) . . ? 
C21' C19' Si1' 114.9(12) . . ? 
C20' C19' Si1' 113.0(10) . . ? 
C21' C19' H19' 105.1 . . ? 
C20' C19' H19' 105.1 . . ? 
Si1' C19' H19' 105.1 . . ? 
C19' C20' H20D 109.5 . . ? 
C19' C20' H20E 109.5 . . ? 
H20D C20' H20E 109.5 . . ? 
C19' C20' H20F 109.5 . . ? 
H20D C20' H20F 109.5 . . ? 
H20E C20' H20F 109.5 . . ? 
C19' C21' H21D 109.5 . . ? 
C19' C21' H21E 109.5 . . ? 
H21D C21' H21E 109.5 . . ? 
C19' C21' H21F 109.5 . . ? 
H21D C21' H21F 109.5 . . ? 
H21E C21' H21F 109.5 . . ? 
 
loop_ 
 _geom_torsion_atom_site_label_1 
 _geom_torsion_atom_site_label_2 
 _geom_torsion_atom_site_label_3 
 _geom_torsion_atom_site_label_4 
 _geom_torsion 
 _geom_torsion_site_symmetry_1 
 _geom_torsion_site_symmetry_2 
 _geom_torsion_site_symmetry_3 
 _geom_torsion_site_symmetry_4 
 _geom_torsion_publ_flag 
C10 C1 C2 C3 -179.5(4) 2_676 . . . ? 
C11 C1 C2 C3 -0.3(6) . . . . ? 
C10 C1 C2 C10 0.0(7) 2_676 . . . ? 
C11 C1 C2 C10 179.3(4) . . . . ? 
C1 C2 C3 C4 177.2(14) . . . . ? 
C10 C2 C3 C4 -2.3(15) . . . . ? 
C1 C2 C3 C4' 179(2) . . . . ? 
C10 C2 C3 C4' -1(2) . . . . ? 
C2 C3 C4 C8 2(3) . . . . ? 
C2 C3 C4 S5 -178.3(13) . . . . ?  
C3 C4 S5 C6 179(2) . . . . ? 
C8 C4 S5 C6 -0.5(16) . . . . ? 
C4 S5 C6 C7 1.1(18) . . . . ? 
C4 S5 C6 I1 -177.2(15) . . . . ? 
S5 C6 C7 C8 -1(2) . . . . ? 
I1 C6 C7 C8 176.6(17) . . . . ? 
C3 C4 C8 C9 1(3) . . . . ? 
S5 C4 C8 C9 -179.4(18) . . . . ? 
C3 C4 C8 C7 180(2) . . . . ? 
S5 C4 C8 C7 0(2) . . . . ? 
C6 C7 C8 C9 -180(2) . . . . ? 
C6 C7 C8 C4 1(2) . . . . ? 
C9 C8' S7' C6' -174(5) . . . . ? 
C4' C8' S7' C6' 0(3) . . . . ? 
C8' S7' C6' C5' -2(3) . . . . ? 
C8' S7' C6' I1' 178(3) . . . . ? 
S7' C6' C5' C4' 4(4) . . . . ? 
I1' C6' C5' C4' -177(3) . . . . ? 
C9 C8' C4' C5' 177(4) . . . . ? 
S7' C8' C4' C5' 2(4) . . . . ? 
C9 C8' C4' C3 -3(5) . . . . ? 
S7' C8' C4' C3 -178(3) . . . . ? 
C6' C5' C4' C8' -4(4) . . . . ? 
C6' C5' C4' C3 176(4) . . . . ? 
C2 C3 C4' C8' 2(4) . . . . ?  
C2 C3 C4' C5' -178(3) . . . . ?  
C4' C8' C9 C10 2(5) . . . . ? 
S7' C8' C9 C10 176(2) . . . . ?  
C4 C8 C9 C10 -2(2) . . . . ? 
C7 C8 C9 C10 178.7(17) . . . . ? 
C8' C9 C10 C1 180(3) . . . 2_676 ? 
C8 C9 C10 C1 -177.2(13) . . . 2_676 ? 
C8' C9 C10 C2 -1(3) . . . . ? 
C8 C9 C10 C2 1.6(14) . . . . ? 
C1 C2 C10 C9 -178.9(4) . . . . ? 
C3 C2 C10 C9 0.7(6) . . . . ? 
C1 C2 C10 C1 0.0(7) . . . 2_676 ? 
C3 C2 C10 C1 179.5(4) . . . 2_676 ? 
C2 C1 C11 C12 151(25) . . . . ? 
C10 C1 C11 C12 -30(26) 2_676 . . . ? 
C1 C11 C12 Si1 8(36) . . . . ? 
C1 C11 C12 Si1' -47(27) . . . . ? 
C11 C12 Si1 C19 -166(12) . . . . ? 
Si1' C12 Si1 C19 -101(2) . . . . ? 
C11 C12 Si1 C16 75(12) . . . . ? 
Si1' C12 Si1 C16 140(2) . . . . ? 
C11 C12 Si1 C13 -49(12) . . . . ? 
Si1' C12 Si1 C13 15(2) . . . . ? 
C12 Si1 C13 C15 -174.4(5) . . . . ? 
C19 Si1 C13 C15 -59.4(6) . . . . ? 
C16 Si1 C13 C15 65.1(6) . . . . ? 
C12 Si1 C13 C14 55.3(6) . . . . ? 
C19 Si1 C13 C14 170.2(6) . . . . ? 
C16 Si1 C13 C14 -65.3(6) . . . . ? 
C12 Si1 C16 C17 -62.8(5) . . . . ? 
C19 Si1 C16 C17 179.2(4) . . . . ? 
C13 Si1 C16 C17 54.4(5) . . . . ? 
C12 Si1 C16 C18 169.7(4) . . . . ? 
C19 Si1 C16 C18 51.7(5) . . . . ? 
C13 Si1 C16 C18 -73.1(5) . . . . ? 
C12 Si1 C19 C21 58.3(5) . . . . ? 
C16 Si1 C19 C21 177.5(5) . . . . ? 
C13 Si1 C19 C21 -54.1(5) . . . . ? 
C12 Si1 C19 C20 -66.3(6) . . . . ? 
C16 Si1 C19 C20 52.9(6) . . . . ? 
C13 Si1 C19 C20 -178.7(5) . . . . ? 
C11 C12 Si1' C19' 180(3) . . . . ? 
Si1 C12 Si1' C19' 9.8(19) . . . . ? 
C11 C12 Si1' C16' 67(3) . . . . ? 
Si1 C12 Si1' C16' -103(2) . . . . ? 
C11 C12 Si1' C13' -60(3) . . . . ? 
Si1 C12 Si1' C13' 130(2) . . . . ? 
C19' Si1' C13' C15' 53(2) . . . . ? 
C16' Si1' C13' C15' -178.4(19) . . . . ? 
C12 Si1' C13' C15' -57.2(19) . . . . ? 
C19' Si1' C13' C14' -77.8(16) . . . . ? 
C16' Si1' C13' C14' 50.5(17) . . . . ? 
C12 Si1' C13' C14' 171.7(14) . . . . ? 
C19' Si1' C16' C17' -178(2) . . . . ? 
C13' Si1' C16' C17' 53(2) . . . . ? 
C12 Si1' C16' C17' -76(2) . . . . ? 
C19' Si1' C16' C18' -48.5(17) . . . . ? 
C13' Si1' C16' C18' -178.4(14) . . . . ? 
C12 Si1' C16' C18' 52.8(15) . . . . ? 
C16' Si1' C19' C21' 171.5(18) . . . . ? 
C13' Si1' C19' C21' -58.2(19) . . . . ? 
C12 Si1' C19' C21' 65.1(17) . . . . ? 
C16' Si1' C19' C20' -57.5(17) . . . . ? 
C13' Si1' C19' C20' 72.8(16) . . . . ? 
C12 Si1' C19' C20' -163.8(14) . . . . ? 
 
_diffrn_measured_fraction_theta_max    0.999 
_diffrn_reflns_theta_full              26.49 
_diffrn_measured_fraction_theta_full   0.999 
_refine_diff_density_max    0.959 
_refine_diff_density_min   -0.840 
_refine_diff_density_rms    0.073 
