 
data_x13065 
 
_audit_creation_method            SHELXL-97 
_chemical_name_systematic 
; 
 ? 
; 
_chemical_name_common             ? 
_chemical_melting_point           ? 
_chemical_formula_moiety 
 'C36 H36 F2 S2 Si2' 
_chemical_formula_sum 
 'C36 H36 F2 S2 Si2' 
_chemical_formula_weight          626.95 
 
loop_ 
 _atom_type_symbol 
 _atom_type_description 
 _atom_type_scat_dispersion_real 
 _atom_type_scat_dispersion_imag 
 _atom_type_scat_source 
 'C'  'C'   0.0181   0.0091 
 'International Tables Vol C Tables 4.2.6.8 and 6.1.1.4' 
 'H'  'H'   0.0000   0.0000 
 'International Tables Vol C Tables 4.2.6.8 and 6.1.1.4' 
 'F'  'F'   0.0727   0.0534 
 'International Tables Vol C Tables 4.2.6.8 and 6.1.1.4' 
 'Si'  'Si'   0.2541   0.3302 
 'International Tables Vol C Tables 4.2.6.8 and 6.1.1.4' 
 'S'  'S'   0.3331   0.5567 
 'International Tables Vol C Tables 4.2.6.8 and 6.1.1.4' 
 
_symmetry_cell_setting            triclinic 
_symmetry_space_group_name_H-M    'P -1' 
_symmetry_space_group_name_Hall   '-P 1' 
 
loop_ 
 _symmetry_equiv_pos_as_xyz 
 'x, y, z' 
 '-x, -y, -z' 
 
_cell_length_a                    6.8372(1) 
_cell_length_b                    7.4596(1) 
_cell_length_c                    16.7833(3) 
_cell_angle_alpha                 99.294(1) 
_cell_angle_beta                  93.846(1) 
_cell_angle_gamma                 102.786(1) 
_cell_volume                      819.10(2) 
_cell_formula_units_Z             1 
_cell_measurement_temperature     90.0(2) 
_cell_measurement_reflns_used     8007 
_cell_measurement_theta_min       2.68 
_cell_measurement_theta_max       67.75 
 
_exptl_crystal_description        shard
_exptl_crystal_colour             red 
_exptl_crystal_size_max           0.16 
_exptl_crystal_size_mid           0.10 
_exptl_crystal_size_min           0.07 
_exptl_crystal_density_meas       ? 
_exptl_crystal_density_diffrn     1.271 
_exptl_crystal_density_method     'not measured' 
_exptl_crystal_F_000              330 
_exptl_absorpt_coefficient_mu     2.458 
_exptl_absorpt_correction_type    multi-scan 
_exptl_absorpt_correction_T_min   0.727 
_exptl_absorpt_correction_T_max   0.889 
_exptl_absorpt_process_details    'Sadabs in APEX2 (BrukerAXS, 2006)' 
 
_exptl_special_details 
; 
 ? 
; 
 
_diffrn_ambient_temperature       90.0(2) 
_diffrn_radiation_wavelength      1.54178 
_diffrn_radiation_type            CuK\a 
_diffrn_radiation_source          'fine-focus rotating anode' 
_diffrn_radiation_monochromator   'graded multilayer optics' 
_diffrn_measurement_device_type   'Bruker X8 Proteum diffractometer'
_diffrn_measurement_method        '\f and \w scans'            
_diffrn_detector_area_resol_mean  5.6
_diffrn_standards_number          0 
_diffrn_standards_interval_count  . 
_diffrn_standards_interval_time   . 
_diffrn_standards_decay_%         ? 
_diffrn_reflns_number             10898 
_diffrn_reflns_av_R_equivalents   0.0313 
_diffrn_reflns_av_sigmaI/netI     0.0274 
_diffrn_reflns_limit_h_min        -6 
_diffrn_reflns_limit_h_max        8 
_diffrn_reflns_limit_k_min        -8 
_diffrn_reflns_limit_k_max        8 
_diffrn_reflns_limit_l_min        -19 
_diffrn_reflns_limit_l_max        20 
_diffrn_reflns_theta_min          2.68 
_diffrn_reflns_theta_max          68.12 
_reflns_number_total              2908 
_reflns_number_gt                 2666 
_reflns_threshold_expression      >2\s(I)    
 
_computing_data_collection        'APEX2 (Bruker-AXS, 2006)'            
_computing_cell_refinement        'APEX2'
_computing_data_reduction         'APEX2'
_computing_structure_solution     'SHELXS-97 (Sheldrick, 2008)' 
_computing_structure_refinement   'SHELXL-97 (Sheldrick, 2008)' 
_computing_molecular_graphics     'XP in SHELXTL (Sheldrick, 2008)'
_computing_publication_material
; 
SHELX-97 (Sheldrick, 2008) and local procedures 
; 
 
_publ_section_exptl_refinement
;
H atoms were found in difference Fourier maps and subsequently placed 
in idealized positions with constrained distances of 0.98 \%A (RCH~3~), 
0.99 \%A (R~2~CH~2~), 0.95 \%A (C~sp2~H), and with U~iso~(H) values set 
to either 1.2U~eq~ or 1.5U~eq~ (RCH~3~) of the attached atom. 

To ensure satisfactory refinement of the disordered parts of the structure, 
a combination of constraints and restraints were needed.  The constraints 
(SHELXL97 commands EXYZ and EADP) were used to make the coordinates and/or 
displacement parameters of overlapping atoms equal.  The restraints 
(SHELXL97 commands SAME, DELU) were used to ensure similar geometries and 
displacement parameters of nearby, chemically similar groups. 
;

_refine_special_details 
; 
Refinement of F^2^ against all reflections.  The weighted R-value wR and 
goodness of fit S are based on F^2^. Conventional R-values R are based 
on F, with F set to zero for negative F^2^.  The threshold expression of 
F^2^ > 2\s(F^2^) is used only for calculating R-factors(gt) etc. and is 
not relevant to the choice of reflections for refinement.  R-values based 
on F^2^ are statistically about twice as large as those based on F, and  
R-values based on ALL data will be even larger. 
; 
 
_refine_ls_structure_factor_coef  Fsqd  
_refine_ls_matrix_type            full 
_refine_ls_weighting_scheme       calc  
_refine_ls_weighting_details 
 'calc w=1/[\s^2^(Fo^2^)+(0.0488P)^2^+0.4286P] where P=(Fo^2^+2Fc^2^)/3' 
_atom_sites_solution_primary      direct 
_atom_sites_solution_secondary    difmap 
_atom_sites_solution_hydrogens    geom 
_refine_ls_hydrogen_treatment     constr 
_refine_ls_extinction_method      none 
_refine_ls_extinction_coef        ? 
_refine_ls_number_reflns          2908 
_refine_ls_number_parameters      212 
_refine_ls_number_restraints      48 
_refine_ls_R_factor_all           0.0402 
_refine_ls_R_factor_gt            0.0367 
_refine_ls_wR_factor_ref          0.1018 
_refine_ls_wR_factor_gt           0.0980 
_refine_ls_goodness_of_fit_ref    1.065 
_refine_ls_restrained_S_all       1.071 
_refine_ls_shift/su_max           0.001 
_refine_ls_shift/su_mean          0.000 
 
loop_ 
 _atom_site_label 
 _atom_site_type_symbol 
 _atom_site_fract_x 
 _atom_site_fract_y 
 _atom_site_fract_z 
 _atom_site_U_iso_or_equiv 
 _atom_site_adp_type 
 _atom_site_occupancy 
 _atom_site_symmetry_multiplicity 
 _atom_site_calc_flag 
 _atom_site_refinement_flags 
 _atom_site_disorder_assembly 
 _atom_site_disorder_group 
Si1 Si 0.21952(7) 0.63661(7) 0.82216(3) 0.03237(16) Uani 1 1 d . . . 
C1 C 0.4280(2) 0.5451(2) 0.57597(9) 0.0235(3) Uani 1 1 d . . . 
C2 C 0.6260(2) 0.6352(2) 0.56350(9) 0.0232(3) Uani 1 1 d . B . 
C3 C 0.7523(2) 0.7723(2) 0.62513(10) 0.0265(3) Uani 1 1 d . . . 
H3 H 0.7039 0.8083 0.6756 0.032 Uiso 1 1 calc R A 1 
C4 C 0.9443(2) 0.8525(2) 0.61148(10) 0.0266(4) Uani 0.804(2) 1 d PDU B 1 
S5 S 1.12332(11) 1.02420(12) 0.67932(5) 0.0320(2) Uani 0.804(2) 1 d PDU B 1 
C6 C 1.2980(3) 1.0141(4) 0.60791(15) 0.0294(5) Uani 0.804(2) 1 d PDU B 1 
F1 F 1.4824(2) 1.1257(2) 0.62968(10) 0.0414(4) Uani 0.804(2) 1 d PDU B 1 
C7 C 1.2295(13) 0.8975(16) 0.5385(7) 0.0301(10) Uani 0.804(2) 1 d PDU B 1 
H7 H 1.3087 0.8804 0.4948 0.036 Uiso 0.804(2) 1 calc PR B 1 
C8 C 1.0226(2) 0.7994(2) 0.53644(10) 0.0259(3) Uani 0.804(2) 1 d PDU B 1 
C4' C 0.9443(2) 0.8525(2) 0.61148(10) 0.0266(4) Uani 0.196(2) 1 d PDU B 2 
C5' C 1.090(2) 0.989(3) 0.6665(10) 0.0320(2) Uani 0.196(2) 1 d PDU B 2 
H5' H 1.0696 1.0427 0.7197 0.038 Uiso 0.196(2) 1 calc PR B 2 
F1' F 1.4364(10) 1.1514(10) 0.6642(4) 0.0414(4) Uani 0.196(2) 1 d PDU B 2 
C6' C 1.2583(16) 1.0310(17) 0.6322(7) 0.0294(5) Uani 0.196(2) 1 d PDU B 2 
S7' S 1.2668(13) 0.9146(16) 0.5332(6) 0.0301(10) Uani 0.196(2) 1 d PDU B 2 
C8' C 1.0226(2) 0.7994(2) 0.53644(10) 0.0259(3) Uani 0.196(2) 1 d PDU B 2 
C9 C 0.9019(2) 0.6713(2) 0.47542(10) 0.0252(3) Uani 1 1 d . . . 
H9 H 0.9530 0.6386 0.4252 0.030 Uiso 1 1 calc R B 1 
C10 C 0.7003(2) 0.5866(2) 0.48655(9) 0.0228(3) Uani 1 1 d . . . 
C11 C 0.3582(2) 0.5871(2) 0.65368(10) 0.0260(3) Uani 1 1 d . . . 
C12 C 0.3025(3) 0.6180(2) 0.71996(10) 0.0305(4) Uani 1 1 d . C . 
C13 C -0.0613(3) 0.5995(3) 0.81322(12) 0.0447(5) Uani 1 1 d . C . 
H13A H -0.1080 0.5824 0.8667 0.054 Uiso 1 1 calc R . . 
H13B H -0.0967 0.7138 0.8000 0.054 Uiso 1 1 calc R . . 
C14 C -0.1748(3) 0.4340(3) 0.74994(15) 0.0532(6) Uani 1 1 d . . . 
H14A H -0.1339 0.4512 0.6963 0.080 Uiso 1 1 calc R C . 
H14B H -0.3201 0.4246 0.7497 0.080 Uiso 1 1 calc R . . 
H14C H -0.1438 0.3192 0.7629 0.080 Uiso 1 1 calc R . . 
C15 C 0.3053(3) 0.4508(3) 0.86873(11) 0.0403(4) Uani 1 1 d . C . 
H15A H 0.2556 0.3297 0.8312 0.048 Uiso 1 1 calc R . . 
H15B H 0.4546 0.4795 0.8739 0.048 Uiso 1 1 calc R . . 
C16 C 0.2357(4) 0.4294(4) 0.95192(13) 0.0522(6) Uani 1 1 d . . . 
H16A H 0.2809 0.5492 0.9894 0.078 Uiso 1 1 calc R C . 
H16B H 0.2933 0.3349 0.9729 0.078 Uiso 1 1 calc R . . 
H16C H 0.0881 0.3903 0.9469 0.078 Uiso 1 1 calc R . . 
C17 C 0.3390(4) 0.8755(3) 0.88260(12) 0.0492(5) Uani 0.762(4) 1 d PDU C 1 
H17A H 0.2941 0.9703 0.8556 0.059 Uiso 0.762(4) 1 calc PR C 1 
H17B H 0.2914 0.8851 0.9372 0.059 Uiso 0.762(4) 1 calc PR C 1 
C18 C 0.5599(5) 0.9175(4) 0.89157(18) 0.0517(8) Uani 0.762(4) 1 d PDU C 1 
H18 H 0.6243 0.8497 0.9240 0.062 Uiso 0.762(4) 1 calc PR C 1 
C19 C 0.6729(7) 1.0415(6) 0.8580(3) 0.0729(11) Uani 0.762(4) 1 d PDU C 1 
H19A H 0.6131 1.1117 0.8252 0.087 Uiso 0.762(4) 1 calc PR C 1 
H19B H 0.8155 1.0621 0.8662 0.087 Uiso 0.762(4) 1 calc PR C 1 
C17' C 0.3390(4) 0.8755(3) 0.88260(12) 0.0492(5) Uani 0.238(4) 1 d PDU C 2 
H17C H 0.2412 0.9549 0.8801 0.059 Uiso 0.238(4) 1 calc PR C 2 
H17D H 0.3647 0.8639 0.9401 0.059 Uiso 0.238(4) 1 calc PR C 2 
C18' C 0.5438(15) 0.9790(14) 0.8543(6) 0.0517(8) Uani 0.238(4) 1 d PDU C 2 
H18' H 0.5333 1.0351 0.8077 0.062 Uiso 0.238(4) 1 calc PR C 2 
C19' C 0.7266(19) 0.995(2) 0.8888(9) 0.0729(11) Uani 0.238(4) 1 d PDU C 2 
H19C H 0.7452 0.9415 0.9355 0.087 Uiso 0.238(4) 1 calc PR C 2 
H19D H 0.8402 1.0604 0.8670 0.087 Uiso 0.238(4) 1 calc PR C 2 
 
loop_ 
 _atom_site_aniso_label 
 _atom_site_aniso_U_11 
 _atom_site_aniso_U_22 
 _atom_site_aniso_U_33 
 _atom_site_aniso_U_23 
 _atom_site_aniso_U_13 
 _atom_site_aniso_U_12 
Si1 0.0363(3) 0.0438(3) 0.0198(2) 0.00331(19) 0.00901(18) 0.0154(2) 
C1 0.0274(8) 0.0264(8) 0.0202(7) 0.0054(6) 0.0054(6) 0.0119(6) 
C2 0.0266(8) 0.0252(8) 0.0213(8) 0.0063(6) 0.0044(6) 0.0113(6) 
C3 0.0309(9) 0.0285(9) 0.0218(8) 0.0036(6) 0.0040(6) 0.0114(7) 
C4 0.0300(8) 0.0249(8) 0.0257(8) 0.0048(6) 0.0007(6) 0.0089(6) 
S5 0.0308(4) 0.0312(5) 0.0304(4) -0.0005(3) -0.0008(3) 0.0052(3) 
C6 0.0225(12) 0.0303(11) 0.0359(16) 0.0079(11) 0.0041(9) 0.0053(9) 
F1 0.0287(7) 0.0422(8) 0.0464(10) 0.0019(7) 0.0021(6) -0.0013(6) 
C7 0.020(3) 0.0305(18) 0.0416(13) 0.0125(10) 0.0061(15) 0.0050(18) 
C8 0.0268(8) 0.0247(8) 0.0294(8) 0.0084(6) 0.0041(6) 0.0100(6) 
C4' 0.0300(8) 0.0249(8) 0.0257(8) 0.0048(6) 0.0007(6) 0.0089(6) 
C5' 0.0308(4) 0.0312(5) 0.0304(4) -0.0005(3) -0.0008(3) 0.0052(3) 
F1' 0.0287(7) 0.0422(8) 0.0464(10) 0.0019(7) 0.0021(6) -0.0013(6) 
C6' 0.0225(12) 0.0303(11) 0.0359(16) 0.0079(11) 0.0041(9) 0.0053(9) 
S7' 0.020(3) 0.0305(18) 0.0416(13) 0.0125(10) 0.0061(15) 0.0050(18) 
C8' 0.0268(8) 0.0247(8) 0.0294(8) 0.0084(6) 0.0041(6) 0.0100(6) 
C9 0.0275(8) 0.0277(8) 0.0244(8) 0.0078(6) 0.0073(6) 0.0116(7) 
C10 0.0258(8) 0.0250(8) 0.0214(8) 0.0065(6) 0.0051(6) 0.0115(6) 
C11 0.0261(8) 0.0289(9) 0.0239(8) 0.0041(6) 0.0038(6) 0.0086(6) 
C12 0.0297(9) 0.0377(10) 0.0248(9) 0.0042(7) 0.0057(7) 0.0098(7) 
C13 0.0430(11) 0.0688(14) 0.0330(10) 0.0146(9) 0.0153(8) 0.0283(10) 
C14 0.0342(11) 0.0604(14) 0.0680(15) 0.0144(11) 0.0115(10) 0.0134(10) 
C15 0.0428(11) 0.0528(12) 0.0289(9) 0.0073(8) 0.0051(8) 0.0183(9) 
C16 0.0569(13) 0.0692(15) 0.0370(11) 0.0209(10) 0.0091(9) 0.0193(11) 
C17 0.0681(14) 0.0489(12) 0.0297(10) -0.0038(9) 0.0116(9) 0.0178(10) 
C18 0.0709(18) 0.0381(16) 0.0382(17) 0.0005(11) -0.0102(14) 0.0058(13) 
C19 0.077(3) 0.061(2) 0.076(3) 0.0146(18) 0.007(2) 0.0044(19) 
C17' 0.0681(14) 0.0489(12) 0.0297(10) -0.0038(9) 0.0116(9) 0.0178(10) 
C18' 0.0709(18) 0.0381(16) 0.0382(17) 0.0005(11) -0.0102(14) 0.0058(13) 
C19' 0.077(3) 0.061(2) 0.076(3) 0.0146(18) 0.007(2) 0.0044(19) 
 
_geom_special_details 
; 
 All esds (except the esd in the dihedral angle between two l.s. planes) 
 are estimated using the full covariance matrix.  The cell esds are taken 
 into account individually in the estimation of esds in distances, angles 
 and torsion angles; correlations between esds in cell parameters are only 
 used when they are defined by crystal symmetry.  An approximate (isotropic) 
 treatment of cell esds is used for estimating esds involving l.s. planes. 
; 
 
loop_ 
 _geom_bond_atom_site_label_1 
 _geom_bond_atom_site_label_2 
 _geom_bond_distance 
 _geom_bond_site_symmetry_2 
 _geom_bond_publ_flag 
Si1 C12 1.8362(17) . ? 
Si1 C13 1.871(2) . ? 
Si1 C15 1.877(2) . ? 
Si1 C17 1.879(2) . ? 
C1 C10 1.414(2) 2_666 ? 
C1 C2 1.417(2) . ? 
C1 C11 1.430(2) . ? 
C2 C3 1.417(2) . ? 
C2 C10 1.441(2) . ? 
C3 C4 1.367(2) . ? 
C3 H3 0.9500 . ? 
C4 C8 1.433(2) . ? 
C4 S5 1.7560(17) . ? 
S5 C6 1.752(2) . ? 
C6 C7 1.323(11) . ? 
C6 F1 1.338(3) . ? 
C7 C8 1.437(8) . ? 
C7 H7 0.9500 . ? 
C8 C9 1.365(2) . ? 
C5' C6' 1.320(16) . ? 
C5' H5' 0.9500 . ? 
F1' C6' 1.360(11) . ? 
C6' S7' 1.758(13) . ? 
C9 C10 1.422(2) . ? 
C9 H9 0.9500 . ? 
C10 C1 1.414(2) 2_666 ? 
C11 C12 1.203(2) . ? 
C13 C14 1.515(3) . ? 
C13 H13A 0.9900 . ? 
C13 H13B 0.9900 . ? 
C14 H14A 0.9800 . ? 
C14 H14B 0.9800 . ? 
C14 H14C 0.9800 . ? 
C15 C16 1.526(3) . ? 
C15 H15A 0.9900 . ? 
C15 H15B 0.9900 . ? 
C16 H16A 0.9800 . ? 
C16 H16B 0.9800 . ? 
C16 H16C 0.9800 . ? 
C17 C18 1.465(4) . ? 
C17 H17A 0.9900 . ? 
C17 H17B 0.9900 . ? 
C18 C19 1.296(5) . ? 
C18 H18 0.9500 . ? 
C19 H19A 0.9500 . ? 
C19 H19B 0.9500 . ? 
C18' C19' 1.314(14) . ? 
C18' H18' 0.9500 . ? 
C19' H19C 0.9500 . ? 
C19' H19D 0.9500 . ? 
 
loop_ 
 _geom_angle_atom_site_label_1 
 _geom_angle_atom_site_label_2 
 _geom_angle_atom_site_label_3 
 _geom_angle 
 _geom_angle_site_symmetry_1 
 _geom_angle_site_symmetry_3 
 _geom_angle_publ_flag 
C12 Si1 C13 108.90(8) . . ? 
C12 Si1 C15 106.03(8) . . ? 
C13 Si1 C15 111.82(10) . . ? 
C12 Si1 C17 109.49(9) . . ? 
C13 Si1 C17 109.61(10) . . ? 
C15 Si1 C17 110.89(10) . . ? 
C10 C1 C2 121.27(14) 2_666 . ? 
C10 C1 C11 119.55(14) 2_666 . ? 
C2 C1 C11 119.18(15) . . ? 
C1 C2 C3 121.36(14) . . ? 
C1 C2 C10 119.30(15) . . ? 
C3 C2 C10 119.34(15) . . ? 
C4 C3 C2 119.59(15) . . ? 
C4 C3 H3 120.2 . . ? 
C2 C3 H3 120.2 . . ? 
C3 C4 C8 121.52(15) . . ? 
C3 C4 S5 126.67(13) . . ? 
C8 C4 S5 111.80(12) . . ? 
C6 S5 C4 89.11(10) . . ? 
C7 C6 F1 128.1(4) . . ? 
C7 C6 S5 115.5(4) . . ? 
F1 C6 S5 116.42(17) . . ? 
C6 C7 C8 112.8(6) . . ? 
C6 C7 H7 123.6 . . ? 
C8 C7 H7 123.6 . . ? 
C9 C8 C4 119.89(15) . . ? 
C9 C8 C7 129.4(4) . . ? 
C4 C8 C7 110.8(4) . . ? 
C6' C5' H5' 125.3 . . ? 
C5' C6' F1' 128.7(10) . . ? 
C5' C6' S7' 118.4(9) . . ? 
F1' C6' S7' 112.9(7) . . ? 
C8 C9 C10 120.42(14) . . ? 
C8 C9 H9 119.8 . . ? 
C10 C9 H9 119.8 . . ? 
C1 C10 C9 121.45(14) 2_666 . ? 
C1 C10 C2 119.39(14) 2_666 . ? 
C9 C10 C2 119.16(15) . . ? 
C12 C11 C1 177.78(17) . . ? 
C11 C12 Si1 173.15(16) . . ? 
C14 C13 Si1 114.97(14) . . ? 
C14 C13 H13A 108.5 . . ? 
Si1 C13 H13A 108.5 . . ? 
C14 C13 H13B 108.5 . . ? 
Si1 C13 H13B 108.5 . . ? 
H13A C13 H13B 107.5 . . ? 
C13 C14 H14A 109.5 . . ? 
C13 C14 H14B 109.5 . . ? 
H14A C14 H14B 109.5 . . ? 
C13 C14 H14C 109.5 . . ? 
H14A C14 H14C 109.5 . . ? 
H14B C14 H14C 109.5 . . ? 
C16 C15 Si1 115.01(14) . . ? 
C16 C15 H15A 108.5 . . ? 
Si1 C15 H15A 108.5 . . ? 
C16 C15 H15B 108.5 . . ? 
Si1 C15 H15B 108.5 . . ? 
H15A C15 H15B 107.5 . . ? 
C15 C16 H16A 109.5 . . ? 
C15 C16 H16B 109.5 . . ? 
H16A C16 H16B 109.5 . . ? 
C15 C16 H16C 109.5 . . ? 
H16A C16 H16C 109.5 . . ? 
H16B C16 H16C 109.5 . . ? 
C18 C17 Si1 113.28(17) . . ? 
C18 C17 H17A 108.9 . . ? 
Si1 C17 H17A 108.9 . . ? 
C18 C17 H17B 108.9 . . ? 
Si1 C17 H17B 108.9 . . ? 
H17A C17 H17B 107.7 . . ? 
C19 C18 C17 124.1(4) . . ? 
C19 C18 H18 117.9 . . ? 
C17 C18 H18 117.9 . . ? 
C18 C19 H19A 120.0 . . ? 
C18 C19 H19B 120.0 . . ? 
H19A C19 H19B 120.0 . . ? 
C19' C18' H18' 116.7 . . ? 
C18' C19' H19C 120.0 . . ? 
C18' C19' H19D 120.0 . . ? 
H19C C19' H19D 120.0 . . ? 
 
loop_ 
 _geom_torsion_atom_site_label_1 
 _geom_torsion_atom_site_label_2 
 _geom_torsion_atom_site_label_3 
 _geom_torsion_atom_site_label_4 
 _geom_torsion 
 _geom_torsion_site_symmetry_1 
 _geom_torsion_site_symmetry_2 
 _geom_torsion_site_symmetry_3 
 _geom_torsion_site_symmetry_4 
 _geom_torsion_publ_flag 
C10 C1 C2 C3 177.66(14) 2_666 . . . ? 
C11 C1 C2 C3 -3.1(2) . . . . ? 
C10 C1 C2 C10 -2.2(2) 2_666 . . . ? 
C11 C1 C2 C10 177.03(14) . . . . ? 
C1 C2 C3 C4 178.32(14) . . . . ? 
C10 C2 C3 C4 -1.8(2) . . . . ? 
C2 C3 C4 C8 -0.9(2) . . . . ? 
C2 C3 C4 S5 179.83(12) . . . . ? 
C3 C4 S5 C6 177.40(17) . . . . ? 
C8 C4 S5 C6 -1.94(15) . . . . ? 
C4 S5 C6 C7 1.6(7) . . . . ? 
C4 S5 C6 F1 -179.0(2) . . . . ? 
F1 C6 C7 C8 179.9(4) . . . . ? 
S5 C6 C7 C8 -0.8(11) . . . . ? 
C3 C4 C8 C9 2.7(2) . . . . ? 
S5 C4 C8 C9 -177.96(12) . . . . ? 
C3 C4 C8 C7 -177.5(6) . . . . ? 
S5 C4 C8 C7 1.9(6) . . . . ? 
C6 C7 C8 C9 179.1(5) . . . . ? 
C6 C7 C8 C4 -0.8(11) . . . . ? 
C4 C8 C9 C10 -1.6(2) . . . . ? 
C7 C8 C9 C10 178.5(7) . . . . ? 
C8 C9 C10 C1 179.45(14) . . . 2_666 ? 
C8 C9 C10 C2 -1.1(2) . . . . ? 
C1 C2 C10 C1 2.2(2) . . . 2_666 ? 
C3 C2 C10 C1 -177.71(14) . . . 2_666 ? 
C1 C2 C10 C9 -177.33(13) . . . . ? 
C3 C2 C10 C9 2.8(2) . . . . ? 
C10 C1 C11 C12 95(5) 2_666 . . . ? 
C2 C1 C11 C12 -84(5) . . . . ? 
C1 C11 C12 Si1 -25(6) . . . . ? 
C13 Si1 C12 C11 -100.4(13) . . . . ? 
C15 Si1 C12 C11 20.1(13) . . . . ? 
C17 Si1 C12 C11 139.7(13) . . . . ? 
C12 Si1 C13 C14 46.23(18) . . . . ? 
C15 Si1 C13 C14 -70.61(17) . . . . ? 
C17 Si1 C13 C14 165.99(16) . . . . ? 
C12 Si1 C15 C16 -174.82(16) . . . . ? 
C13 Si1 C15 C16 -56.25(19) . . . . ? 
C17 Si1 C15 C16 66.42(18) . . . . ? 
C12 Si1 C17 C18 -59.7(2) . . . . ? 
C13 Si1 C17 C18 -179.12(18) . . . . ? 
C15 Si1 C17 C18 56.9(2) . . . . ? 
Si1 C17 C18 C19 111.7(3) . . . . ? 
 
_diffrn_measured_fraction_theta_max    0.976 
_diffrn_reflns_theta_full              68.12 
_diffrn_measured_fraction_theta_full   0.976 
_refine_diff_density_max    0.267 
_refine_diff_density_min   -0.253 
_refine_diff_density_rms    0.044 
