 
data_k08080 
 
_audit_creation_method            SHELXL-97 
_chemical_name_systematic 
; 
 ? 
; 
_chemical_name_common             ? 
_chemical_melting_point           ? 
_chemical_formula_moiety 
 'C40 H48 F4 Si2' 
_chemical_formula_sum 
 'C40 H48 F4 Si2' 
_chemical_formula_weight          660.96 
 
loop_ 
 _atom_type_symbol 
 _atom_type_description 
 _atom_type_scat_dispersion_real 
 _atom_type_scat_dispersion_imag 
 _atom_type_scat_source 
 'C'  'C'   0.0033   0.0016 
 'International Tables Vol C Tables 4.2.6.8 and 6.1.1.4' 
 'H'  'H'   0.0000   0.0000 
 'International Tables Vol C Tables 4.2.6.8 and 6.1.1.4' 
 'F'  'F'   0.0171   0.0103 
 'International Tables Vol C Tables 4.2.6.8 and 6.1.1.4' 
 'Si'  'Si'   0.0817   0.0704 
 'International Tables Vol C Tables 4.2.6.8 and 6.1.1.4' 
 
_symmetry_cell_setting            monoclinic
_symmetry_space_group_name_H-M    'C 2/c'
_symmetry_space_group_name_Hall   '-C 2yc'
 
loop_ 
 _symmetry_equiv_pos_as_xyz 
 'x, y, z' 
 '-x, y, -z+1/2' 
 'x+1/2, y+1/2, z' 
 '-x+1/2, y+1/2, -z+1/2' 
 '-x, -y, -z' 
 'x, -y, z-1/2' 
 '-x+1/2, -y+1/2, -z' 
 'x+1/2, -y+1/2, z-1/2' 
 
_cell_length_a                    32.0712(4) 
_cell_length_b                    14.2599(2) 
_cell_length_c                    8.2937(1) 
_cell_angle_alpha                 90.00 
_cell_angle_beta                  98.2712(6) 
_cell_angle_gamma                 90.00 
_cell_volume                      3753.52(8) 
_cell_formula_units_Z             4 
_cell_measurement_temperature     210.0(2) 
_cell_measurement_reflns_used     4469
_cell_measurement_theta_min       1.00 
_cell_measurement_theta_max       27.48
 
_exptl_crystal_description        needle
_exptl_crystal_colour             'orange-red'
_exptl_crystal_size_max           0.75 
_exptl_crystal_size_mid           0.10 
_exptl_crystal_size_min           0.10 
_exptl_crystal_density_meas       ? 
_exptl_crystal_density_diffrn     1.170 
_exptl_crystal_density_method     'not measured' 
_exptl_crystal_F_000              1408 
_exptl_absorpt_coefficient_mu     0.140 
_exptl_absorpt_correction_type    multi-scan 
_exptl_absorpt_correction_T_min   0.902
_exptl_absorpt_correction_T_max   0.986 
_exptl_absorpt_process_details    'Scalepack (Otwinowski & Minor, 1997)' 
 
_exptl_special_details 
; 
 ? 
; 
 
_diffrn_ambient_temperature       210.0(2) 
_diffrn_radiation_wavelength      0.71073 
_diffrn_radiation_type            MoK\a 
_diffrn_radiation_source          'fine-focus sealed tube'    
_diffrn_radiation_monochromator   'graphite'                 
_diffrn_measurement_device_type   'Nonius KappaCCD diffractometer'  
_diffrn_measurement_method        '\w scans at fixed \c = 55\%'
_diffrn_detector_area_resol_mean  18
_diffrn_standards_number          0 
_diffrn_standards_interval_count  . 
_diffrn_standards_interval_time   . 
_diffrn_standards_decay_%         ? 
_diffrn_reflns_number             42782 
_diffrn_reflns_av_R_equivalents   0.0210 
_diffrn_reflns_av_sigmaI/netI     0.0287 
_diffrn_reflns_limit_h_min        -41 
_diffrn_reflns_limit_h_max        41 
_diffrn_reflns_limit_k_min        -18 
_diffrn_reflns_limit_k_max        18 
_diffrn_reflns_limit_l_min        -10 
_diffrn_reflns_limit_l_max        10 
_diffrn_reflns_theta_min          1.57 
_diffrn_reflns_theta_max          27.46 
_reflns_number_total              4303 
_reflns_number_gt                 3085 
_reflns_threshold_expression      >2\s(I)    
 
_computing_data_collection        'COLLECT (Nonius, 1998)'
_computing_cell_refinement        'SCALEPACK (Otwinowski & Minor, 1997)'
_computing_data_reduction         'DENZO-SMN (Otwinowski & Minor, 1997)'
_computing_structure_solution     'SHELXS-97 (Sheldrick, 2008)' 
_computing_structure_refinement   'SHELXL-97 (Sheldrick, 2008)' 
_computing_molecular_graphics     'XP in SHELXTL (Sheldrick, 2008)'
_computing_publication_material
; 
SHELX97-2 (Sheldrick, 2008) and local procedures 
; 

_publ_section_exptl_refinement
;
H atoms were found in difference Fourier maps and subsequently placed in
idealized positions with constrained C-H distances of 0.98 \%A (RCH~3~),
0.99 \%A (R~2~CH~2~) and 0.95 \%A (C~Ar~H) with U~iso~(H) values set to 
either 1.5U~eq~ (RCH~3~ only) or 1.2U~eq~ of the attached C atom.
;
 
_refine_special_details 
; 
 Refinement of F^2^ against ALL reflections.  The weighted R-factor wR and 
 goodness of fit S are based on F^2^, conventional R-factors R are based 
 on F, with F set to zero for negative F^2^. The threshold expression of 
 F^2^ > 2\s(F^2^) is used only for calculating R-factors(gt) etc. and is 
 not relevant to the choice of reflections for refinement.  R-factors based 
 on F^2^ are statistically about twice as large as those based on F, and R- 
 factors based on ALL data will be even larger. 
; 
 
_refine_ls_structure_factor_coef  Fsqd  
_refine_ls_matrix_type            full 
_refine_ls_weighting_scheme       calc  
_refine_ls_weighting_details 
 'calc w=1/[\s^2^(Fo^2^)+(0.0697P)^2^+1.5971P] where P=(Fo^2^+2Fc^2^)/3' 
_atom_sites_solution_primary      direct 
_atom_sites_solution_secondary    difmap 
_atom_sites_solution_hydrogens    geom 
_refine_ls_hydrogen_treatment     constr 
_refine_ls_extinction_method      none 
_refine_ls_extinction_coef        ? 
_refine_ls_number_reflns          4303 
_refine_ls_number_parameters      233 
_refine_ls_number_restraints      63 
_refine_ls_R_factor_all           0.0707 
_refine_ls_R_factor_gt            0.0475 
_refine_ls_wR_factor_ref          0.1411 
_refine_ls_wR_factor_gt           0.1264 
_refine_ls_goodness_of_fit_ref    1.031 
_refine_ls_restrained_S_all       1.034 
_refine_ls_shift/su_max           0.002 
_refine_ls_shift/su_mean          0.000 
 
loop_ 
 _atom_site_label 
 _atom_site_type_symbol 
 _atom_site_fract_x 
 _atom_site_fract_y 
 _atom_site_fract_z 
 _atom_site_U_iso_or_equiv 
 _atom_site_adp_type 
 _atom_site_occupancy 
 _atom_site_symmetry_multiplicity 
 _atom_site_calc_flag 
 _atom_site_refinement_flags 
 _atom_site_disorder_assembly 
 _atom_site_disorder_group 
Si1 Si 0.158182(14) 0.26240(4) 0.46423(7) 0.05652(18) Uani 1 1 d . . . 
F1 F 0.03327(4) 0.76629(7) 0.66802(16) 0.0766(4) Uani 1 1 d . . . 
F2 F 0.06851(3) 0.60281(7) 0.58833(14) 0.0635(3) Uani 1 1 d . . . 
C1 C 0.01775(5) 0.68340(11) 0.7085(2) 0.0578(5) Uani 1 1 d . . . 
C2 C 0.03513(5) 0.60199(11) 0.6704(2) 0.0494(4) Uani 1 1 d . . . 
C3 C 0.01854(4) 0.51382(10) 0.71020(18) 0.0407(3) Uani 1 1 d . . . 
C4 C 0.03648(4) 0.42940(10) 0.67502(18) 0.0396(3) Uani 1 1 d . . . 
H4 H 0.0609 0.4297 0.6246 0.047 Uiso 1 1 calc R . . 
C5 C 0.01895(4) 0.34331(9) 0.71291(17) 0.0351(3) Uani 1 1 d . . . 
C6 C 0.03754(4) 0.25623(10) 0.67792(18) 0.0372(3) Uani 1 1 d . A . 
C7 C 0.01899(4) 0.17111(10) 0.71363(18) 0.0390(3) Uani 1 1 d . . . 
C8 C 0.03689(5) 0.08303(11) 0.6790(2) 0.0506(4) Uani 1 1 d . . . 
H8 H 0.0617 0.0817 0.6312 0.061 Uiso 1 1 calc R . . 
C9 C 0.01865(6) 0.00165(12) 0.7138(2) 0.0613(5) Uani 1 1 d . . . 
H9 H 0.0309 -0.0556 0.6898 0.074 Uiso 1 1 calc R . . 
C10 C 0.07566(5) 0.25695(10) 0.6061(2) 0.0427(3) Uani 1 1 d . . . 
C11 C 0.10783(5) 0.25802(11) 0.5477(2) 0.0499(4) Uani 1 1 d . A . 
C12 C 0.17656(6) 0.38743(15) 0.4765(2) 0.0651(5) Uani 1 1 d . A . 
H12A H 0.1863 0.4023 0.5911 0.078 Uiso 1 1 calc R . . 
H12B H 0.2009 0.3927 0.4178 0.078 Uiso 1 1 calc R . . 
C13 C 0.14455(6) 0.46036(14) 0.4098(3) 0.0673(5) Uani 1 1 d . . . 
H13A H 0.1198 0.4542 0.4659 0.081 Uiso 1 1 calc R A . 
H13B H 0.1355 0.4472 0.2941 0.081 Uiso 1 1 calc R . . 
C14 C 0.15998(8) 0.56042(16) 0.4266(3) 0.0821(7) Uani 1 1 d . A . 
H14A H 0.1660 0.5767 0.5412 0.123 Uiso 1 1 calc R . . 
H14B H 0.1384 0.6021 0.3728 0.123 Uiso 1 1 calc R . . 
H14C H 0.1854 0.5668 0.3767 0.123 Uiso 1 1 calc R . . 
C15 C 0.14853(6) 0.22175(14) 0.2482(3) 0.0645(5) Uani 1 1 d . A . 
H15A H 0.1291 0.2659 0.1857 0.077 Uiso 1 1 calc R . . 
H15B H 0.1752 0.2246 0.2040 0.077 Uiso 1 1 calc R . . 
C16 C 0.13064(7) 0.12370(15) 0.2202(3) 0.0735(6) Uani 1 1 d . . . 
H16A H 0.1513 0.0785 0.2725 0.088 Uiso 1 1 calc R A . 
H16B H 0.1053 0.1184 0.2731 0.088 Uiso 1 1 calc R . . 
C17 C 0.11944(9) 0.0979(2) 0.0420(3) 0.0973(8) Uani 1 1 d . A . 
H17A H 0.0982 0.1409 -0.0101 0.146 Uiso 1 1 calc R . . 
H17B H 0.1085 0.0344 0.0331 0.146 Uiso 1 1 calc R . . 
H17C H 0.1444 0.1019 -0.0111 0.146 Uiso 1 1 calc R . . 
C18 C 0.19436(12) 0.1775(3) 0.5812(4) 0.0680(9) Uani 0.736(4) 1 d PDU A 1 
H18A H 0.1817 0.1149 0.5684 0.082 Uiso 0.736(4) 1 calc PR A 1 
H18B H 0.2208 0.1759 0.5348 0.082 Uiso 0.736(4) 1 calc PR A 1 
C19 C 0.20424(11) 0.1998(3) 0.7614(4) 0.0899(11) Uani 0.736(4) 1 d PDU A 1 
H19A H 0.2190 0.2601 0.7739 0.108 Uiso 0.736(4) 1 calc PR A 1 
H19B H 0.1776 0.2071 0.8052 0.108 Uiso 0.736(4) 1 calc PR A 1 
C20 C 0.23071(14) 0.1273(4) 0.8621(5) 0.1053(15) Uani 0.736(4) 1 d PDU A 1 
H20A H 0.2127 0.0878 0.9177 0.158 Uiso 0.736(4) 1 calc PR A 1 
H20B H 0.2512 0.1585 0.9419 0.158 Uiso 0.736(4) 1 calc PR A 1 
H20C H 0.2453 0.0889 0.7915 0.158 Uiso 0.736(4) 1 calc PR A 1 
C18' C 0.2009(4) 0.2079(8) 0.6321(15) 0.0680(9) Uani 0.264(4) 1 d PDU A 2 
H18C H 0.2283 0.2103 0.5930 0.082 Uiso 0.264(4) 1 calc PR A 2 
H18D H 0.2029 0.2470 0.7301 0.082 Uiso 0.264(4) 1 calc PR A 2 
C19' C 0.1927(3) 0.1113(7) 0.6770(12) 0.087(2) Uani 0.264(4) 1 d PDU A 2 
H19C H 0.1906 0.0728 0.5782 0.104 Uiso 0.264(4) 1 calc PR A 2 
H19D H 0.1652 0.1095 0.7151 0.104 Uiso 0.264(4) 1 calc PR A 2 
C20' C 0.2245(3) 0.0659(9) 0.8054(15) 0.093(3) Uani 0.264(4) 1 d PDU A 2 
H20D H 0.2175 0.0002 0.8154 0.140 Uiso 0.264(4) 1 calc PR A 2 
H20E H 0.2240 0.0971 0.9091 0.140 Uiso 0.264(4) 1 calc PR A 2 
H20F H 0.2524 0.0713 0.7743 0.140 Uiso 0.264(4) 1 calc PR A 2 
 
loop_ 
 _atom_site_aniso_label 
 _atom_site_aniso_U_11 
 _atom_site_aniso_U_22 
 _atom_site_aniso_U_33 
 _atom_site_aniso_U_23 
 _atom_site_aniso_U_13 
 _atom_site_aniso_U_12 
Si1 0.0407(3) 0.0681(3) 0.0645(3) 0.0092(2) 0.0205(2) 0.0067(2) 
F1 0.0847(8) 0.0320(5) 0.1042(9) 0.0131(5) -0.0161(7) -0.0130(5) 
F2 0.0596(6) 0.0483(5) 0.0809(7) 0.0158(5) 0.0048(5) -0.0146(4) 
C1 0.0636(10) 0.0294(7) 0.0712(12) 0.0076(7) -0.0219(9) -0.0070(6) 
C2 0.0465(9) 0.0395(8) 0.0569(10) 0.0068(7) -0.0099(7) -0.0076(6) 
C3 0.0393(7) 0.0327(7) 0.0458(8) 0.0031(6) -0.0082(6) -0.0031(5) 
C4 0.0334(7) 0.0375(7) 0.0465(8) 0.0035(6) 0.0014(6) -0.0026(5) 
C5 0.0313(7) 0.0325(7) 0.0404(8) 0.0015(6) 0.0016(6) -0.0001(5) 
C6 0.0328(7) 0.0366(7) 0.0422(8) 0.0004(6) 0.0050(6) 0.0011(5) 
C7 0.0379(7) 0.0335(7) 0.0452(8) -0.0019(6) 0.0046(6) 0.0020(5) 
C8 0.0495(9) 0.0380(8) 0.0659(11) -0.0038(7) 0.0133(8) 0.0059(7) 
C9 0.0632(11) 0.0338(8) 0.0872(14) -0.0051(8) 0.0122(10) 0.0068(7) 
C10 0.0405(8) 0.0384(8) 0.0495(9) 0.0012(6) 0.0079(7) 0.0031(6) 
C11 0.0436(8) 0.0501(9) 0.0578(10) 0.0036(7) 0.0137(7) 0.0050(7) 
C12 0.0496(10) 0.0865(14) 0.0609(11) 0.0010(10) 0.0140(8) -0.0135(9) 
C13 0.0623(11) 0.0641(12) 0.0760(13) -0.0038(10) 0.0120(10) -0.0135(9) 
C14 0.0968(17) 0.0728(14) 0.0797(15) -0.0023(11) 0.0226(13) -0.0287(12) 
C15 0.0626(11) 0.0617(11) 0.0751(13) 0.0028(9) 0.0295(10) 0.0041(9) 
C16 0.0700(13) 0.0663(13) 0.0874(15) 0.0033(11) 0.0221(11) -0.0011(10) 
C17 0.118(2) 0.0910(18) 0.0892(18) -0.0191(14) 0.0357(16) -0.0208(15) 
C18 0.0483(15) 0.090(2) 0.067(2) 0.0081(16) 0.0121(15) 0.0157(15) 
C19 0.080(2) 0.114(3) 0.073(2) 0.0117(19) 0.0016(16) 0.0183(19) 
C20 0.084(3) 0.144(4) 0.085(3) 0.032(3) 0.002(2) 0.029(3) 
C18' 0.0483(15) 0.090(2) 0.067(2) 0.0081(16) 0.0121(15) 0.0157(15) 
C19' 0.076(4) 0.102(4) 0.083(4) 0.025(4) 0.012(3) 0.010(4) 
C20' 0.070(5) 0.110(8) 0.100(7) 0.048(6) 0.014(5) 0.010(6) 
 
_geom_special_details 
; 
 All esds (except the esd in the dihedral angle between two l.s. planes) 
 are estimated using the full covariance matrix.  The cell esds are taken 
 into account individually in the estimation of esds in distances, angles 
 and torsion angles; correlations between esds in cell parameters are only 
 used when they are defined by crystal symmetry.  An approximate (isotropic) 
 treatment of cell esds is used for estimating esds involving l.s. planes. 
; 
 
loop_ 
 _geom_bond_atom_site_label_1 
 _geom_bond_atom_site_label_2 
 _geom_bond_distance 
 _geom_bond_site_symmetry_2 
 _geom_bond_publ_flag 
Si1 C11 1.8473(17) . ? 
Si1 C18 1.852(4) . ? 
Si1 C15 1.866(2) . ? 
Si1 C12 1.876(2) . ? 
Si1 C18' 1.967(12) . ? 
F1 C1 1.3439(19) . ? 
F2 C2 1.348(2) . ? 
C1 C2 1.345(2) . ? 
C1 C1 1.412(4) 2_556 ? 
C2 C3 1.423(2) . ? 
C3 C4 1.383(2) . ? 
C3 C3 1.441(3) 2_556 ? 
C4 C5 1.4044(19) . ? 
C4 H4 0.9400 . ? 
C5 C6 1.4254(19) . ? 
C5 C5 1.439(3) 2_556 ? 
C6 C7 1.4020(19) . ? 
C6 C10 1.435(2) . ? 
C7 C8 1.427(2) . ? 
C7 C7 1.435(3) 2_556 ? 
C8 C9 1.349(2) . ? 
C8 H8 0.9400 . ? 
C9 C9 1.414(4) 2_556 ? 
C9 H9 0.9400 . ? 
C10 C11 1.201(2) . ? 
C12 C13 1.509(3) . ? 
C12 H12A 0.9800 . ? 
C12 H12B 0.9800 . ? 
C13 C14 1.510(3) . ? 
C13 H13A 0.9800 . ? 
C13 H13B 0.9800 . ? 
C14 H14A 0.9700 . ? 
C14 H14B 0.9700 . ? 
C14 H14C 0.9700 . ? 
C15 C16 1.516(3) . ? 
C15 H15A 0.9800 . ? 
C15 H15B 0.9800 . ? 
C16 C17 1.516(3) . ? 
C16 H16A 0.9800 . ? 
C16 H16B 0.9800 . ? 
C17 H17A 0.9700 . ? 
C17 H17B 0.9700 . ? 
C17 H17C 0.9700 . ? 
C18 C19 1.517(5) . ? 
C18 H18A 0.9800 . ? 
C18 H18B 0.9800 . ? 
C19 C20 1.511(5) . ? 
C19 H19A 0.9800 . ? 
C19 H19B 0.9800 . ? 
C20 H20A 0.9700 . ? 
C20 H20B 0.9700 . ? 
C20 H20C 0.9700 . ? 
C18' C19' 1.461(12) . ? 
C18' H18C 0.9800 . ? 
C18' H18D 0.9800 . ? 
C19' C20' 1.509(11) . ? 
C19' H19C 0.9800 . ? 
C19' H19D 0.9800 . ? 
C20' H20D 0.9700 . ? 
C20' H20E 0.9700 . ? 
C20' H20F 0.9700 . ? 
 
loop_ 
 _geom_angle_atom_site_label_1 
 _geom_angle_atom_site_label_2 
 _geom_angle_atom_site_label_3 
 _geom_angle 
 _geom_angle_site_symmetry_1 
 _geom_angle_site_symmetry_3 
 _geom_angle_publ_flag 
C11 Si1 C18 107.29(13) . . ? 
C11 Si1 C15 108.43(9) . . ? 
C18 Si1 C15 107.74(13) . . ? 
C11 Si1 C12 107.24(8) . . ? 
C18 Si1 C12 115.14(14) . . ? 
C15 Si1 C12 110.78(9) . . ? 
C11 Si1 C18' 106.2(4) . . ? 
C15 Si1 C18' 124.0(4) . . ? 
C12 Si1 C18' 98.9(3) . . ? 
F1 C1 C2 121.28(18) . . ? 
F1 C1 C1 118.38(10) . 2_556 ? 
C2 C1 C1 120.34(11) . 2_556 ? 
C1 C2 F2 119.82(14) . . ? 
C1 C2 C3 121.77(16) . . ? 
F2 C2 C3 118.39(14) . . ? 
C4 C3 C2 122.65(14) . . ? 
C4 C3 C3 119.49(8) . 2_556 ? 
C2 C3 C3 117.86(9) . 2_556 ? 
C3 C4 C5 121.44(13) . . ? 
C3 C4 H4 119.3 . . ? 
C5 C4 H4 119.3 . . ? 
C4 C5 C6 121.56(13) . . ? 
C4 C5 C5 119.04(8) . 2_556 ? 
C6 C5 C5 119.39(8) . 2_556 ? 
C7 C6 C5 120.57(13) . . ? 
C7 C6 C10 120.44(12) . . ? 
C5 C6 C10 118.99(12) . . ? 
C6 C7 C8 121.61(13) . . ? 
C6 C7 C7 120.03(8) . 2_556 ? 
C8 C7 C7 118.35(9) . 2_556 ? 
C9 C8 C7 120.96(15) . . ? 
C9 C8 H8 119.5 . . ? 
C7 C8 H8 119.5 . . ? 
C8 C9 C9 120.68(10) . 2_556 ? 
C8 C9 H9 119.7 . . ? 
C9 C9 H9 119.7 2_556 . ? 
C11 C10 C6 179.20(18) . . ? 
C10 C11 Si1 177.90(16) . . ? 
C13 C12 Si1 116.31(13) . . ? 
C13 C12 H12A 108.2 . . ? 
Si1 C12 H12A 108.2 . . ? 
C13 C12 H12B 108.2 . . ? 
Si1 C12 H12B 108.2 . . ? 
H12A C12 H12B 107.4 . . ? 
C12 C13 C14 114.87(18) . . ? 
C12 C13 H13A 108.5 . . ? 
C14 C13 H13A 108.5 . . ? 
C12 C13 H13B 108.5 . . ? 
C14 C13 H13B 108.5 . . ? 
H13A C13 H13B 107.5 . . ? 
C13 C14 H14A 109.5 . . ? 
C13 C14 H14B 109.5 . . ? 
H14A C14 H14B 109.5 . . ? 
C13 C14 H14C 109.5 . . ? 
H14A C14 H14C 109.5 . . ? 
H14B C14 H14C 109.5 . . ? 
C16 C15 Si1 116.11(15) . . ? 
C16 C15 H15A 108.3 . . ? 
Si1 C15 H15A 108.3 . . ? 
C16 C15 H15B 108.3 . . ? 
Si1 C15 H15B 108.3 . . ? 
H15A C15 H15B 107.4 . . ? 
C17 C16 C15 113.85(19) . . ? 
C17 C16 H16A 108.8 . . ? 
C15 C16 H16A 108.8 . . ? 
C17 C16 H16B 108.8 . . ? 
C15 C16 H16B 108.8 . . ? 
H16A C16 H16B 107.7 . . ? 
C16 C17 H17A 109.5 . . ? 
C16 C17 H17B 109.5 . . ? 
H17A C17 H17B 109.5 . . ? 
C16 C17 H17C 109.5 . . ? 
H17A C17 H17C 109.5 . . ? 
H17B C17 H17C 109.5 . . ? 
C19 C18 Si1 113.9(3) . . ? 
C19 C18 H18A 108.8 . . ? 
Si1 C18 H18A 108.8 . . ? 
C19 C18 H18B 108.8 . . ? 
Si1 C18 H18B 108.8 . . ? 
H18A C18 H18B 107.7 . . ? 
C20 C19 C18 115.0(3) . . ? 
C20 C19 H19A 108.5 . . ? 
C18 C19 H19A 108.5 . . ? 
C20 C19 H19B 108.5 . . ? 
C18 C19 H19B 108.5 . . ? 
H19A C19 H19B 107.5 . . ? 
C19 C20 H20A 109.5 . . ? 
C19 C20 H20B 109.5 . . ? 
H20A C20 H20B 109.5 . . ? 
C19 C20 H20C 109.5 . . ? 
H20A C20 H20C 109.5 . . ? 
H20B C20 H20C 109.5 . . ? 
C19' C18' Si1 114.9(8) . . ? 
C19' C18' H18C 108.5 . . ? 
Si1 C18' H18C 108.5 . . ? 
C19' C18' H18D 108.6 . . ? 
Si1 C18' H18D 108.5 . . ? 
H18C C18' H18D 107.5 . . ? 
C18' C19' C20' 117.2(9) . . ? 
C18' C19' H19C 108.0 . . ? 
C20' C19' H19C 108.0 . . ? 
C18' C19' H19D 108.0 . . ? 
C20' C19' H19D 108.0 . . ? 
H19C C19' H19D 107.2 . . ? 
C19' C20' H20D 109.5 . . ? 
C19' C20' H20E 109.5 . . ? 
H20D C20' H20E 109.5 . . ? 
C19' C20' H20F 109.5 . . ? 
H20D C20' H20F 109.5 . . ? 
H20E C20' H20F 109.5 . . ? 
 
loop_ 
 _geom_torsion_atom_site_label_1 
 _geom_torsion_atom_site_label_2 
 _geom_torsion_atom_site_label_3 
 _geom_torsion_atom_site_label_4 
 _geom_torsion 
 _geom_torsion_site_symmetry_1 
 _geom_torsion_site_symmetry_2 
 _geom_torsion_site_symmetry_3 
 _geom_torsion_site_symmetry_4 
 _geom_torsion_publ_flag 
F1 C1 C2 F2 -0.7(2) . . . . ? 
C1 C1 C2 F2 178.67(18) 2_556 . . . ? 
F1 C1 C2 C3 -178.92(14) . . . . ? 
C1 C1 C2 C3 0.5(3) 2_556 . . . ? 
C1 C2 C3 C4 -178.63(15) . . . . ? 
F2 C2 C3 C4 3.1(2) . . . . ? 
C1 C2 C3 C3 1.6(3) . . . 2_556 ? 
F2 C2 C3 C3 -176.60(15) . . . 2_556 ? 
C2 C3 C4 C5 -178.75(14) . . . . ? 
C3 C3 C4 C5 1.0(2) 2_556 . . . ? 
C3 C4 C5 C6 -179.52(13) . . . . ? 
C3 C4 C5 C5 1.2(2) . . . 2_556 ? 
C4 C5 C6 C7 -178.62(13) . . . . ? 
C5 C5 C6 C7 0.6(2) 2_556 . . . ? 
C4 C5 C6 C10 1.6(2) . . . . ? 
C5 C5 C6 C10 -179.10(15) 2_556 . . . ? 
C5 C6 C7 C8 179.67(14) . . . . ? 
C10 C6 C7 C8 -0.6(2) . . . . ? 
C5 C6 C7 C7 -0.1(3) . . . 2_556 ? 
C10 C6 C7 C7 179.61(16) . . . 2_556 ? 
C6 C7 C8 C9 -179.91(16) . . . . ? 
C7 C7 C8 C9 -0.1(3) 2_556 . . . ? 
C7 C8 C9 C9 -0.2(4) . . . 2_556 ? 
C11 Si1 C12 C13 -49.52(17) . . . . ? 
C18 Si1 C12 C13 -168.82(18) . . . . ? 
C15 Si1 C12 C13 68.63(17) . . . . ? 
C18' Si1 C12 C13 -159.6(4) . . . . ? 
Si1 C12 C13 C14 178.10(15) . . . . ? 
C11 Si1 C15 C16 -58.52(17) . . . . ? 
C18 Si1 C15 C16 57.3(2) . . . . ? 
C12 Si1 C15 C16 -175.95(14) . . . . ? 
C18' Si1 C15 C16 66.9(4) . . . . ? 
Si1 C15 C16 C17 174.34(17) . . . . ? 
C11 Si1 C18 C19 -61.8(3) . . . . ? 
C15 Si1 C18 C19 -178.3(3) . . . . ? 
C12 Si1 C18 C19 57.5(3) . . . . ? 
C18' Si1 C18 C19 27.6(13) . . . . ? 
Si1 C18 C19 C20 175.1(3) . . . . ? 
C11 Si1 C18' C19' 59.5(9) . . . . ? 
C18 Si1 C18' C19' -36.8(10) . . . . ? 
C15 Si1 C18' C19' -66.9(10) . . . . ? 
C12 Si1 C18' C19' 170.5(8) . . . . ? 
Si1 C18' C19' C20' -180.0(9) . . . . ? 
 
_diffrn_measured_fraction_theta_max    0.996 
_diffrn_reflns_theta_full              27.46 
_diffrn_measured_fraction_theta_full   0.996 
_refine_diff_density_max    0.238 
_refine_diff_density_min   -0.322 
_refine_diff_density_rms    0.036 
