data_x15401 
 
_audit_creation_method            'SHELXL-2014/7 and CIFFIX' 
# CIF edited on-the-fly by script CIFFIX (S. Parkin, 2000-2014). 
# CIFFIX: http://xray.uky.edu/people/parkin/programs/ciffix 
_audit_update_record              ? 
 
_chemical_name_systematic         ? 
_chemical_name_common             ? 
_chemical_melting_point           ? 
_chemical_formula_moiety          '?' 
_chemical_formula_sum             'C64 H75 S6 Si2' 
_chemical_formula_weight          1092.78 
 
loop_ 
 _atom_type_symbol 
 _atom_type_description 
 _atom_type_scat_dispersion_real 
 _atom_type_scat_dispersion_imag 
 _atom_type_scat_source 
 'C'  'C'   0.0181   0.0091 
 'International Tables Vol C Tables 4.2.6.8 and 6.1.1.4' 
 'H'  'H'   0.0000   0.0000 
 'International Tables Vol C Tables 4.2.6.8 and 6.1.1.4' 
 'Si'  'Si'   0.2541   0.3302 
 'International Tables Vol C Tables 4.2.6.8 and 6.1.1.4' 
 'S'  'S'   0.3331   0.5567 
 'International Tables Vol C Tables 4.2.6.8 and 6.1.1.4' 
 
_space_group_crystal_system       triclinic 
_space_group_IT_number            2 
_space_group_name_H-M_alt         'P -1' 
_space_group_name_Hall            '-P 1' 
 
_shelx_space_group_comment 
; 
The symmetry employed for this shelxl refinement is uniquely defined 
by the following loop, which should always be used as a source of 
symmetry information in preference to the above space-group names. 
They are only intended as comments. 
; 
 
loop_ 
 _space_group_symop_operation_xyz 
 'x, y, z' 
 '-x, -y, -z' 
 
_cell_length_a                    9.8492(3) 
_cell_length_b                    10.2479(2) 
_cell_length_c                    16.9850(5) 
_cell_angle_alpha                 93.416(2) 
_cell_angle_beta                  106.750(2) 
_cell_angle_gamma                 110.500(2) 
_cell_volume                      1512.84(7) 
_cell_formula_units_Z             1 
_cell_measurement_temperature     90.0(2) 
_cell_measurement_reflns_used     7008 
_cell_measurement_theta_min       2.76 
_cell_measurement_theta_max       67.99 
 
_exptl_crystal_description 
_exptl_crystal_colour 
_exptl_crystal_density_meas       ? 
_exptl_crystal_density_method     ? 
_exptl_crystal_density_diffrn     1.199 
_exptl_crystal_F_000              583 
_exptl_transmission_factor_min    ? 
_exptl_transmission_factor_max    ? 
_exptl_crystal_size_max           ? 
_exptl_crystal_size_mid           ? 
_exptl_crystal_size_min           ? 
_exptl_absorpt_coefficient_mu     2.747 
_shelx_estimated_absorpt_T_min    ? 
_shelx_estimated_absorpt_T_max    ? 
_exptl_absorpt_correction_type    multi-scan 
_exptl_absorpt_correction_T_min   0.433 
_exptl_absorpt_correction_T_max   0.864 
_exptl_absorpt_process_details    '<i>SADABS</i> (Krause et al., 2015)' 
_exptl_absorpt_special_details 
; 
In addition to absorption, multi-scan techniques also correct other slowly 
varying changes in scale factor over reciprocal space, such as those caused 
by x-ray beam inhomogeneity, goniometer imperfection, crystal decomposition, 
crystal longer than the x-ray beam cross section, absorption by the crystal 
mount etc.  These account, by and large, for much of the difference between 
estimated values of Tmin and Tmax and the _exptl_absorpt_correction_ values. 
; 
 
_exptl_special_details 
; 
The crystal was mounted using polyisobutene oil on the tip of a fine glass 
fibre, which was fastened in a copper mounting pin with electrical solder. 
It was placed directly into the cold gas stream of a liquid-nitrogen based 
cryostat (Hope, 1994; Parkin & Hope, 1998). 
 
Diffraction data were collected with the crystal at 90K, which is standard 
practice in this laboratory for the majority of flash-cooled crystals. 
; 
 
_diffrn_ambient_temperature       90.0(2) 
_diffrn_radiation_wavelength      1.54178 
_diffrn_radiation_type            CuK\a 
_diffrn_source                    'fine-focus rotating anode' 
_diffrn_measurement_device_type   'Bruker X8 Proteum diffractometer' 
_diffrn_measurement_method        '\f and \w scans' 
_diffrn_detector_area_resol_mean  5.6 
_diffrn_reflns_number             19434 
_diffrn_reflns_av_unetI/netI      0.0450 
_diffrn_reflns_av_R_equivalents   0.0530 
_diffrn_reflns_limit_h_min        -11 
_diffrn_reflns_limit_h_max        11 
_diffrn_reflns_limit_k_min        -4 
_diffrn_reflns_limit_k_max        12 
_diffrn_reflns_limit_l_min        -20 
_diffrn_reflns_limit_l_max        20 
_diffrn_reflns_theta_min          2.761 
_diffrn_reflns_theta_max          68.219 
_diffrn_reflns_theta_full         67.679 
_diffrn_measured_fraction_theta_max                0.975 
_diffrn_measured_fraction_theta_full               0.981 
_diffrn_reflns_Laue_measured_fraction_max          0.975 
_diffrn_reflns_Laue_measured_fraction_full         0.981 
_diffrn_reflns_point_group_measured_fraction_max   0.975 
_diffrn_reflns_point_group_measured_fraction_full  0.981 
 
_reflns_number_total              5404 
_reflns_number_gt                 3328 
_reflns_threshold_expression      'I > 2\s(I)' 
_reflns_Friedel_coverage          0.000 
_reflns_Friedel_fraction_max      . 
_reflns_Friedel_fraction_full     . 
_reflns_special_details 
; 
Reflections were merged by SHELXL according to the crystal 
class for the calculation of statistics and refinement. 
 
_reflns_Friedel_fraction is defined as the number of unique 
Friedel pairs measured divided by the number that would be 
possible theoretically, ignoring centric projections and 
systematic absences. 
; 
 
_computing_data_collection        '<i>APEX2</i> (Bruker-AXS, 2006)' 
_computing_cell_refinement        '<i>APEX2</i> (Bruker-AXS, 2006)' 
_computing_data_reduction         '<i>APEX2</i> (Bruker-AXS, 2006)' 
_computing_structure_solution     '<i>SHELXT</i> (Sheldrick, 2015a)' 
_computing_structure_refinement   '<i>SHELXL-2014/7</i> (Sheldrick, 2015b)' 
_computing_molecular_graphics     '<i>XP in SHELXTL</i> (Sheldrick, 2008)' 
_computing_publication_material 
'<i>SHELX</i> (Sheldrick, 2008) and <i>CIFFIX</i> (Parkin, 2013)' 
 
_refine_special_details 
; 
Refinement progress was checked using <i>Platon</i> (Spek, 2009) and by 
an <i>R</i>-tensor (Parkin, 2000). The final model was further checked 
with the IUCr utility <i>checkCIF</i>. 
; 
_refine_ls_structure_factor_coef  Fsqd 
_refine_ls_matrix_type            full 
_refine_ls_weighting_scheme       calc 
_refine_ls_weighting_details 
'w=1/[\s^2^(Fo^2^)+(0.1000P)^2^] where P=(Fo^2^+2Fc^2^)/3' 
_atom_sites_solution_primary      direct 
_atom_sites_solution_secondary    difmap 
_atom_sites_solution_hydrogens    . 
_refine_ls_hydrogen_treatment     undef 
_refine_ls_extinction_method      none 
_refine_ls_extinction_coef        . 
_refine_ls_number_reflns          5404 
_refine_ls_number_parameters      287 
_refine_ls_number_restraints      751 
_refine_ls_R_factor_all           0.2465 
_refine_ls_R_factor_gt            0.1959 
_refine_ls_wR_factor_ref          0.5224 
_refine_ls_wR_factor_gt           0.4838 
_refine_ls_goodness_of_fit_ref    3.360 
_refine_ls_restrained_S_all       3.508 
_refine_ls_shift/su_max           0.704 
_refine_ls_shift/su_mean          0.087 
 
loop_ 
 _atom_site_label 
 _atom_site_type_symbol 
 _atom_site_fract_x 
 _atom_site_fract_y 
 _atom_site_fract_z 
 _atom_site_U_iso_or_equiv 
 _atom_site_adp_type 
 _atom_site_occupancy 
 _atom_site_site_symmetry_order 
 _atom_site_calc_flag 
 _atom_site_refinement_flags_posn 
 _atom_site_refinement_flags_adp 
 _atom_site_refinement_flags_occupancy 
 _atom_site_disorder_assembly 
 _atom_site_disorder_group 
Si1 Si 1.0098(4) 1.2055(4) 0.8187(2) 0.1044(13) Uani 1 1 d . U . . . 
C1 C 0.6250(9) 1.0491(7) 0.5752(5) 0.054(2) Uani 1 1 d . U . . . 
C2 C 0.601(2) 0.9349(17) 0.5311(11) 0.036(2) Uani 0.530(6) 1 d D U P A 1 
C3 C 0.481(2) 0.8719(19) 0.4583(12) 0.040(2) Uani 0.530(6) 1 d D U P A 1 
C4 C 0.4734(18) 0.7369(17) 0.4187(10) 0.0503(14) Uani 0.530(6) 1 d D U P A 1 
C5 C 0.585(4) 0.706(3) 0.4628(19) 0.048(3) Uani 0.530(6) 1 d D U P A 1 
S1 S 0.7078(4) 0.8305(3) 0.5528(2) 0.0435(12) Uani 0.530(6) 1 d D U P A 1 
C6 C 0.611(3) 0.577(2) 0.4430(15) 0.051(3) Uani 0.612(5) 1 d D U P A 1 
S2 S 0.4938(3) 0.4487(3) 0.3539(2) 0.0425(9) Uani 0.612(5) 1 d D U P A 1 
C7 C 0.730(2) 0.5498(17) 0.4749(14) 0.0999(17) Uani 0.612(5) 1 d D U P A 1 
C8 C 0.7300(15) 0.4110(13) 0.4587(8) 0.043(3) Uani 0.612(5) 1 d D U P A 1 
C9 C 0.834(3) 0.342(2) 0.4863(14) 0.048(3) Uani 0.612(5) 1 d D U P A 1 
C10 C 0.804(3) 0.215(3) 0.4374(16) 0.0539(17) Uani 0.612(5) 1 d D U P A 1 
S3 S 0.9253(4) 0.1232(3) 0.4690(2) 0.0494(10) Uani 0.612(5) 1 d D U P A 1 
C11 C 0.805(4) -0.008(3) 0.3838(19) 0.067(3) Uani 0.612(5) 1 d D U P A 1 
C12 C 0.6931(19) 0.0235(16) 0.3434(11) 0.086(2) Uani 0.612(5) 1 d D U P A 1 
C13 C 0.6891(15) 0.1607(15) 0.3619(8) 0.051(3) Uani 0.612(5) 1 d D U P A 1 
C14 C 0.584(3) 0.230(2) 0.3341(14) 0.055(3) Uani 0.612(5) 1 d D U P A 1 
C15 C 0.609(3) 0.353(2) 0.3848(13) 0.054(3) Uani 0.612(5) 1 d D U P A 1 
C3' C 0.452(3) 0.8761(19) 0.4431(13) 0.040(2) Uani 0.470(6) 1 d D U P A 2 
C2' C 0.578(2) 0.9087(19) 0.5132(12) 0.036(2) Uani 0.470(6) 1 d D U P A 2 
C4' C 0.6513(19) 0.8043(16) 0.5191(10) 0.0435(12) Uani 0.470(6) 1 d D U P A 2 
C5' C 0.578(4) 0.702(3) 0.455(2) 0.048(3) Uani 0.470(6) 1 d D U P A 2 
S1' S 0.4204(5) 0.7185(4) 0.3842(3) 0.0503(14) Uani 0.470(6) 1 d D U P A 2 
C6' C 0.616(5) 0.580(4) 0.438(2) 0.051(3) Uani 0.388(5) 1 d D U P A 2 
S2' S 0.7690(7) 0.5652(6) 0.5135(3) 0.0999(17) Uani 0.612(5) 1 d D U P A 2 
C7' C 0.548(2) 0.4676(18) 0.3809(12) 0.0425(9) Uani 0.388(5) 1 d D U P A 2 
C8' C 0.613(4) 0.360(3) 0.380(2) 0.054(3) Uani 0.388(5) 1 d D U P A 2 
C9' C 0.572(4) 0.218(3) 0.340(2) 0.055(3) Uani 0.388(5) 1 d D U P A 2 
C10' C 0.671(2) 0.150(2) 0.3709(13) 0.051(3) Uani 0.388(5) 1 d D U P A 2 
S3' S 0.6459(9) 0.0056(7) 0.3018(5) 0.086(2) Uani 0.388(5) 1 d D U P A 2 
C11' C 0.805(6) -0.003(4) 0.375(3) 0.067(3) Uani 0.388(5) 1 d D U P A 2 
C12' C 0.875(2) 0.1090(18) 0.4315(12) 0.0494(10) Uani 0.388(5) 1 d D U P A 2 
C13' C 0.808(5) 0.215(4) 0.435(3) 0.0539(17) Uani 0.388(5) 1 d D U P A 2 
C14' C 0.843(4) 0.353(3) 0.479(2) 0.048(3) Uani 0.388(5) 1 d D U P A 2 
C15' C 0.748(2) 0.4225(19) 0.4457(11) 0.043(3) Uani 0.388(5) 1 d D U P A 2 
C16 C 0.7546(11) 1.1013(10) 0.6558(7) 0.075(3) Uani 1 1 d . U . . . 
C17 C 0.8521(13) 1.1399(12) 0.7198(8) 0.091(3) Uani 1 1 d . U . . . 
C98 C 1.137(2) 1.374(2) 0.8033(14) 0.175(7) Uiso 1 1 d . . . . . 
C99 C 1.082(3) 1.057(3) 0.8394(15) 0.201(9) Uiso 1 1 d . . . . . 
C97 C 1.039(3) 1.316(3) 0.993(2) 0.286(14) Uiso 1 1 d . . . . . 
C96 C 1.199(2) 1.346(2) 0.7236(14) 0.206(9) Uiso 1 1 d . . . . . 
C95 C 0.968(3) 0.691(3) 0.7230(17) 0.228(10) Uiso 1 1 d . . . . . 
C94 C 0.868(3) 1.362(3) 0.8773(19) 0.265(12) Uiso 1 1 d . . . . . 
C93 C 0.918(2) 1.246(2) 0.8938(14) 0.178(7) Uiso 1 1 d . . . . . 
C92 C 1.069(5) 0.837(5) 0.808(3) 0.39(2) Uiso 1 1 d . . . . . 
C91 C 1.439(5) 1.725(5) 0.906(3) 0.41(2) Uiso 1 1 d . . . . . 
C90 C 1.290(3) 1.459(3) 0.8717(18) 0.253(12) Uiso 1 1 d . . . . . 
C89 C 0.964(5) 0.936(4) 0.818(2) 0.307(16) Uiso 1 1 d . . . . . 
 
loop_ 
 _atom_site_aniso_label 
 _atom_site_aniso_U_11 
 _atom_site_aniso_U_22 
 _atom_site_aniso_U_33 
 _atom_site_aniso_U_23 
 _atom_site_aniso_U_13 
 _atom_site_aniso_U_12 
Si1 0.090(2) 0.130(3) 0.088(2) 0.039(2) 0.0324(19) 0.030(2) 
C1 0.058(4) 0.046(4) 0.077(5) 0.022(4) 0.038(4) 0.027(3) 
C2 0.045(4) 0.024(4) 0.049(5) 0.008(3) 0.016(3) 0.025(4) 
C3 0.044(5) 0.034(3) 0.055(5) 0.017(3) 0.022(4) 0.022(3) 
C4 0.060(3) 0.033(2) 0.071(3) 0.016(2) 0.027(2) 0.028(2) 
C5 0.059(3) 0.033(3) 0.070(5) 0.016(3) 0.034(3) 0.027(3) 
S1 0.054(2) 0.0310(18) 0.070(3) 0.0215(16) 0.0327(17) 0.0336(17) 
C6 0.059(4) 0.034(3) 0.082(4) 0.021(3) 0.042(3) 0.028(3) 
S2 0.0470(19) 0.0310(14) 0.070(2) 0.0205(13) 0.0294(14) 0.0290(14) 
C7 0.113(3) 0.080(2) 0.131(4) 0.030(2) 0.050(3) 0.056(2) 
C8 0.049(4) 0.036(3) 0.068(4) 0.031(3) 0.040(3) 0.023(3) 
C9 0.048(4) 0.039(4) 0.077(5) 0.028(3) 0.035(3) 0.026(3) 
C10 0.059(3) 0.039(3) 0.088(4) 0.025(2) 0.041(3) 0.032(2) 
S3 0.052(2) 0.0292(13) 0.098(3) 0.0294(15) 0.0427(17) 0.0346(14) 
C11 0.077(4) 0.046(4) 0.102(6) 0.017(3) 0.049(4) 0.033(3) 
C12 0.100(4) 0.060(3) 0.119(5) 0.016(3) 0.050(3) 0.043(3) 
C13 0.055(4) 0.041(3) 0.080(4) 0.024(3) 0.043(3) 0.025(3) 
C14 0.061(4) 0.044(4) 0.075(5) 0.016(3) 0.034(3) 0.026(4) 
C15 0.059(4) 0.044(3) 0.079(4) 0.022(3) 0.033(3) 0.032(3) 
C3' 0.044(5) 0.034(3) 0.055(5) 0.017(3) 0.022(4) 0.022(3) 
C2' 0.045(4) 0.024(4) 0.049(5) 0.008(3) 0.016(3) 0.025(4) 
C4' 0.054(2) 0.0310(18) 0.070(3) 0.0215(16) 0.0327(17) 0.0336(17) 
C5' 0.059(3) 0.033(3) 0.070(5) 0.016(3) 0.034(3) 0.027(3) 
S1' 0.060(3) 0.033(2) 0.071(3) 0.016(2) 0.027(2) 0.028(2) 
C6' 0.059(4) 0.034(3) 0.082(4) 0.021(3) 0.042(3) 0.028(3) 
S2' 0.113(3) 0.080(2) 0.131(4) 0.030(2) 0.050(3) 0.056(2) 
C7' 0.0470(19) 0.0310(14) 0.070(2) 0.0205(13) 0.0294(14) 0.0290(14) 
C8' 0.059(4) 0.044(3) 0.079(4) 0.022(3) 0.033(3) 0.032(3) 
C9' 0.061(4) 0.044(4) 0.075(5) 0.016(3) 0.034(3) 0.026(4) 
C10' 0.055(4) 0.041(3) 0.080(4) 0.024(3) 0.043(3) 0.025(3) 
S3' 0.100(4) 0.060(3) 0.119(5) 0.016(3) 0.050(3) 0.043(3) 
C11' 0.077(4) 0.046(4) 0.102(6) 0.017(3) 0.049(4) 0.033(3) 
C12' 0.052(2) 0.0292(13) 0.098(3) 0.0294(15) 0.0427(17) 0.0346(14) 
C13' 0.059(3) 0.039(3) 0.088(4) 0.025(2) 0.041(3) 0.032(2) 
C14' 0.048(4) 0.039(4) 0.077(5) 0.028(3) 0.035(3) 0.026(3) 
C15' 0.049(4) 0.036(3) 0.068(4) 0.031(3) 0.040(3) 0.023(3) 
C16 0.070(5) 0.070(5) 0.085(6) 0.020(4) 0.029(5) 0.024(4) 
C17 0.086(6) 0.096(6) 0.089(6) 0.018(5) 0.035(5) 0.028(5) 
 
_geom_special_details 
; 
 All esds (except the esd in the dihedral angle between two l.s. planes) 
 are estimated using the full covariance matrix.  The cell esds are taken 
 into account individually in the estimation of esds in distances, angles 
 and torsion angles; correlations between esds in cell parameters are only 
 used when they are defined by crystal symmetry.  An approximate (isotropic) 
 treatment of cell esds is used for estimating esds involving l.s. planes. 
; 
 
loop_ 
 _geom_bond_atom_site_label_1 
 _geom_bond_atom_site_label_2 
 _geom_bond_distance 
 _geom_bond_site_symmetry_2 
 _geom_bond_publ_flag 
Si1 C17 1.821(13) . ? 
Si1 C98 1.83(2) . ? 
Si1 C93 1.86(2) . ? 
Si1 C99 1.90(2) . ? 
C1 C3' 1.252(16) 2_676 ? 
C1 C2 1.259(15) . ? 
C1 C16 1.488(13) . ? 
C1 C3 1.542(15) 2_676 ? 
C1 C2' 1.571(16) . ? 
C2 C3 1.367(12) . ? 
C2 S1 1.733(10) . ? 
C3 C4 1.469(17) . ? 
C3 C1 1.542(15) 2_676 ? 
C4 C5 1.296(14) . ? 
C5 C6 1.466(10) . ? 
C5 S1 1.747(10) . ? 
C6 C7 1.272(15) . ? 
C6 S2 1.745(10) . ? 
S2 C15 1.738(9) . ? 
C7 C8 1.433(16) . ? 
C8 C15 1.378(9) . ? 
C8 C9 1.432(16) . ? 
C9 C10 1.390(17) . ? 
C10 C13 1.369(10) . ? 
C10 S3 1.752(9) . ? 
S3 C11 1.725(10) . ? 
C11 C12 1.276(14) . ? 
C12 C13 1.439(16) . ? 
C13 C14 1.443(16) . ? 
C14 C15 1.385(17) . ? 
C3' C1 1.252(16) 2_676 ? 
C3' C2' 1.369(13) . ? 
C3' S1' 1.726(10) . ? 
C2' C4' 1.479(16) . ? 
C4' C5' 1.297(15) . ? 
C5' C6' 1.467(11) . ? 
C5' S1' 1.735(11) . ? 
C6' C7' 1.292(14) . ? 
C6' S2' 1.728(11) . ? 
S2' C15' 1.722(10) . ? 
C7' C8' 1.455(16) . ? 
C8' C15' 1.376(10) . ? 
C8' C9' 1.436(18) . ? 
C9' C10' 1.391(18) . ? 
C10' C13' 1.370(11) . ? 
C10' S3' 1.733(10) . ? 
S3' C11' 1.735(11) . ? 
C11' C12' 1.286(15) . ? 
C12' C13' 1.456(16) . ? 
C13' C14' 1.439(18) . ? 
C14' C15' 1.385(18) . ? 
C16 C17 1.159(13) . ? 
C98 C90 1.53(3) . ? 
C98 C96 1.68(3) . ? 
C99 C89 1.32(4) . ? 
C97 C93 1.69(3) . ? 
C95 C92 1.79(4) . ? 
C94 C93 1.45(3) . ? 
C92 C89 1.72(5) . ? 
 
loop_ 
 _geom_angle_atom_site_label_1 
 _geom_angle_atom_site_label_2 
 _geom_angle_atom_site_label_3 
 _geom_angle 
 _geom_angle_site_symmetry_1 
 _geom_angle_site_symmetry_3 
 _geom_angle_publ_flag 
C17 Si1 C98 103.6(8) . . ? 
C17 Si1 C93 103.3(8) . . ? 
C98 Si1 C93 107.8(9) . . ? 
C17 Si1 C99 106.3(9) . . ? 
C98 Si1 C99 119.4(10) . . ? 
C93 Si1 C99 114.6(10) . . ? 
C3' C1 C16 116.3(9) 2_676 . ? 
C2 C1 C16 118.6(9) . . ? 
C2 C1 C3 117.7(8) . 2_676 ? 
C16 C1 C3 123.7(8) . 2_676 ? 
C3' C1 C2' 118.4(8) 2_676 . ? 
C16 C1 C2' 125.3(8) . . ? 
C1 C2 C3 124.4(11) . . ? 
C1 C2 S1 126.5(11) . . ? 
C3 C2 S1 109.1(11) . . ? 
C2 C3 C4 114.8(12) . . ? 
C2 C3 C1 117.8(12) . 2_676 ? 
C4 C3 C1 127.3(12) . 2_676 ? 
C5 C4 C3 110.3(12) . . ? 
C4 C5 C6 125.1(13) . . ? 
C4 C5 S1 114.3(8) . . ? 
C6 C5 S1 120.6(11) . . ? 
C2 S1 C5 91.5(6) . . ? 
C7 C6 C5 128.4(16) . . ? 
C7 C6 S2 107.6(9) . . ? 
C5 C6 S2 122.8(10) . . ? 
C15 S2 C6 88.6(5) . . ? 
C6 C7 C8 121.9(13) . . ? 
C15 C8 C9 119.7(12) . . ? 
C15 C8 C7 101.2(11) . . ? 
C9 C8 C7 137.0(11) . . ? 
C10 C9 C8 117.2(6) . . ? 
C13 C10 C9 123.2(11) . . ? 
C13 C10 S3 117.2(10) . . ? 
C9 C10 S3 119.4(6) . . ? 
C11 S3 C10 87.9(4) . . ? 
C12 C11 S3 110.1(8) . . ? 
C11 C12 C13 122.1(12) . . ? 
C10 C13 C12 101.2(11) . . ? 
C10 C13 C14 119.3(12) . . ? 
C12 C13 C14 137.4(10) . . ? 
C15 C14 C13 117.3(6) . . ? 
C8 C15 C14 122.9(11) . . ? 
C8 C15 S2 116.4(10) . . ? 
C14 C15 S2 120.5(8) . . ? 
C1 C3' C2' 124.8(12) 2_676 . ? 
C1 C3' S1' 125.9(12) 2_676 . ? 
C2' C3' S1' 109.4(11) . . ? 
C3' C2' C4' 114.1(13) . . ? 
C3' C2' C1 116.9(12) . . ? 
C4' C2' C1 129.1(12) . . ? 
C5' C4' C2' 110.3(12) . . ? 
C4' C5' C6' 126.5(14) . . ? 
C4' C5' S1' 114.4(8) . . ? 
C6' C5' S1' 119.2(12) . . ? 
C3' S1' C5' 91.9(6) . . ? 
C7' C6' C5' 132.5(16) . . ? 
C7' C6' S2' 110.0(9) . . ? 
C5' C6' S2' 116.9(11) . . ? 
C15' S2' C6' 87.6(6) . . ? 
C6' C7' C8' 120.8(12) . . ? 
C15' C8' C9' 118.6(13) . . ? 
C15' C8' C7' 100.7(12) . . ? 
C9' C8' C7' 140.3(16) . . ? 
C10' C9' C8' 117.6(7) . . ? 
C13' C10' C9' 123.4(13) . . ? 
C13' C10' S3' 119.0(13) . . ? 
C9' C10' S3' 113.8(11) . . ? 
C10' S3' C11' 86.5(6) . . ? 
C12' C11' S3' 110.9(9) . . ? 
C11' C12' C13' 120.8(12) . . ? 
C10' C13' C14' 118.6(14) . . ? 
C10' C13' C12' 100.5(11) . . ? 
C14' C13' C12' 140.9(13) . . ? 
C15' C14' C13' 117.3(7) . . ? 
C8' C15' C14' 123.6(13) . . ? 
C8' C15' S2' 118.1(14) . . ? 
C14' C15' S2' 114.1(11) . . ? 
C17 C16 C1 177.7(11) . . ? 
C16 C17 Si1 177.8(10) . . ? 
C90 C98 C96 100.5(16) . . ? 
C90 C98 Si1 119.9(17) . . ? 
C96 C98 Si1 110.0(14) . . ? 
C89 C99 Si1 109(2) . . ? 
C94 C93 C97 98(2) . . ? 
C94 C93 Si1 113.1(17) . . ? 
C97 C93 Si1 114.9(16) . . ? 
C89 C92 C95 113(3) . . ? 
C99 C89 C92 94(3) . . ? 
 
_refine_diff_density_max    2.124 
_refine_diff_density_min   -1.501 
_refine_diff_density_rms    0.210 
 

