 data_p1  _audit_creation_method            SHELXL-97 _chemical_name_systematic ;  ? ; _chemical_name_common             ? _chemical_melting_point           ? _chemical_formula_moiety          ? _chemical_formula_sum  'C50 H50 Si2' _chemical_formula_weight          707.08  loop_  _atom_type_symbol  _atom_type_description  _atom_type_scat_dispersion_real  _atom_type_scat_dispersion_imag  _atom_type_scat_source  'C'  'C'    .0033    .0016  'International Tables Vol C Tables 4.2.6.8 and 6.1.1.4'  'H'  'H'    .0000    .0000  'International Tables Vol C Tables 4.2.6.8 and 6.1.1.4'  'Si'  'Si'    .0817    .0704  'International Tables Vol C Tables 4.2.6.8 and 6.1.1.4'  _symmetry_cell_setting            ? _symmetry_space_group_name_H-M    ?  loop_  _symmetry_equiv_pos_as_xyz  'x, y, z'  _cell_length_a                    10.0810(10) _cell_length_b                    17.6700(10) _cell_length_c                    19.5880(10) _cell_angle_alpha                 94.58(2) _cell_angle_beta                  93.11(2) _cell_angle_gamma                 105.28(2) _cell_volume                      3344.8(4) _cell_formula_units_Z             3 _cell_measurement_temperature     293(2) _cell_measurement_reflns_used     ? _cell_measurement_theta_min       ? _cell_measurement_theta_max       ?  _exptl_crystal_description        ? _exptl_crystal_colour             ? _exptl_crystal_size_max           ? _exptl_crystal_size_mid           ? _exptl_crystal_size_min           ? _exptl_crystal_density_meas       ? _exptl_crystal_density_diffrn     1.053 _exptl_crystal_density_method     'not measured' _exptl_crystal_F_000              1134 _exptl_absorpt_coefficient_mu     0.110 _exptl_absorpt_correction_type    ? _exptl_absorpt_correction_T_min   ? _exptl_absorpt_correction_T_max   ? _exptl_absorpt_process_details    ?  _exptl_special_details ;  ? ;  _diffrn_ambient_temperature       293(2) _diffrn_radiation_wavelength      0.71073 _diffrn_radiation_type            MoK\a _diffrn_radiation_source          'fine-focus sealed tube' _diffrn_radiation_monochromator   graphite _diffrn_measurement_device_type   ? _diffrn_measurement_method        ? _diffrn_detector_area_resol_mean  ? _diffrn_standards_number          ? _diffrn_standards_interval_count  ? _diffrn_standards_interval_time   ? _diffrn_standards_decay_%         ? _diffrn_reflns_number             17412 _diffrn_reflns_av_R_equivalents   0.0000 _diffrn_reflns_av_sigmaI/netI     0.1649 _diffrn_reflns_limit_h_min        -10 _diffrn_reflns_limit_h_max        10 _diffrn_reflns_limit_k_min        -19 _diffrn_reflns_limit_k_max        19 _diffrn_reflns_limit_l_min        -21 _diffrn_reflns_limit_l_max        21 _diffrn_reflns_theta_min          1.05 _diffrn_reflns_theta_max          22.50 _reflns_number_total              17412 _reflns_number_gt                 10343 _reflns_threshold_expression      >2sigma(I)  _computing_data_collection        ? _computing_cell_refinement        ? _computing_data_reduction         ? _computing_structure_solution     'SHELXS-97 (Sheldrick, 1990)' _computing_structure_refinement   'SHELXL-97 (Sheldrick, 1997)' _computing_molecular_graphics     ? _computing_publication_material   ?  _refine_special_details ;  Refinement of F^2^ against ALL reflections.  The weighted R-factor wR and  goodness of fit S are based on F^2^, conventional R-factors R are based  on F, with F set to zero for negative F^2^. The threshold expression of  F^2^ > 2sigma(F^2^) is used only for calculating R-factors(gt) etc. and is  not relevant to the choice of reflections for refinement.  R-factors based  on F^2^ are statistically about twice as large as those based on F, and R-  factors based on ALL data will be even larger. ;  _refine_ls_structure_factor_coef  Fsqd  _refine_ls_matrix_type            full _refine_ls_weighting_scheme       calc  _refine_ls_weighting_details  'calc w=1/[\s^2^(Fo^2^)+(0.1000P)^2^+0.0000P] where P=(Fo^2^+2Fc^2^)/3' _atom_sites_solution_primary      direct _atom_sites_solution_secondary    difmap _atom_sites_solution_hydrogens    geom _refine_ls_hydrogen_treatment     mixed _refine_ls_extinction_method      none _refine_ls_extinction_coef        ? _refine_ls_abs_structure_details  'Flack H D (1983), Acta Cryst. A39, 876-881' _refine_ls_abs_structure_Flack    0.5(4) _refine_ls_number_reflns          17412 _refine_ls_number_parameters      621 _refine_ls_number_restraints      3 _refine_ls_R_factor_all           0.2909 _refine_ls_R_factor_gt            0.2164 _refine_ls_wR_factor_ref          0.4891 _refine_ls_wR_factor_gt           0.4528 _refine_ls_goodness_of_fit_ref    2.374 _refine_ls_restrained_S_all       2.374 _refine_ls_shift/su_max           2.915 _refine_ls_shift/su_mean          0.320  loop_  _atom_site_label  _atom_site_type_symbol  _atom_site_fract_x  _atom_site_fract_y  _atom_site_fract_z  _atom_site_U_iso_or_equiv  _atom_site_adp_type  _atom_site_occupancy  _atom_site_symmetry_multiplicity  _atom_site_calc_flag  _atom_site_refinement_flags  _atom_site_disorder_assembly  _atom_site_disorder_group Si1 Si 0.5841(6) 0.1632(3) 0.5339(3) 0.0338(16) Uiso 1 1 d . . . Si2 Si 0.3081(5) 0.1747(3) 0.8561(3) 0.0322(15) Uiso 1 1 d . . . C994 C 0.4271(15) 0.5529(9) 0.8004(7) 0.009(4) Uiso 1 1 d . . . C995 C 0.4083(14) 0.5350(8) 0.6738(7) 0.007(4) Uiso 1 1 d . . . Si6 Si 0.2530(6) 0.8732(3) 1.1889(3) 0.0438(18) Uiso 1 1 d . . . C996 C 0.4878(17) 0.6852(10) 0.8623(8) 0.026(5) Uiso 1 1 d . . . Si8 Si 0.0194(6) 0.1875(4) 1.1788(3) 0.0533(19) Uiso 1 1 d . . . C997 C 0.4525(17) 0.5725(9) 0.9284(8) 0.024(5) Uiso 1 1 d . . . C998 C 0.3955(17) 0.5156(9) 0.5483(8) 0.021(5) Uiso 1 1 d . . . C999 C 0.0780(19) 0.5258(10) 0.8577(9) 0.037(5) Uiso 1 1 d . . . C1 C 0.7468(17) 0.5563(10) 0.6137(8) 0.021(5) Uiso 1 1 d . . . C2 C 0.4325(16) 0.5867(9) 0.7360(8) 0.018(5) Uiso 1 1 d . . . Si99 Si 0.8081(7) 0.8442(4) 0.5266(3) 0.065(2) Uiso 1 1 d . . . C4 C 0.357(2) 0.4188(12) 0.7391(11) 0.062(7) Uiso 1 1 d . . . C5 C 0.1062(16) 0.5395(9) 0.9862(8) 0.021(5) Uiso 1 1 d . . . C6 C 0.1342(17) 0.5634(10) 1.1102(8) 0.030(5) Uiso 1 1 d . . . C7 C 0.4215(16) 0.5631(9) 0.6052(8) 0.019(5) Uiso 1 1 d . . . C8 C 0.1263(15) 0.5778(9) 1.2360(7) 0.008(4) Uiso 1 1 d . . . C9 C 0.7480(17) 0.5403(10) 0.4902(8) 0.025(5) Uiso 1 1 d . . . C10 C 0.7661(19) 0.5801(11) 0.4248(9) 0.048(6) Uiso 1 1 d . . . C11 C 0.7716(18) 0.5437(10) 0.1738(9) 0.032(5) Uiso 1 1 d . . . C12 C 0.4521(15) 0.6027(9) 0.8582(7) 0.008(4) Uiso 1 1 d . . . C13 C 0.7648(18) 0.5739(10) 0.7380(9) 0.030(5) Uiso 1 1 d . . . C14 C 0.8047(18) 0.6331(10) 0.8040(9) 0.030(5) Uiso 1 1 d . . . C15 C 0.7798(15) 0.5531(8) 0.2992(7) 0.009(4) Uiso 1 1 d . . . C16 C 0.0949(15) 0.5554(8) 0.7925(7) 0.006(4) Uiso 1 1 d . . . C17 C 0.1922(15) 0.6898(9) 1.1723(7) 0.020(4) Uiso 1 1 d . . . C18 C 0.4633(18) 0.5872(10) 1.0546(9) 0.029(5) Uiso 1 1 d . . . C19 C 0.3821(19) 0.4353(10) 0.8604(9) 0.031(5) Uiso 1 1 d . . . C20 C 0.7457(17) 0.5225(9) 0.3593(8) 0.026(5) Uiso 1 1 d . . . C21 C 0.7850(19) 0.6742(12) 0.5487(9) 0.044(6) Uiso 1 1 d . . . C22 C 0.7594(14) 0.5900(8) 0.5528(7) 0.001(4) Uiso 1 1 d . . . C23 C 0.7779(17) 0.6132(10) 0.6736(8) 0.022(5) Uiso 1 1 d . . . C24 C 0.7469(18) 0.5035(10) 0.2410(9) 0.033(5) Uiso 1 1 d . . . C25 C 0.3204(17) 0.2795(10) 0.8644(8) 0.020(5) Uiso 1 1 d . . . C26 C 0.1300(15) 0.5952(9) 1.3637(8) 0.013(4) Uiso 1 1 d . . . C27 C 0.329(2) 0.3859(11) 0.4848(10) 0.047(6) Uiso 1 1 d . . . C28 C 0.936(3) 0.8749(16) 0.4736(14) 0.142(10) Uiso 1 1 d . . . C29 C 0.0476(17) 0.2906(10) 1.1805(8) 0.021(5) Uiso 1 1 d . . . C30 C 0.3376(18) 0.3995(10) 0.6076(9) 0.032(5) Uiso 1 1 d . . . C31 C 0.4157(17) 0.5501(10) 0.4821(8) 0.023(5) Uiso 1 1 d . . . C33 C 0.4805(18) 0.6023(10) 1.1781(9) 0.034(5) Uiso 1 1 d . . . C34 C 0.0194(17) 0.3889(10) 0.7985(9) 0.026(5) Uiso 1 1 d . . . C35 C 0.610(2) 0.1393(14) 0.4437(12) 0.078(8) Uiso 1 1 d . . . C36 C 0.3983(17) 0.4544(10) 0.9918(9) 0.024(5) Uiso 1 1 d . . . C37 C 0.2161(19) 0.7605(11) 1.1747(9) 0.035(5) Uiso 1 1 d . . . C38 C -0.121(4) 0.135(2) 1.1845(19) 0.209(16) Uiso 1 1 d . . . C39 C 0.734(2) 0.4771(11) 0.9306(11) 0.050(6) Uiso 1 1 d . . . C40 C 0.1236(16) 0.6117(9) 1.4892(8) 0.024(5) Uiso 1 1 d . . . C41 C -0.0131(19) 0.3430(10) 0.7441(9) 0.037(5) Uiso 1 1 d . . . C42 C 0.299(2) 0.1414(12) 0.7613(10) 0.063(7) Uiso 1 1 d . . . C43 C 0.1501(14) 0.6476(8) 1.4202(7) 0.003(4) Uiso 1 1 d . . . C44 C 0.6927(16) 0.4048(9) 0.4286(8) 0.016(4) Uiso 1 1 d . . . C45 C 0.1526(16) 0.6274(9) 1.2983(8) 0.017(4) Uiso 1 1 d . . . C46 C 0.1184(19) 0.5759(10) 0.9162(9) 0.035(5) Uiso 1 1 d . . . C47 C 0.0592(17) 0.4273(10) 1.0437(8) 0.028(5) Uiso 1 1 d . . . C48 C 0.1126(16) 0.5907(9) 0.7380(8) 0.016(4) Uiso 1 1 d . . . C49 C 0.7004(15) 0.4376(8) 0.6795(7) 0.010(4) Uiso 1 1 d . . . C50 C 0.1293(17) 0.5889(9) 1.0418(8) 0.023(5) Uiso 1 1 d . . . C51 C 0.0448(18) 0.4739(10) 1.5977(9) 0.035(5) Uiso 1 1 d . . . C52 C 0.2229(16) 0.8889(9) 1.2824(8) 0.020(5) Uiso 1 1 d . . . C53 C 0.6099(16) 0.2640(9) 0.5525(7) 0.013(4) Uiso 1 1 d . . . C54 C 0.8013(19) 0.7408(11) 0.5432(9) 0.041(6) Uiso 1 1 d . . . C55 C 0.4927(15) 0.6362(9) 1.1125(7) 0.007(4) Uiso 1 1 d . . . C56 C 0.7203(16) 0.4759(9) 0.6200(8) 0.016(4) Uiso 1 1 d . . . C57 C 0.1489(16) 0.6112(9) 1.1698(8) 0.015(4) Uiso 1 1 d . . . C58 C 0.0569(16) 0.3621(10) 1.1785(8) 0.020(5) Uiso 1 1 d . . . C59 C 0.7800(17) 0.5912(10) 0.8678(8) 0.033(5) Uiso 1 1 d . . . C60 C 0.3570(17) 0.4309(9) 0.5512(8) 0.015(4) Uiso 1 1 d . . . C61 C 0.3670(15) 0.4519(9) 0.6770(8) 0.012(4) Uiso 1 1 d . . . C62 C 0.431(2) 0.9194(13) 1.1644(10) 0.067(7) Uiso 1 1 d . . . C63 C 0.486(2) 0.1581(13) 0.8942(11) 0.079(8) Uiso 1 1 d . . . C64 C 0.4780(15) 0.6171(8) 0.9883(7) 0.004(4) Uiso 1 1 d . . . C66 C 0.0423(17) 0.4100(10) 0.9216(9) 0.022(5) Uiso 1 1 d . . . C67 C 0.6900(17) 0.4244(10) 0.5519(8) 0.024(5) Uiso 1 1 d . . . C68 C 0.304(2) 0.3415(11) 0.4317(10) 0.046(6) Uiso 1 1 d . . . C69 C 0.0421(15) 0.4370(9) 0.8613(8) 0.009(4) Uiso 1 1 d . . . C71 C 0.7179(16) 0.4624(9) 0.8090(8) 0.014(4) Uiso 1 1 d . . . C72 C 0.2088(16) 0.9801(9) 1.3012(8) 0.019(4) Uiso 1 1 d . . . C73 C 0.1243(19) 0.9052(10) 1.1344(9) 0.033(5) Uiso 1 1 d . . . C74 C 0.162(2) 0.0437(11) 0.9281(10) 0.059(6) Uiso 1 1 d . . . C75 C 0.192(2) 0.1812(13) 0.7153(11) 0.084(8) Uiso 1 1 d . . . C76 C 0.1932(17) 0.1640(10) 1.1933(8) 0.033(5) Uiso 1 1 d . . . C77 C 0.0719(17) 0.4420(10) 1.1779(9) 0.026(5) Uiso 1 1 d . . . C78 C 0.5447(18) 0.7039(10) 1.2889(9) 0.030(5) Uiso 1 1 d . . . C79 C 0.644(2) 0.8612(13) 0.5266(11) 0.062(7) Uiso 1 1 d . . . C80 C 0.7002(19) 0.1537(10) 0.6707(9) 0.041(6) Uiso 1 1 d . . . C82 C 0.7315(17) 0.4912(10) 0.7448(8) 0.025(5) Uiso 1 1 d . . . C83 C 0.148(2) 0.8931(12) 1.0612(11) 0.081(7) Uiso 1 1 d . . . C84 C 0.3224(15) 0.8691(9) 1.3325(7) 0.023(4) Uiso 1 1 d . . . C86 C 0.716(2) 0.1346(11) 0.5870(9) 0.051(6) Uiso 1 1 d . . . C90 C 0.7145(16) 0.4189(9) 0.2480(9) 0.019(5) Uiso 1 1 d . . . C91 C 0.914(2) 0.9923(13) 0.6358(11) 0.096(8) Uiso 1 1 d . . . C92 C 0.292(2) 0.0507(13) 0.7521(11) 0.080(8) Uiso 1 1 d . . . C93 C 0.494(3) 0.1686(15) 0.3900(13) 0.107(10) Uiso 1 1 d . . . C94 C 0.732(2) 0.4540(12) 0.9838(12) 0.063(7) Uiso 1 1 d . . . C95 C 0.0670(14) 0.4662(8) 1.3006(7) 0.003(4) Uiso 1 1 d . . . C97 C 0.6999(19) 0.3917(11) 0.3007(10) 0.040(6) Uiso 1 1 d . . . C100 C 0.176(3) 0.1311(14) 0.9062(12) 0.078(8) Uiso 1 1 d . . . C101 C 0.1460(18) 0.6664(10) 1.5487(9) 0.027(5) Uiso 1 1 d . . . C102 C 0.402(2) 0.1117(12) 0.5628(10) 0.057(6) Uiso 1 1 d . . . C103 C 0.6899(18) 0.3712(10) 0.1802(9) 0.041(6) Uiso 1 1 d . . . C104 C 0.5109(15) 0.6608(9) 1.2382(8) 0.009(4) Uiso 1 1 d . . . C106 C 0.8024(15) 0.5731(9) 0.1175(8) 0.016(4) Uiso 1 1 d . . . C107 C 0.4392(15) 0.5835(8) 0.4266(7) 0.012(4) Uiso 1 1 d . . . C108 C 0.678(2) 0.3278(11) 0.1267(10) 0.052(6) Uiso 1 1 d . . . C110 C 0.574(2) 0.8219(11) 0.4622(10) 0.060(6) Uiso 1 1 d . . . C111 C 0.269(2) 0.1861(12) 1.1234(11) 0.069(7) Uiso 1 1 d . . . C112 C 0.615(3) 0.0610(15) 0.4110(13) 0.103(9) Uiso 1 1 d . . . C113 C -0.024(3) 0.8620(15) 1.1530(13) 0.095(9) Uiso 1 1 d . . . C114 C 0.6505(17) 0.3353(10) 0.5561(8) 0.027(5) Uiso 1 1 d . . . C115 C 0.9761(19) 0.8714(10) 0.6666(9) 0.050(5) Uiso 1 1 d . . . C116 C 0.7118(17) 0.4372(9) 0.3675(8) 0.028(5) Uiso 1 1 d . . . C118 C 0.0691(16) 0.4756(9) 1.4249(8) 0.018(4) Uiso 1 1 d . . . C119 C 0.283(3) 0.1422(15) 0.5237(14) 0.115(10) Uiso 1 1 d . . . C120 C 0.852(2) 0.6975(13) 0.9769(11) 0.062(7) Uiso 1 1 d . . . C121 C 0.033(2) 0.1374(11) 0.8770(10) 0.054(6) Uiso 1 1 d . . . C122 C 0.0696(17) 0.4549(10) 0.9816(9) 0.026(5) Uiso 1 1 d . . . C123 C 0.178(2) 0.7125(11) 1.5967(10) 0.041(6) Uiso 1 1 d . . . C124 C -0.100(2) 0.0648(13) 1.2650(11) 0.097(7) Uiso 1 1 d . . . C127 C 0.8247(19) 0.6501(11) 0.9284(9) 0.036(5) Uiso 1 1 d . . . C128 C 0.8630(19) 0.1782(10) 0.5771(9) 0.041(5) Uiso 1 1 d . . . C131 C 0.3526(16) 0.3508(10) 0.8660(8) 0.016(5) Uiso 1 1 d . . . C134 C 0.5543(19) 0.8938(10) 1.2061(9) 0.044(6) Uiso 1 1 d . . . C139 C 0.7396(14) 0.5140(8) 0.8687(7) 0.004(4) Uiso 1 1 d . . . C140 C 0.900(2) 0.8903(12) 0.6405(11) 0.078(7) Uiso 1 1 d . . . C144 C 0.0847(18) 0.4727(10) 1.1081(9) 0.032(5) Uiso 1 1 d . . . C145 C 0.0495(16) 0.4978(9) 1.5476(8) 0.016(4) Uiso 1 1 d . . . C154 C 0.3902(15) 0.4725(9) 0.8033(8) 0.011(4) Uiso 1 1 d . . . C155 C 0.7073(18) 0.4547(10) 0.4926(9) 0.033(5) Uiso 1 1 d . . . C159 C 0.0708(16) 0.5253(10) 1.4848(8) 0.026(5) Uiso 1 1 d . . . C163 C 0.322(2) 0.2214(11) 1.2471(10) 0.074(7) Uiso 1 1 d . . . C169 C 0.4102(17) 0.4873(10) 0.9279(8) 0.026(5) Uiso 1 1 d . . . C170 C 0.0944(17) 0.4978(10) 1.2380(8) 0.025(5) Uiso 1 1 d . . . Si3 Si 0.5203(6) 0.8601(3) 0.8689(3) 0.0360(16) Uiso 1 1 d . . . C65 C 0.6631(18) 0.8714(10) 1.0036(9) 0.041(5) Uiso 1 1 d . . . C70 C 0.548(2) 0.8926(11) 0.9644(10) 0.045(6) Uiso 1 1 d . . . C81 C 0.3602(19) 0.8787(10) 0.8344(9) 0.033(5) Uiso 1 1 d . . . C85 C 0.325(2) 0.8440(11) 0.7565(10) 0.060(6) Uiso 1 1 d . . . C88 C 0.5616(15) 0.9791(9) 0.9835(7) 0.020(4) Uiso 1 1 d . . . C89 C 0.667(2) 0.9044(11) 0.8146(9) 0.044(6) Uiso 1 1 d . . . C96 C 0.2303(13) 0.8327(7) 0.8668(6) 0.010(3) Uiso 1 1 d . . . C130 C 0.815(3) 0.8936(15) 0.8423(13) 0.102(9) Uiso 1 1 d . . . C187 C 0.680(3) 0.9986(14) 0.8094(12) 0.099(8) Uiso 1 1 d . . . C801 C 0.4323(17) 0.5165(9) 1.1788(8) 0.023(5) Uiso 1 1 d . . . C802 C 0.479(2) 1.0147(11) 1.1779(10) 0.060(6) Uiso 1 1 d . . . C803 C 0.4114(17) 0.4639(10) 1.1143(9) 0.027(5) Uiso 1 1 d . . . C804 C 0.4219(18) 0.4988(10) 1.0556(9) 0.032(5) Uiso 1 1 d . . . C806 C 0.4170(19) 0.4863(11) 1.2454(10) 0.036(5) Uiso 1 1 d . . . C807 C 0.0827(18) 0.5127(10) 1.3568(9) 0.025(5) Uiso 1 1 d . . . C808 C 0.404(2) 0.4636(11) 1.2973(10) 0.045(6) Uiso 1 1 d . . . C809 C 0.5022(16) 0.7548(10) 0.8609(8) 0.018(4) Uiso 1 1 d . . . C812 C 0.499(2) 0.1884(12) 0.9741(11) 0.063(7) Uiso 1 1 d . . . C816 C 0.568(3) 0.8476(16) 0.5917(14) 0.113(10) Uiso 1 1 d . . . C718 C 0.378(3) 0.0142(15) 0.5528(13) 0.111(10) Uiso 1 1 d . . .  _geom_special_details ;  All esds (except the esd in the dihedral angle between two l.s. planes)  are estimated using the full covariance matrix.  The cell esds are taken  into account individually in the estimation of esds in distances, angles  and torsion angles; correlations between esds in cell parameters are only  used when they are defined by crystal symmetry.  An approximate (isotropic)  treatment of cell esds is used for estimating esds involving l.s. planes. ;  loop_  _geom_bond_atom_site_label_1  _geom_bond_atom_site_label_2  _geom_bond_distance  _geom_bond_site_symmetry_2  _geom_bond_publ_flag Si1 C53 1.736(16) . ? Si1 C86 1.84(2) . ? Si1 C35 1.83(2) . ? Si1 C102 1.96(2) . ? Si2 C100 1.75(2) . ? Si2 C25 1.817(17) . ? Si2 C42 1.89(2) . ? Si2 C63 2.01(2) . ? C994 C12 1.347(18) . ? C994 C154 1.377(18) . ? C994 C2 1.436(18) . ? C995 C2 1.431(19) . ? C995 C61 1.426(19) . ? C995 C7 1.469(19) . ? Si6 C73 1.863(18) . ? Si6 C62 1.87(2) . ? Si6 C52 1.885(16) . ? Si6 C37 1.923(19) . ? C996 C809 1.203(19) . ? C996 C12 1.40(2) . ? Si8 C38 1.49(4) . ? Si8 C29 1.767(17) . ? Si8 C76 1.916(18) . ? C997 C64 1.333(19) . ? C997 C169 1.45(2) . ? C997 C12 1.515(19) . ? C998 C7 1.312(19) . ? C998 C60 1.45(2) . ? C998 C31 1.48(2) . ? C999 C46 1.36(2) . ? C999 C16 1.42(2) . ? C999 C69 1.52(2) . ? C1 C22 1.372(18) . ? C1 C56 1.39(2) . ? C1 C23 1.45(2) . ? Si99 C28 1.70(3) . ? Si99 C79 1.76(2) . ? Si99 C54 1.87(2) . ? Si99 C140 2.36(2) . ? C4 C61 1.39(2) . ? C4 C154 1.48(2) . ? C5 C50 1.309(19) . ? C5 C122 1.44(2) . ? C5 C46 1.56(2) . ? C6 C57 1.363(19) . ? C6 C50 1.45(2) . ? C6 C144 1.54(2) . ? C8 C170 1.370(19) . ? C8 C45 1.414(18) . ? C8 C57 1.47(2) . ? C9 C22 1.431(19) . ? C9 C155 1.46(2) . ? C9 C10 1.51(2) . ? C10 C20 1.54(2) . ? C11 C106 1.27(2) . ? C11 C24 1.55(2) . ? C13 C82 1.43(2) . ? C13 C23 1.48(2) . ? C13 C14 1.56(2) . ? C14 C59 1.50(2) . ? C15 C24 1.351(19) . ? C15 C20 1.356(19) . ? C16 C48 1.276(19) . ? C17 C37 1.20(2) . ? C17 C57 1.338(19) . ? C18 C55 1.34(2) . ? C18 C64 1.44(2) . ? C18 C804 1.51(2) . ? C19 C154 1.34(2) . ? C19 C131 1.46(2) . ? C19 C169 1.52(2) . ? C20 C116 1.48(2) . ? C21 C54 1.16(2) . ? C21 C22 1.45(2) . ? C24 C90 1.46(2) . ? C25 C131 1.21(2) . ? C26 C43 1.354(18) . ? C26 C807 1.40(2) . ? C26 C45 1.45(2) . ? C27 C68 1.22(2) . ? C27 C60 1.44(2) . ? C29 C58 1.246(19) . ? C30 C60 1.28(2) . ? C30 C61 1.55(2) . ? C31 C107 1.281(19) . ? C33 C104 1.47(2) . ? C33 C55 1.46(2) . ? C33 C801 1.47(2) . ? C34 C41 1.26(2) . ? C34 C69 1.41(2) . ? C35 C112 1.49(3) . ? C35 C93 1.73(3) . ? C36 C169 1.42(2) . ? C36 C804 1.40(2) . ? C39 C94 1.15(2) . ? C39 C139 1.42(2) . ? C40 C101 1.42(2) . ? C40 C159 1.47(2) . ? C40 C43 1.544(19) . ? C42 C92 1.58(3) . ? C42 C75 1.70(3) . ? C44 C116 1.37(2) . ? C44 C155 1.45(2) . ? C47 C122 1.34(2) . ? C47 C144 1.41(2) . ? C49 C56 1.393(18) . ? C49 C82 1.49(2) . ? C51 C145 1.097(19) . ? C52 C84 1.49(2) . ? C52 C72 1.67(2) . ? C53 C114 1.214(19) . ? C56 C67 1.52(2) . ? C58 C77 1.38(2) . ? C59 C139 1.320(19) . ? C59 C127 1.48(2) . ? C62 C802 1.62(3) . ? C62 C134 1.63(3) . ? C63 C812 1.60(3) . ? C66 C69 1.309(19) . ? C66 C122 1.34(2) . ? C67 C155 1.32(2) . ? C67 C114 1.53(2) . ? C71 C139 1.394(18) . ? C71 C82 1.39(2) . ? C73 C83 1.48(2) . ? C73 C113 1.56(3) . ? C74 C100 1.61(3) . ? C76 C111 1.63(3) . ? C76 C163 1.68(2) . ? C77 C170 1.44(2) . ? C77 C144 1.51(2) . ? C78 C104 1.178(18) . ? C79 C110 1.44(2) . ? C79 C816 1.52(3) . ? C80 C86 1.67(2) . ? C86 C128 1.51(2) . ? C90 C97 1.17(2) . ? C90 C103 1.49(2) . ? C91 C140 1.78(3) . ? C95 C807 1.296(19) . ? C95 C170 1.398(19) . ? C97 C116 1.46(2) . ? C100 C121 1.55(3) . ? C101 C123 1.17(2) . ? C102 C119 1.62(3) . ? C102 C718 1.67(3) . ? C103 C108 1.23(2) . ? C115 C140 1.04(2) . ? C118 C159 1.40(2) . ? C118 C807 1.53(2) . ? C120 C127 1.19(2) . ? C145 C159 1.37(2) . ? Si3 C809 1.814(17) . ? Si3 C81 1.834(19) . ? Si3 C70 1.895(19) . ? Si3 C89 1.91(2) . ? C65 C70 1.50(2) . ? C70 C88 1.51(2) . ? C81 C96 1.55(2) . ? C81 C85 1.58(2) . ? C89 C130 1.62(3) . ? C89 C187 1.65(3) . ? C801 C806 1.45(2) . ? C801 C803 1.48(2) . ? C803 C804 1.34(2) . ? C806 C808 1.12(2) . ?  loop_  _geom_angle_atom_site_label_1  _geom_angle_atom_site_label_2  _geom_angle_atom_site_label_3  _geom_angle  _geom_angle_site_symmetry_1  _geom_angle_site_symmetry_3  _geom_angle_publ_flag C53 Si1 C86 107.1(8) . . ? C53 Si1 C35 110.9(9) . . ? C86 Si1 C35 107.6(10) . . ? C53 Si1 C102 107.0(8) . . ? C86 Si1 C102 108.6(9) . . ? C35 Si1 C102 115.3(10) . . ? C100 Si2 C25 106.2(9) . . ? C100 Si2 C42 120.2(10) . . ? C25 Si2 C42 107.7(8) . . ? C100 Si2 C63 109.2(11) . . ? C25 Si2 C63 109.1(9) . . ? C42 Si2 C63 104.2(9) . . ? C12 C994 C154 120.9(14) . . ? C12 C994 C2 117.5(14) . . ? C154 C994 C2 121.5(13) . . ? C2 C995 C61 119.5(13) . . ? C2 C995 C7 123.3(13) . . ? C61 C995 C7 117.1(13) . . ? C73 Si6 C62 109.9(9) . . ? C73 Si6 C52 110.2(8) . . ? C62 Si6 C52 116.3(9) . . ? C73 Si6 C37 109.1(8) . . ? C62 Si6 C37 109.1(9) . . ? C52 Si6 C37 101.9(7) . . ? C809 C996 C12 171.3(18) . . ? C38 Si8 C29 120.6(16) . . ? C38 Si8 C76 128.3(16) . . ? C29 Si8 C76 109.1(8) . . ? C64 C997 C169 119.3(14) . . ? C64 C997 C12 125.5(14) . . ? C169 C997 C12 115.0(14) . . ? C7 C998 C60 120.1(15) . . ? C7 C998 C31 118.6(15) . . ? C60 C998 C31 121.1(14) . . ? C46 C999 C16 119.9(16) . . ? C46 C999 C69 120.2(16) . . ? C16 C999 C69 118.8(14) . . ? C22 C1 C56 125.0(15) . . ? C22 C1 C23 113.6(15) . . ? C56 C1 C23 121.1(15) . . ? C995 C2 C994 118.6(14) . . ? C28 Si99 C79 129.4(12) . . ? C28 Si99 C54 108.0(11) . . ? C79 Si99 C54 111.6(10) . . ? C28 Si99 C140 107.8(11) . . ? C79 Si99 C140 101.8(9) . . ? C54 Si99 C140 90.9(8) . . ? C61 C4 C154 118.1(18) . . ? C50 C5 C122 127.8(16) . . ? C50 C5 C46 116.8(15) . . ? C122 C5 C46 115.4(14) . . ? C57 C6 C50 125.1(16) . . ? C57 C6 C144 122.0(15) . . ? C50 C6 C144 111.3(14) . . ? C998 C7 C995 123.1(15) . . ? C170 C8 C45 119.4(14) . . ? C170 C8 C57 119.5(14) . . ? C45 C8 C57 120.7(14) . . ? C22 C9 C155 118.6(15) . . ? C22 C9 C10 117.0(15) . . ? C155 C9 C10 124.1(15) . . ? C9 C10 C20 114.0(15) . . ? C106 C11 C24 173.6(18) . . ? C994 C12 C996 126.6(14) . . ? C994 C12 C997 121.1(14) . . ? C996 C12 C997 112.2(13) . . ? C82 C13 C23 127.5(15) . . ? C82 C13 C14 119.1(15) . . ? C23 C13 C14 113.2(15) . . ? C59 C14 C13 111.3(14) . . ? C24 C15 C20 117.6(15) . . ? C48 C16 C999 172.7(16) . . ? C37 C17 C57 172.8(18) . . ? C55 C18 C64 120.9(16) . . ? C55 C18 C804 122.1(16) . . ? C64 C18 C804 116.9(15) . . ? C154 C19 C131 128.1(16) . . ? C154 C19 C169 116.2(15) . . ? C131 C19 C169 115.6(15) . . ? C15 C20 C116 123.5(15) . . ? C15 C20 C10 118.0(15) . . ? C116 C20 C10 117.7(14) . . ? C54 C21 C22 177(2) . . ? C1 C22 C9 118.9(14) . . ? C1 C22 C21 123.1(14) . . ? C9 C22 C21 118.0(14) . . ? C1 C23 C13 111.5(15) . . ? C15 C24 C90 117.4(15) . . ? C15 C24 C11 114.9(15) . . ? C90 C24 C11 126.9(15) . . ? C131 C25 Si2 168.0(16) . . ? C43 C26 C807 130.4(15) . . ? C43 C26 C45 116.9(14) . . ? C807 C26 C45 112.6(14) . . ? C68 C27 C60 174(2) . . ? C58 C29 Si8 174.7(15) . . ? C60 C30 C61 120.3(15) . . ? C107 C31 C998 176.4(17) . . ? C104 C33 C55 114.1(14) . . ? C104 C33 C801 126.4(15) . . ? C55 C33 C801 119.4(15) . . ? C41 C34 C69 174.1(18) . . ? C112 C35 C93 104.8(19) . . ? C112 C35 Si1 126.6(18) . . ? C93 C35 Si1 110.5(16) . . ? C169 C36 C804 124.2(16) . . ? C17 C37 Si6 173.9(15) . . ? C94 C39 C139 174(2) . . ? C101 C40 C159 127.9(15) . . ? C101 C40 C43 116.1(14) . . ? C159 C40 C43 116.0(13) . . ? C92 C42 C75 122.7(17) . . ? C92 C42 Si2 109.2(14) . . ? C75 C42 Si2 111.2(13) . . ? C26 C43 C40 115.8(13) . . ? C116 C44 C155 120.6(15) . . ? C8 C45 C26 121.1(14) . . ? C999 C46 C5 117.7(15) . . ? C122 C47 C144 126.6(17) . . ? C56 C49 C82 114.7(13) . . ? C5 C50 C6 122.4(16) . . ? C84 C52 C72 111.5(12) . . ? C84 C52 Si6 116.2(11) . . ? C72 C52 Si6 110.1(10) . . ? C114 C53 Si1 165.9(14) . . ? C21 C54 Si99 172.9(18) . . ? C18 C55 C33 118.3(15) . . ? C1 C56 C49 128.0(14) . . ? C1 C56 C67 114.3(14) . . ? C49 C56 C67 117.1(14) . . ? C17 C57 C6 122.7(15) . . ? C17 C57 C8 116.3(14) . . ? C6 C57 C8 120.9(15) . . ? C29 C58 C77 177.8(18) . . ? C139 C59 C127 126.2(15) . . ? C139 C59 C14 124.8(15) . . ? C127 C59 C14 108.6(15) . . ? C30 C60 C998 122.4(16) . . ? C30 C60 C27 123.2(16) . . ? C998 C60 C27 114.1(14) . . ? C4 C61 C995 122.0(15) . . ? C4 C61 C30 121.2(15) . . ? C995 C61 C30 116.8(13) . . ? C802 C62 C134 102.7(15) . . ? C802 C62 Si6 114.2(14) . . ? C134 C62 Si6 115.1(14) . . ? C812 C63 Si2 105.4(14) . . ? C997 C64 C18 124.7(15) . . ? C69 C66 C122 124.7(16) . . ? C155 C67 C56 121.9(16) . . ? C155 C67 C114 121.5(15) . . ? C56 C67 C114 116.4(14) . . ? C66 C69 C34 123.8(15) . . ? C66 C69 C999 118.8(15) . . ? C34 C69 C999 117.3(14) . . ? C139 C71 C82 120.6(14) . . ? C83 C73 C113 114.5(17) . . ? C83 C73 Si6 110.1(13) . . ? C113 C73 Si6 108.7(14) . . ? C111 C76 C163 95.5(14) . . ? C111 C76 Si8 104.0(12) . . ? C163 C76 Si8 122.4(11) . . ? C58 C77 C170 125.1(16) . . ? C58 C77 C144 115.5(15) . . ? C170 C77 C144 118.8(15) . . ? C110 C79 C816 119(2) . . ? C110 C79 Si99 104.3(15) . . ? C816 C79 Si99 117.3(17) . . ? C71 C82 C13 121.3(15) . . ? C71 C82 C49 122.0(15) . . ? C13 C82 C49 116.6(14) . . ? C128 C86 C80 104.2(14) . . ? C128 C86 Si1 114.7(13) . . ? C80 C86 Si1 111.4(12) . . ? C97 C90 C24 124.0(18) . . ? C97 C90 C103 123.8(18) . . ? C24 C90 C103 112.0(15) . . ? C807 C95 C170 120.0(15) . . ? C90 C97 C116 124.8(19) . . ? C121 C100 C74 109.7(18) . . ? C121 C100 Si2 111.9(16) . . ? C74 C100 Si2 120.1(16) . . ? C123 C101 C40 173(2) . . ? C119 C102 C718 114.4(18) . . ? C119 C102 Si1 110.8(15) . . ? C718 C102 Si1 108.9(14) . . ? C108 C103 C90 173.8(19) . . ? C78 C104 C33 173.2(16) . . ? C53 C114 C67 172.5(17) . . ? C44 C116 C97 124.4(16) . . ? C44 C116 C20 125.2(15) . . ? C97 C116 C20 110.4(15) . . ? C159 C118 C807 117.7(14) . . ? C47 C122 C66 124.9(17) . . ? C47 C122 C5 112.4(15) . . ? C66 C122 C5 122.7(16) . . ? C120 C127 C59 176(2) . . ? C25 C131 C19 173.5(17) . . ? C59 C139 C71 122.4(14) . . ? C59 C139 C39 122.4(15) . . ? C71 C139 C39 114.7(14) . . ? C115 C140 C91 121(2) . . ? C115 C140 Si99 124.7(19) . . ? C91 C140 Si99 98.2(12) . . ? C47 C144 C77 126.8(16) . . ? C47 C144 C6 118.8(15) . . ? C77 C144 C6 114.4(15) . . ? C51 C145 C159 172.8(19) . . ? C19 C154 C994 126.2(15) . . ? C19 C154 C4 113.8(16) . . ? C994 C154 C4 120.0(15) . . ? C67 C155 C44 121.3(17) . . ? C67 C155 C9 120.4(16) . . ? C44 C155 C9 118.2(15) . . ? C145 C159 C118 122.7(15) . . ? C145 C159 C40 112.8(14) . . ? C118 C159 C40 123.3(15) . . ? C36 C169 C997 118.4(15) . . ? C36 C169 C19 121.3(15) . . ? C997 C169 C19 120.3(14) . . ? C8 C170 C95 119.3(15) . . ? C8 C170 C77 124.0(16) . . ? C95 C170 C77 116.4(15) . . ? C809 Si3 C81 109.3(8) . . ? C809 Si3 C70 105.9(8) . . ? C81 Si3 C70 109.4(8) . . ? C809 Si3 C89 105.8(8) . . ? C81 Si3 C89 109.7(8) . . ? C70 Si3 C89 116.4(8) . . ? C65 C70 C88 107.8(15) . . ? C65 C70 Si3 117.1(13) . . ? C88 C70 Si3 115.1(12) . . ? C96 C81 C85 100.7(13) . . ? C96 C81 Si3 113.6(11) . . ? C85 C81 Si3 111.0(12) . . ? C130 C89 C187 109.8(17) . . ? C130 C89 Si3 113.6(14) . . ? C187 C89 Si3 110.1(13) . . ? C806 C801 C803 122.2(15) . . ? C806 C801 C33 116.9(15) . . ? C803 C801 C33 120.7(15) . . ? C804 C803 C801 116.6(16) . . ? C803 C804 C36 121.2(17) . . ? C803 C804 C18 122.5(16) . . ? C36 C804 C18 116.3(16) . . ? C808 C806 C801 179(2) . . ? C95 C807 C26 126.9(16) . . ? C95 C807 C118 118.1(15) . . ? C26 C807 C118 114.4(14) . . ? C996 C809 Si3 173.6(15) . . ?  _diffrn_measured_fraction_theta_max    1.000 _diffrn_reflns_theta_full              22.50 _diffrn_measured_fraction_theta_full   1.000 _refine_diff_density_max    2.403 _refine_diff_density_min    -.824 _refine_diff_density_rms     .201 