 
data_k08070s 
 
_audit_creation_method            SHELXL-97 
_chemical_name_systematic 
; 
 ? 
; 
_chemical_name_common             ? 
_chemical_melting_point           ? 
_chemical_formula_moiety 
 'C44 H52 F2 Si2' 
_chemical_formula_sum 
 'C44 H52 F2 Si2' 
_chemical_formula_weight          675.04 
 
loop_ 
 _atom_type_symbol 
 _atom_type_description 
 _atom_type_scat_dispersion_real 
 _atom_type_scat_dispersion_imag 
 _atom_type_scat_source 
 'C'  'C'   0.0033   0.0016 
 'International Tables Vol C Tables 4.2.6.8 and 6.1.1.4' 
 'H'  'H'   0.0000   0.0000 
 'International Tables Vol C Tables 4.2.6.8 and 6.1.1.4' 
 'F'  'F'   0.0171   0.0103 
 'International Tables Vol C Tables 4.2.6.8 and 6.1.1.4' 
 'Si'  'Si'   0.0817   0.0704 
 'International Tables Vol C Tables 4.2.6.8 and 6.1.1.4' 
 
_symmetry_cell_setting            triclinic
_symmetry_space_group_name_H-M    'P -1'
_symmetry_space_group_name_Hall   '-P 1'
 
loop_ 
 _symmetry_equiv_pos_as_xyz 
 'x, y, z' 
 '-x, -y, -z' 
 
_cell_length_a                    7.6580(2) 
_cell_length_b                    7.7502(3) 
_cell_length_c                    16.6354(6) 
_cell_angle_alpha                 89.8875(15) 
_cell_angle_beta                  79.3747(16) 
_cell_angle_gamma                 85.6275(15) 
_cell_volume                      967.50(6) 
_cell_formula_units_Z             1 
_cell_measurement_temperature     90.0(2) 
_cell_measurement_reflns_used     4251
_cell_measurement_theta_min       1.00
_cell_measurement_theta_max       27.48
 
_exptl_crystal_description        lath
_exptl_crystal_colour             blue
_exptl_crystal_size_max           0.40 
_exptl_crystal_size_mid           0.15 
_exptl_crystal_size_min           0.05 
_exptl_crystal_density_meas       ? 
_exptl_crystal_density_diffrn     1.159 
_exptl_crystal_density_method     'not measured' 
_exptl_crystal_F_000              362 
_exptl_absorpt_coefficient_mu     0.130 
_exptl_absorpt_correction_type    multi-scan 
_exptl_absorpt_correction_T_min   0.950
_exptl_absorpt_correction_T_max   0.994 
_exptl_absorpt_process_details    'Scalepack (Otwinowski & Minor, 1997)' 
 
_exptl_special_details 
; 
 ? 
; 
 
_diffrn_ambient_temperature       90.0(2) 
_diffrn_radiation_wavelength      0.71073 
_diffrn_radiation_type            MoK\a 
_diffrn_radiation_source          'fine-focus sealed tube'    
_diffrn_radiation_monochromator   'graphite'                 
_diffrn_measurement_device_type   'Nonius KappaCCD diffractometer'  
_diffrn_measurement_method        '\w scans at fixed \c = 55\%'
_diffrn_detector_area_resol_mean  18
_diffrn_standards_number          0 
_diffrn_standards_interval_count  . 
_diffrn_standards_interval_time   . 
_diffrn_standards_decay_%         ? 
_diffrn_reflns_number             20972
_diffrn_reflns_av_R_equivalents   0.0520 
_diffrn_reflns_av_sigmaI/netI     0.0480 
_diffrn_reflns_limit_h_min        -9 
_diffrn_reflns_limit_h_max        9 
_diffrn_reflns_limit_k_min        -9 
_diffrn_reflns_limit_k_max        10 
_diffrn_reflns_limit_l_min        0 
_diffrn_reflns_limit_l_max        21 
_diffrn_reflns_theta_min          2.49 
_diffrn_reflns_theta_max          27.44 
_reflns_number_total              4385 
_reflns_number_gt                 3355 
_reflns_threshold_expression      >2\s(I)    
 
_computing_data_collection        'COLLECT (Nonius, 1998)'
_computing_cell_refinement        'SCALEPACK (Otwinowski & Minor, 1997)'
_computing_data_reduction         'DENZO-SMN (Otwinowski & Minor, 1997)'
_computing_structure_solution     'SHELXS-97 (Sheldrick, 2008)' 
_computing_structure_refinement   'SHELXL-97 (Sheldrick, 2008)' 
_computing_molecular_graphics     'XP in SHELXTL (Sheldrick, 2008)'
_computing_publication_material
; 
SHELX97-2 (Sheldrick, 2008) and local procedures 
; 

_publ_section_exptl_refinement
;
H atoms were found in difference Fourier maps and subsequently placed in
idealized positions with constrained C-H distances of 0.98 \%A (RCH~3~),
1.00 \%A (R~3~CH) and 0.95 \%A (C~Ar~H) with U~iso~(H) values set to either 
1.5U~eq~ (RCH~3~ only) or 1.2U~eq~ of the attached C atom.
;
 
_refine_special_details 
; 
 Refinement of F^2^ against ALL reflections.  The weighted R-factor wR and 
 goodness of fit S are based on F^2^, conventional R-factors R are based 
 on F, with F set to zero for negative F^2^. The threshold expression of 
 F^2^ > 2\s(F^2^) is used only for calculating R-factors(gt) etc. and is 
 not relevant to the choice of reflections for refinement.  R-factors based 
 on F^2^ are statistically about twice as large as those based on F, and R- 
 factors based on ALL data will be even larger. 
; 
 
_refine_ls_structure_factor_coef  Fsqd  
_refine_ls_matrix_type            full 
_refine_ls_weighting_scheme       calc  
_refine_ls_weighting_details 
 'calc w=1/[\s^2^(Fo^2^)+(0.0606P)^2^+0.2567P] where P=(Fo^2^+2Fc^2^)/3' 
_atom_sites_solution_primary      direct 
_atom_sites_solution_secondary    difmap 
_atom_sites_solution_hydrogens    geom 
_refine_ls_hydrogen_treatment     constr 
_refine_ls_extinction_method      none 
_refine_ls_extinction_coef        ? 
_refine_ls_number_reflns          4385 
_refine_ls_number_parameters      245 
_refine_ls_number_restraints      3 
_refine_ls_R_factor_all           0.0692 
_refine_ls_R_factor_gt            0.0479 
_refine_ls_wR_factor_ref          0.1260 
_refine_ls_wR_factor_gt           0.1153 
_refine_ls_goodness_of_fit_ref    1.037 
_refine_ls_restrained_S_all       1.037 
_refine_ls_shift/su_max           0.000 
_refine_ls_shift/su_mean          0.000 
 
loop_ 
 _atom_site_label 
 _atom_site_type_symbol 
 _atom_site_fract_x 
 _atom_site_fract_y 
 _atom_site_fract_z 
 _atom_site_U_iso_or_equiv 
 _atom_site_adp_type 
 _atom_site_occupancy 
 _atom_site_symmetry_multiplicity 
 _atom_site_calc_flag 
 _atom_site_refinement_flags 
 _atom_site_disorder_assembly 
 _atom_site_disorder_group 
Si1 Si 0.24501(6) -0.29163(6) 0.32450(3) 0.02728(14) Uani 1 1 d . . . 
C1 C 0.4447(2) -0.06226(18) 0.08056(9) 0.0237(3) Uani 1 1 d . . . 
C2 C 0.3239(2) 0.04429(19) 0.04391(9) 0.0238(3) Uani 1 1 d . . . 
C3 C 0.1482(2) 0.09005(19) 0.08503(9) 0.0254(3) Uani 1 1 d . . . 
H3 H 0.1118 0.0508 0.1392 0.030 Uiso 1 1 calc R . . 
C4 C 0.0276(2) 0.19020(19) 0.04890(9) 0.0252(3) Uani 1 1 d . B . 
C5 C -0.1515(2) 0.2353(2) 0.09083(10) 0.0284(3) Uani 1 1 d . . . 
H5 H -0.1897 0.1972 0.1451 0.034 Uiso 1 1 calc R A 1 
C6 C -0.2649(2) 0.3318(2) 0.05280(10) 0.0312(4) Uani 0.575(3) 1 d P B 1 
F1 F -0.4335(2) 0.3736(2) 0.08835(10) 0.0387(6) Uani 0.575(3) 1 d P B 1 
C6' C -0.2649(2) 0.3318(2) 0.05280(10) 0.0312(4) Uani 0.425(3) 1 d P B 2 
H6' H -0.3830 0.3613 0.0811 0.037 Uiso 0.425(3) 1 calc PR B 2 
C7 C -0.2129(2) 0.3904(2) -0.02821(10) 0.0298(4) Uani 0.575(3) 1 d P B 1 
H7 H -0.2963 0.4580 -0.0533 0.036 Uiso 0.575(3) 1 calc PR B 1 
C7' C -0.2129(2) 0.3904(2) -0.02821(10) 0.0298(4) Uani 0.425(3) 1 d P B 2 
F1' F -0.3329(3) 0.4885(3) -0.05769(13) 0.0345(7) Uani 0.425(3) 1 d P B 2 
C8 C -0.0461(2) 0.3514(2) -0.07021(10) 0.0282(3) Uani 1 1 d . . . 
H8 H -0.0133 0.3917 -0.1245 0.034 Uiso 1 1 calc R B 1 
C9 C 0.0812(2) 0.24991(19) -0.03367(9) 0.0253(3) Uani 1 1 d . B . 
C10 C 0.2544(2) 0.20836(19) -0.07439(9) 0.0250(3) Uani 1 1 d . . . 
H10 H 0.2901 0.2497 -0.1283 0.030 Uiso 1 1 calc R B . 
C11 C 0.3786(2) 0.10680(19) -0.03827(9) 0.0238(3) Uani 1 1 d . . . 
C12 C 0.3868(2) -0.12996(19) 0.16039(9) 0.0252(3) Uani 1 1 d . . . 
C13 C 0.3338(2) -0.1919(2) 0.22647(9) 0.0280(3) Uani 1 1 d . C . 
C14 C 0.3525(2) -0.1912(2) 0.40438(10) 0.0325(4) Uani 1 1 d . C . 
H14 H 0.4841 -0.2077 0.3841 0.039 Uiso 1 1 calc R . . 
C15 C 0.3070(4) 0.0048(3) 0.41458(13) 0.0602(6) Uani 1 1 d . . . 
H15A H 0.1801 0.0276 0.4378 0.090 Uiso 1 1 calc R C . 
H15B H 0.3334 0.0600 0.3611 0.090 Uiso 1 1 calc R . . 
H15C H 0.3784 0.0520 0.4513 0.090 Uiso 1 1 calc R . . 
C16 C 0.3171(3) -0.2795(3) 0.48767(10) 0.0473(5) Uani 1 1 d . . . 
H16A H 0.3911 -0.2328 0.5234 0.071 Uiso 1 1 calc R C . 
H16B H 0.3465 -0.4044 0.4803 0.071 Uiso 1 1 calc R . . 
H16C H 0.1911 -0.2576 0.5126 0.071 Uiso 1 1 calc R . . 
C17 C 0.3123(2) -0.5310(2) 0.31616(10) 0.0352(4) Uani 1 1 d . C . 
H17 H 0.2687 -0.5823 0.3707 0.042 Uiso 1 1 calc R . . 
C18 C 0.5151(3) -0.5667(3) 0.29699(12) 0.0472(5) Uani 1 1 d . . . 
H18A H 0.5456 -0.6919 0.2945 0.071 Uiso 1 1 calc R C . 
H18B H 0.5671 -0.5151 0.3400 0.071 Uiso 1 1 calc R . . 
H18C H 0.5624 -0.5159 0.2442 0.071 Uiso 1 1 calc R . . 
C19 C 0.2269(3) -0.6229(2) 0.25293(11) 0.0485(5) Uani 1 1 d . . . 
H19A H 0.2602 -0.5699 0.1993 0.073 Uiso 1 1 calc R C . 
H19B H 0.0970 -0.6117 0.2697 0.073 Uiso 1 1 calc R . . 
H19C H 0.2693 -0.7457 0.2495 0.073 Uiso 1 1 calc R . . 
C20 C -0.0045(4) -0.2611(4) 0.33553(19) 0.0347(7) Uani 0.765(5) 1 d PD C 1 
H20 H -0.0358 -0.3270 0.2892 0.042 Uiso 0.765(5) 1 calc PR C 1 
C21 C -0.1064(10) -0.3391(10) 0.4155(6) 0.0440(13) Uani 0.765(5) 1 d PD C 1 
H21A H -0.0766 -0.2814 0.4630 0.066 Uiso 0.765(5) 1 calc PR C 1 
H21B H -0.0716 -0.4632 0.4169 0.066 Uiso 0.765(5) 1 calc PR C 1 
H21C H -0.2350 -0.3216 0.4168 0.066 Uiso 0.765(5) 1 calc PR C 1 
C22 C -0.0793(4) -0.0756(4) 0.32848(19) 0.0569(10) Uani 0.765(5) 1 d PD C 1 
H22A H -0.2041 -0.0747 0.3221 0.085 Uiso 0.765(5) 1 calc PR C 1 
H22B H -0.0101 -0.0221 0.2808 0.085 Uiso 0.765(5) 1 calc PR C 1 
H22C H -0.0721 -0.0104 0.3780 0.085 Uiso 0.765(5) 1 calc PR C 1 
C20' C -0.0052(17) -0.2168(16) 0.3608(6) 0.0347(7) Uani 0.235(5) 1 d PD C 2 
H20' H -0.0195 -0.1082 0.3945 0.042 Uiso 0.235(5) 1 calc PR C 2 
C21' C -0.1065(11) -0.1944(11) 0.2872(5) 0.041(2) Uiso 0.235(5) 1 d PD C 2 
H21D H -0.0665 -0.0938 0.2552 0.061 Uiso 0.235(5) 1 calc PR C 2 
H21E H -0.2350 -0.1770 0.3081 0.061 Uiso 0.235(5) 1 calc PR C 2 
H21F H -0.0815 -0.2985 0.2524 0.061 Uiso 0.235(5) 1 calc PR C 2 
C22' C -0.082(4) -0.367(4) 0.411(2) 0.0440(13) Uani 0.235(5) 1 d PD C 2 
H22A H -0.2122 -0.3471 0.4252 0.066 Uiso 0.235(5) 1 calc PR C 2 
H22B H -0.0332 -0.3761 0.4618 0.066 Uiso 0.235(5) 1 calc PR C 2 
H22C H -0.0506 -0.4752 0.3797 0.066 Uiso 0.235(5) 1 calc PR C 2 
 
loop_ 
 _atom_site_aniso_label 
 _atom_site_aniso_U_11 
 _atom_site_aniso_U_22 
 _atom_site_aniso_U_33 
 _atom_site_aniso_U_23 
 _atom_site_aniso_U_13 
 _atom_site_aniso_U_12 
Si1 0.0282(3) 0.0286(2) 0.0258(2) 0.00924(17) -0.00505(17) -0.00746(18) 
C1 0.0290(8) 0.0190(7) 0.0239(7) 0.0033(6) -0.0053(6) -0.0059(6) 
C2 0.0289(8) 0.0187(7) 0.0248(7) 0.0031(6) -0.0059(6) -0.0054(6) 
C3 0.0313(9) 0.0212(8) 0.0245(7) 0.0029(6) -0.0051(6) -0.0071(6) 
C4 0.0294(8) 0.0197(7) 0.0278(7) 0.0007(6) -0.0070(6) -0.0058(6) 
C5 0.0302(9) 0.0257(8) 0.0297(8) 0.0019(6) -0.0049(7) -0.0065(7) 
C6 0.0278(9) 0.0266(8) 0.0400(9) -0.0017(7) -0.0072(7) -0.0048(7) 
F1 0.0277(10) 0.0463(11) 0.0411(10) 0.0029(8) -0.0050(7) 0.0006(8) 
C6' 0.0278(9) 0.0266(8) 0.0400(9) -0.0017(7) -0.0072(7) -0.0048(7) 
C7 0.0307(9) 0.0232(8) 0.0383(9) 0.0018(6) -0.0128(7) -0.0029(7) 
C7' 0.0307(9) 0.0232(8) 0.0383(9) 0.0018(6) -0.0128(7) -0.0029(7) 
F1' 0.0269(13) 0.0372(14) 0.0403(13) 0.0060(10) -0.0112(10) 0.0030(10) 
C8 0.0342(9) 0.0229(8) 0.0298(8) 0.0032(6) -0.0105(7) -0.0053(7) 
C9 0.0321(9) 0.0174(7) 0.0281(7) 0.0023(6) -0.0081(6) -0.0061(6) 
C10 0.0313(9) 0.0197(7) 0.0250(7) 0.0043(6) -0.0065(6) -0.0061(6) 
C11 0.0307(8) 0.0178(7) 0.0241(7) 0.0031(6) -0.0065(6) -0.0058(6) 
C12 0.0275(8) 0.0216(7) 0.0276(7) 0.0028(6) -0.0074(6) -0.0040(6) 
C13 0.0290(9) 0.0260(8) 0.0300(8) 0.0052(6) -0.0078(6) -0.0029(7) 
C14 0.0364(10) 0.0329(9) 0.0308(8) 0.0090(7) -0.0093(7) -0.0110(8) 
C15 0.0990(19) 0.0370(11) 0.0538(12) 0.0017(9) -0.0331(12) -0.0168(12) 
C16 0.0622(13) 0.0539(12) 0.0326(9) 0.0131(8) -0.0178(9) -0.0261(10) 
C17 0.0505(11) 0.0282(9) 0.0278(8) 0.0090(7) -0.0077(7) -0.0081(8) 
C18 0.0559(13) 0.0397(11) 0.0438(10) 0.0056(8) -0.0088(9) 0.0096(9) 
C19 0.0727(15) 0.0354(10) 0.0404(10) 0.0012(8) -0.0136(10) -0.0151(10) 
C20 0.0310(10) 0.0426(19) 0.0324(18) 0.0103(12) -0.0072(13) -0.0110(12) 
C21 0.024(3) 0.051(3) 0.0541(15) 0.022(2) -0.0016(16) -0.003(2) 
C22 0.0340(15) 0.059(2) 0.0690(19) 0.0273(15) 0.0082(13) 0.0076(13) 
C20' 0.0310(10) 0.0426(19) 0.0324(18) 0.0103(12) -0.0072(13) -0.0110(12) 
C22' 0.024(3) 0.051(3) 0.0541(15) 0.022(2) -0.0016(16) -0.003(2) 
 
_geom_special_details 
; 
 All esds (except the esd in the dihedral angle between two l.s. planes) 
 are estimated using the full covariance matrix.  The cell esds are taken 
 into account individually in the estimation of esds in distances, angles 
 and torsion angles; correlations between esds in cell parameters are only 
 used when they are defined by crystal symmetry.  An approximate (isotropic) 
 treatment of cell esds is used for estimating esds involving l.s. planes. 
; 
 
loop_ 
 _geom_bond_atom_site_label_1 
 _geom_bond_atom_site_label_2 
 _geom_bond_distance 
 _geom_bond_site_symmetry_2 
 _geom_bond_publ_flag 
Si1 C13 1.8398(16) . ? 
Si1 C20 1.883(3) . ? 
Si1 C17 1.8853(17) . ? 
Si1 C14 1.8855(17) . ? 
Si1 C20' 1.944(13) . ? 
C1 C2 1.414(2) . ? 
C1 C11 1.423(2) 2_655 ? 
C1 C12 1.4321(19) . ? 
C2 C3 1.411(2) . ? 
C2 C11 1.448(2) . ? 
C3 C4 1.382(2) . ? 
C3 H3 0.9500 . ? 
C4 C5 1.437(2) . ? 
C4 C9 1.445(2) . ? 
C5 C6 1.348(2) . ? 
C5 H5 0.9500 . ? 
C6 F1 1.333(2) . ? 
C6 C7 1.417(2) . ? 
C7 C8 1.350(2) . ? 
C7 H7 0.9500 . ? 
C8 C9 1.428(2) . ? 
C8 H8 0.9500 . ? 
C9 C10 1.388(2) . ? 
C10 C11 1.407(2) . ? 
C10 H10 0.9500 . ? 
C11 C1 1.423(2) 2_655 ? 
C12 C13 1.211(2) . ? 
C14 C16 1.532(2) . ? 
C14 C15 1.535(3) . ? 
C14 H14 1.0000 . ? 
C15 H15A 0.9800 . ? 
C15 H15B 0.9800 . ? 
C15 H15C 0.9800 . ? 
C16 H16A 0.9800 . ? 
C16 H16B 0.9800 . ? 
C16 H16C 0.9800 . ? 
C17 C18 1.531(3) . ? 
C17 C19 1.539(2) . ? 
C17 H17 1.0000 . ? 
C18 H18A 0.9800 . ? 
C18 H18B 0.9800 . ? 
C18 H18C 0.9800 . ? 
C19 H19A 0.9800 . ? 
C19 H19B 0.9800 . ? 
C19 H19C 0.9800 . ? 
C20 C22 1.519(4) . ? 
C20 C21 1.558(7) . ? 
C20 H20 1.0000 . ? 
C21 H21A 0.9800 . ? 
C21 H21B 0.9800 . ? 
C21 H21C 0.9800 . ? 
C22 H22A 0.9800 . ? 
C22 H22B 0.9800 . ? 
C22 H22C 0.9800 . ? 
C20' C22' 1.528(18) . ? 
C20' C21' 1.568(12) . ? 
C20' H20' 1.0000 . ? 
C21' H21D 0.9800 . ? 
C21' H21E 0.9800 . ? 
C21' H21F 0.9800 . ? 
C22' H22A 0.9800 . ? 
C22' H22B 0.9800 . ? 
C22' H22C 0.9800 . ? 
 
loop_ 
 _geom_angle_atom_site_label_1 
 _geom_angle_atom_site_label_2 
 _geom_angle_atom_site_label_3 
 _geom_angle 
 _geom_angle_site_symmetry_1 
 _geom_angle_site_symmetry_3 
 _geom_angle_publ_flag 
C13 Si1 C20 105.39(11) . . ? 
C13 Si1 C17 108.31(7) . . ? 
C20 Si1 C17 108.10(12) . . ? 
C13 Si1 C14 106.74(7) . . ? 
C20 Si1 C14 118.32(12) . . ? 
C17 Si1 C14 109.55(8) . . ? 
C13 Si1 C20' 110.8(3) . . ? 
C20 Si1 C20' 16.2(3) . . ? 
C17 Si1 C20' 118.5(4) . . ? 
C14 Si1 C20' 102.3(3) . . ? 
C2 C1 C11 120.85(13) . 2_655 ? 
C2 C1 C12 119.50(14) . . ? 
C11 C1 C12 119.63(13) 2_655 . ? 
C3 C2 C1 121.61(13) . . ? 
C3 C2 C11 118.44(14) . . ? 
C1 C2 C11 119.94(14) . . ? 
C4 C3 C2 122.06(14) . . ? 
C4 C3 H3 119.0 . . ? 
C2 C3 H3 119.0 . . ? 
C3 C4 C5 121.81(14) . . ? 
C3 C4 C9 119.48(14) . . ? 
C5 C4 C9 118.71(14) . . ? 
C6 C5 C4 119.67(15) . . ? 
C6 C5 H5 120.2 . . ? 
C4 C5 H5 120.2 . . ? 
F1 C6 C5 121.97(16) . . ? 
F1 C6 C7 116.24(16) . . ? 
C5 C6 C7 121.77(15) . . ? 
C8 C7 C6 120.79(15) . . ? 
C8 C7 H7 119.6 . . ? 
C6 C7 H7 119.6 . . ? 
C7 C8 C9 120.46(15) . . ? 
C7 C8 H8 119.8 . . ? 
C9 C8 H8 119.8 . . ? 
C10 C9 C8 122.29(14) . . ? 
C10 C9 C4 119.12(14) . . ? 
C8 C9 C4 118.59(14) . . ? 
C9 C10 C11 121.96(14) . . ? 
C9 C10 H10 119.0 . . ? 
C11 C10 H10 119.0 . . ? 
C10 C11 C1 121.87(13) . 2_655 ? 
C10 C11 C2 118.92(14) . . ? 
C1 C11 C2 119.21(13) 2_655 . ? 
C13 C12 C1 177.28(16) . . ? 
C12 C13 Si1 177.10(14) . . ? 
C16 C14 C15 110.30(15) . . ? 
C16 C14 Si1 113.92(11) . . ? 
C15 C14 Si1 113.18(12) . . ? 
C16 C14 H14 106.3 . . ? 
C15 C14 H14 106.3 . . ? 
Si1 C14 H14 106.3 . . ? 
C14 C15 H15A 109.5 . . ? 
C14 C15 H15B 109.5 . . ? 
H15A C15 H15B 109.5 . . ? 
C14 C15 H15C 109.5 . . ? 
H15A C15 H15C 109.5 . . ? 
H15B C15 H15C 109.5 . . ? 
C14 C16 H16A 109.5 . . ? 
C14 C16 H16B 109.5 . . ? 
H16A C16 H16B 109.5 . . ? 
C14 C16 H16C 109.5 . . ? 
H16A C16 H16C 109.5 . . ? 
H16B C16 H16C 109.5 . . ? 
C18 C17 C19 110.22(15) . . ? 
C18 C17 Si1 111.52(12) . . ? 
C19 C17 Si1 112.63(12) . . ? 
C18 C17 H17 107.4 . . ? 
C19 C17 H17 107.4 . . ? 
Si1 C17 H17 107.4 . . ? 
C17 C18 H18A 109.5 . . ? 
C17 C18 H18B 109.5 . . ? 
H18A C18 H18B 109.5 . . ? 
C17 C18 H18C 109.5 . . ? 
H18A C18 H18C 109.5 . . ? 
H18B C18 H18C 109.5 . . ? 
C17 C19 H19A 109.5 . . ? 
C17 C19 H19B 109.5 . . ? 
H19A C19 H19B 109.5 . . ? 
C17 C19 H19C 109.5 . . ? 
H19A C19 H19C 109.5 . . ? 
H19B C19 H19C 109.5 . . ? 
C22 C20 C21 108.6(4) . . ? 
C22 C20 Si1 115.1(2) . . ? 
C21 C20 Si1 113.5(3) . . ? 
C22 C20 H20 106.3 . . ? 
C21 C20 H20 106.3 . . ? 
Si1 C20 H20 106.3 . . ? 
C22' C20' C21' 106.9(15) . . ? 
C22' C20' Si1 104.5(14) . . ? 
C21' C20' Si1 111.9(7) . . ? 
C22' C20' H20' 111.1 . . ? 
C21' C20' H20' 111.1 . . ? 
Si1 C20' H20' 111.1 . . ? 
C20' C21' H21D 109.5 . . ? 
C20' C21' H21E 109.5 . . ? 
H21D C21' H21E 109.5 . . ? 
C20' C21' H21F 109.5 . . ? 
H21D C21' H21F 109.5 . . ? 
H21E C21' H21F 109.5 . . ? 
C20' C22' H22A 109.5 . . ? 
C20' C22' H22B 109.5 . . ? 
H22A C22' H22B 109.5 . . ? 
C20' C22' H22C 109.5 . . ? 
H22A C22' H22C 109.5 . . ? 
H22B C22' H22C 109.5 . . ? 
 
loop_ 
 _geom_torsion_atom_site_label_1 
 _geom_torsion_atom_site_label_2 
 _geom_torsion_atom_site_label_3 
 _geom_torsion_atom_site_label_4 
 _geom_torsion 
 _geom_torsion_site_symmetry_1 
 _geom_torsion_site_symmetry_2 
 _geom_torsion_site_symmetry_3 
 _geom_torsion_site_symmetry_4 
 _geom_torsion_publ_flag 
C11 C1 C2 C3 -179.88(13) 2_655 . . . ? 
C12 C1 C2 C3 1.8(2) . . . . ? 
C11 C1 C2 C11 1.2(2) 2_655 . . . ? 
C12 C1 C2 C11 -177.13(13) . . . . ? 
C1 C2 C3 C4 -178.19(14) . . . . ? 
C11 C2 C3 C4 0.8(2) . . . . ? 
C2 C3 C4 C5 179.52(13) . . . . ? 
C2 C3 C4 C9 0.3(2) . . . . ? 
C3 C4 C5 C6 -179.34(15) . . . . ? 
C9 C4 C5 C6 -0.1(2) . . . . ? 
C4 C5 C6 F1 178.39(15) . . . . ? 
C4 C5 C6 C7 0.2(2) . . . . ? 
F1 C6 C7 C8 -178.44(15) . . . . ? 
C5 C6 C7 C8 -0.2(2) . . . . ? 
C6 C7 C8 C9 0.0(2) . . . . ? 
C7 C8 C9 C10 -179.34(14) . . . . ? 
C7 C8 C9 C4 0.0(2) . . . . ? 
C3 C4 C9 C10 -1.4(2) . . . . ? 
C5 C4 C9 C10 179.42(13) . . . . ? 
C3 C4 C9 C8 179.24(13) . . . . ? 
C5 C4 C9 C8 0.0(2) . . . . ? 
C8 C9 C10 C11 -179.35(14) . . . . ? 
C4 C9 C10 C11 1.3(2) . . . . ? 
C9 C10 C11 C1 179.07(13) . . . 2_655 ? 
C9 C10 C11 C2 -0.2(2) . . . . ? 
C3 C2 C11 C10 -0.9(2) . . . . ? 
C1 C2 C11 C10 178.12(13) . . . . ? 
C3 C2 C11 C1 179.87(13) . . . 2_655 ? 
C1 C2 C11 C1 -1.1(2) . . . 2_655 ? 
C2 C1 C12 C13 73(4) . . . . ? 
C11 C1 C12 C13 -105(4) 2_655 . . . ? 
C1 C12 C13 Si1 -12(6) . . . . ? 
C20 Si1 C13 C12 -46(3) . . . . ? 
C17 Si1 C13 C12 70(3) . . . . ? 
C14 Si1 C13 C12 -172(3) . . . . ? 
C20' Si1 C13 C12 -62(3) . . . . ? 
C13 Si1 C14 C16 -170.73(13) . . . . ? 
C20 Si1 C14 C16 70.79(18) . . . . ? 
C17 Si1 C14 C16 -53.68(16) . . . . ? 
C20' Si1 C14 C16 72.9(4) . . . . ? 
C13 Si1 C14 C15 62.19(15) . . . . ? 
C20 Si1 C14 C15 -56.29(18) . . . . ? 
C17 Si1 C14 C15 179.24(14) . . . . ? 
C20' Si1 C14 C15 -54.2(4) . . . . ? 
C13 Si1 C17 C18 59.64(13) . . . . ? 
C20 Si1 C17 C18 173.36(14) . . . . ? 
C14 Si1 C17 C18 -56.42(13) . . . . ? 
C20' Si1 C17 C18 -173.1(4) . . . . ? 
C13 Si1 C17 C19 -64.89(14) . . . . ? 
C20 Si1 C17 C19 48.82(16) . . . . ? 
C14 Si1 C17 C19 179.04(12) . . . . ? 
C20' Si1 C17 C19 62.4(4) . . . . ? 
C13 Si1 C20 C22 -54.4(3) . . . . ? 
C17 Si1 C20 C22 -170.0(2) . . . . ? 
C14 Si1 C20 C22 64.8(3) . . . . ? 
C20' Si1 C20 C22 57.5(15) . . . . ? 
C13 Si1 C20 C21 179.5(5) . . . . ? 
C17 Si1 C20 C21 63.9(5) . . . . ? 
C14 Si1 C20 C21 -61.3(5) . . . . ? 
C20' Si1 C20 C21 -68.6(16) . . . . ? 
C13 Si1 C20' C22' 151.4(17) . . . . ? 
C20 Si1 C20' C22' 78(2) . . . . ? 
C17 Si1 C20' C22' 25.3(17) . . . . ? 
C14 Si1 C20' C22' -95.2(17) . . . . ? 
C13 Si1 C20' C21' 36.0(8) . . . . ? 
C20 Si1 C20' C21' -37.1(11) . . . . ? 
C17 Si1 C20' C21' -90.0(8) . . . . ? 
C14 Si1 C20' C21' 149.5(7) . . . . ? 
 
_diffrn_measured_fraction_theta_max    0.995 
_diffrn_reflns_theta_full              27.44 
_diffrn_measured_fraction_theta_full   0.995 
_refine_diff_density_max    0.266 
_refine_diff_density_min   -0.263 
_refine_diff_density_rms    0.048 
