 
data_k09044 
 
_audit_creation_method            SHELXL-97 
_chemical_name_systematic 
; 
 ? 
; 
_chemical_name_common             ? 
_chemical_melting_point           ? 
_chemical_formula_moiety 
 'C52 H66 O4 Si2' 
_chemical_formula_sum 
 'C52 H66 O4 Si2' 
_chemical_formula_weight          811.23 
 
loop_ 
 _atom_type_symbol 
 _atom_type_description 
 _atom_type_scat_dispersion_real 
 _atom_type_scat_dispersion_imag 
 _atom_type_scat_source 
 'C'  'C'   0.0033   0.0016 
 'International Tables Vol C Tables 4.2.6.8 and 6.1.1.4' 
 'H'  'H'   0.0000   0.0000 
 'International Tables Vol C Tables 4.2.6.8 and 6.1.1.4' 
 'O'  'O'   0.0106   0.0060 
 'International Tables Vol C Tables 4.2.6.8 and 6.1.1.4' 
 'Si'  'Si'   0.0817   0.0704 
 'International Tables Vol C Tables 4.2.6.8 and 6.1.1.4' 
 
_symmetry_cell_setting            triclinic
_symmetry_space_group_name_H-M    'P -1'
_symmetry_space_group_name_Hall   '-P 1'
 
loop_ 
 _symmetry_equiv_pos_as_xyz 
 'x, y, z' 
 '-x, -y, -z' 
 
_cell_length_a                    7.2564(3) 
_cell_length_b                    8.5684(3) 
_cell_length_c                    19.2030(8) 
_cell_angle_alpha                 89.0361(17) 
_cell_angle_beta                  80.4912(16) 
_cell_angle_gamma                 80.2659(18) 
_cell_volume                      1160.53(8) 
_cell_formula_units_Z             1 
_cell_measurement_temperature     90.0(2) 
_cell_measurement_reflns_used     5113
_cell_measurement_theta_min       1.00
_cell_measurement_theta_max       27.48
 
_exptl_crystal_description        plate
_exptl_crystal_colour             blue
_exptl_crystal_size_max           0.44 
_exptl_crystal_size_mid           0.30 
_exptl_crystal_size_min           0.01 
_exptl_crystal_density_meas       ? 
_exptl_crystal_density_diffrn     1.161 
_exptl_crystal_density_method     'not measured' 
_exptl_crystal_F_000              438 
_exptl_absorpt_coefficient_mu     0.120 
_exptl_absorpt_correction_type    multi-scan 
_exptl_absorpt_correction_T_min   0.949 
_exptl_absorpt_correction_T_max   0.999 
_exptl_absorpt_process_details    'Scalepack (Otwinowski & Minor, 1997)' 
 
_exptl_special_details 
; 
 ? 
; 
 
_diffrn_ambient_temperature       90.0(2) 
_diffrn_radiation_wavelength      0.71073 
_diffrn_radiation_type            MoK\a 
_diffrn_radiation_source          'fine-focus sealed tube'    
_diffrn_radiation_monochromator   'graphite'                 
_diffrn_measurement_device_type   'Nonius KappaCCD diffractometer'  
_diffrn_measurement_method        '\w scans at fixed \c = 55\%'
_diffrn_detector_area_resol_mean  9.1
_diffrn_standards_number          0 
_diffrn_standards_interval_count  . 
_diffrn_standards_interval_time   . 
_diffrn_standards_decay_%         ? 
_diffrn_reflns_number             10135 
_diffrn_reflns_av_R_equivalents   0.0572 
_diffrn_reflns_av_sigmaI/netI     0.0842 
_diffrn_reflns_limit_h_min        -9 
_diffrn_reflns_limit_h_max        9 
_diffrn_reflns_limit_k_min        -10 
_diffrn_reflns_limit_k_max        11 
_diffrn_reflns_limit_l_min        -24 
_diffrn_reflns_limit_l_max        24 
_diffrn_reflns_theta_min          1.08 
_diffrn_reflns_theta_max          27.49 
_reflns_number_total              5296 
_reflns_number_gt                 3296 
_reflns_threshold_expression      >2\s(I)    
 
_computing_data_collection        'COLLECT (Nonius, 1998)'
_computing_cell_refinement        'SCALEPACK (Otwinowski & Minor, 1997)'
_computing_data_reduction         'DENZO-SMN (Otwinowski & Minor, 1997)'
_computing_structure_solution     'SHELXS-97 (Sheldrick, 2008)' 
_computing_structure_refinement   'SHELXL-97 (Sheldrick, 2008)' 
_computing_molecular_graphics     'XP in SHELXTL (Sheldrick, 2008)'
_computing_publication_material
; 
SHELX-97 (Sheldrick, 2008) and local procedures 
; 
 
_publ_section_exptl_refinement
;
H atoms were found in difference Fourier maps and subsequently placed in
idealized positions with constrained distances of 
0.98 \%A (RCH~3~),
0.99 \%A (R~2~CH~2~),
0.95 \%A (C~Ar~H),
and with U~iso~(H) values set to either 1.2U~eq~ or 1.5U~eq~ (RCH~3~) 
of the attached atom. 
;

_refine_special_details 
; 
 Refinement of F^2^ against ALL reflections.  The weighted R-factor wR and 
 goodness of fit S are based on F^2^, conventional R-factors R are based 
 on F, with F set to zero for negative F^2^. The threshold expression of 
 F^2^ > 2\s(F^2^) is used only for calculating R-factors(gt) etc. and is 
 not relevant to the choice of reflections for refinement.  R-factors based 
 on F^2^ are statistically about twice as large as those based on F, and R- 
 factors based on ALL data will be even larger. 
; 
 
_refine_ls_structure_factor_coef  Fsqd  
_refine_ls_matrix_type            full 
_refine_ls_weighting_scheme       calc  
_refine_ls_weighting_details 
 'calc w=1/[\s^2^(Fo^2^)+(0.0708P)^2^+0.0142P] where P=(Fo^2^+2Fc^2^)/3' 
_atom_sites_solution_primary      direct 
_atom_sites_solution_secondary    difmap 
_atom_sites_solution_hydrogens    geom 
_refine_ls_hydrogen_treatment     constr 
_refine_ls_extinction_method      none 
_refine_ls_extinction_coef        ? 
_refine_ls_number_reflns          5296 
_refine_ls_number_parameters      265 
_refine_ls_number_restraints      0 
_refine_ls_R_factor_all           0.1057 
_refine_ls_R_factor_gt            0.0550 
_refine_ls_wR_factor_ref          0.1443 
_refine_ls_wR_factor_gt           0.1243 
_refine_ls_goodness_of_fit_ref    1.041 
_refine_ls_restrained_S_all       1.041 
_refine_ls_shift/su_max           0.001 
_refine_ls_shift/su_mean          0.000 
 
loop_ 
 _atom_site_label 
 _atom_site_type_symbol 
 _atom_site_fract_x 
 _atom_site_fract_y 
 _atom_site_fract_z 
 _atom_site_U_iso_or_equiv 
 _atom_site_adp_type 
 _atom_site_occupancy 
 _atom_site_symmetry_multiplicity 
 _atom_site_calc_flag 
 _atom_site_refinement_flags 
 _atom_site_disorder_assembly 
 _atom_site_disorder_group 
Si1 Si 0.68106(7) 0.70177(7) 0.20593(3) 0.02443(17) Uani 1 1 d . . . 
O1 O 1.04937(18) -0.27573(16) 0.35834(7) 0.0309(4) Uani 1 1 d . . . 
O2 O 0.95569(19) -0.34649(15) 0.47404(7) 0.0315(4) Uani 1 1 d . . . 
C1 C 0.5506(2) 0.5439(2) 0.42900(9) 0.0193(4) Uani 1 1 d . . . 
C2 C 0.6107(2) 0.3864(2) 0.44931(9) 0.0189(4) Uani 1 1 d . . . 
C3 C 0.7219(2) 0.2712(2) 0.40144(10) 0.0225(4) Uani 1 1 d . . . 
H3 H 0.7582 0.3005 0.3539 0.027 Uiso 1 1 calc R . . 
C4 C 0.7803(2) 0.1169(2) 0.42105(10) 0.0214(4) Uani 1 1 d . . . 
C5 C 0.8944(3) 0.0009(2) 0.37134(10) 0.0244(5) Uani 1 1 d . . . 
H5 H 0.9348 0.0279 0.3237 0.029 Uiso 1 1 calc R . . 
C6 C 0.9417(3) -0.1466(2) 0.39467(10) 0.0243(5) Uani 1 1 d . . . 
C7 C 0.8850(3) -0.1899(2) 0.46555(10) 0.0243(5) Uani 1 1 d . . . 
C8 C 0.7814(2) -0.0877(2) 0.51493(10) 0.0232(4) Uani 1 1 d . . . 
H8 H 0.7469 -0.1196 0.5622 0.028 Uiso 1 1 calc R . . 
C9 C 0.7248(2) 0.0724(2) 0.49321(10) 0.0218(4) Uani 1 1 d . . . 
C10 C 0.6186(2) 0.1843(2) 0.54091(10) 0.0204(4) Uani 1 1 d . . . 
H10 H 0.5849 0.1543 0.5886 0.024 Uiso 1 1 calc R . . 
C11 C 0.5583(2) 0.3421(2) 0.52149(10) 0.0194(4) Uani 1 1 d . . . 
C12 C 0.5987(2) 0.5896(2) 0.35715(10) 0.0215(4) Uani 1 1 d . . . 
C13 C 0.6351(2) 0.6318(2) 0.29696(10) 0.0239(4) Uani 1 1 d . . . 
C14 C 0.6859(3) 0.9187(2) 0.20795(10) 0.0281(5) Uani 1 1 d . . . 
H14A H 0.8038 0.9348 0.2244 0.034 Uiso 1 1 calc R . . 
H14B H 0.6912 0.9590 0.1592 0.034 Uiso 1 1 calc R . . 
C15 C 0.5167(3) 1.0178(2) 0.25517(11) 0.0300(5) Uani 1 1 d . . . 
H15A H 0.3989 0.9821 0.2473 0.036 Uiso 1 1 calc R . . 
H15B H 0.5298 0.9979 0.3052 0.036 Uiso 1 1 calc R . . 
C16 C 0.4977(3) 1.1952(2) 0.24209(11) 0.0302(5) Uani 1 1 d . . . 
H16A H 0.6167 1.2306 0.2488 0.036 Uiso 1 1 calc R . . 
H16B H 0.4809 1.2156 0.1924 0.036 Uiso 1 1 calc R . . 
C17 C 0.3331(3) 1.2928(2) 0.29027(11) 0.0357(5) Uani 1 1 d . . . 
H17A H 0.2156 1.2539 0.2864 0.054 Uiso 1 1 calc R . . 
H17B H 0.3216 1.4041 0.2763 0.054 Uiso 1 1 calc R . . 
H17C H 0.3558 1.2832 0.3392 0.054 Uiso 1 1 calc R . . 
C18 C 0.4834(3) 0.6659(2) 0.16007(9) 0.0262(5) Uani 1 1 d . . . 
H18A H 0.4771 0.5514 0.1614 0.031 Uiso 1 1 calc R . . 
H18B H 0.3621 0.7228 0.1861 0.031 Uiso 1 1 calc R . . 
C19 C 0.5057(3) 0.7200(3) 0.08280(10) 0.0295(5) Uani 1 1 d . . . 
H19A H 0.5289 0.8307 0.0810 0.035 Uiso 1 1 calc R . . 
H19B H 0.6184 0.6534 0.0555 0.035 Uiso 1 1 calc R . . 
C20 C 0.3342(3) 0.7109(3) 0.04765(10) 0.0297(5) Uani 1 1 d . . . 
H20A H 0.3155 0.5992 0.0466 0.036 Uiso 1 1 calc R . . 
H20B H 0.2199 0.7724 0.0763 0.036 Uiso 1 1 calc R . . 
C21 C 0.3551(3) 0.7739(3) -0.02700(11) 0.0434(6) Uani 1 1 d . . . 
H21A H 0.3761 0.8838 -0.0264 0.065 Uiso 1 1 calc R . . 
H21B H 0.2393 0.7693 -0.0464 0.065 Uiso 1 1 calc R . . 
H21C H 0.4633 0.7092 -0.0564 0.065 Uiso 1 1 calc R . . 
C22 C 0.9125(3) 0.5890(2) 0.16124(10) 0.0276(5) Uani 1 1 d . . . 
H22A H 0.9326 0.6203 0.1111 0.033 Uiso 1 1 calc R . . 
H22B H 1.0154 0.6200 0.1832 0.033 Uiso 1 1 calc R . . 
C23 C 0.9284(3) 0.4087(2) 0.16449(11) 0.0296(5) Uani 1 1 d . . . 
H23A H 0.9241 0.3758 0.2143 0.035 Uiso 1 1 calc R . . 
H23B H 0.8173 0.3784 0.1478 0.035 Uiso 1 1 calc R . . 
C24 C 1.1081(3) 0.3193(3) 0.12072(12) 0.0358(5) Uani 1 1 d . . . 
H24A H 1.1089 0.3473 0.0705 0.043 Uiso 1 1 calc R . . 
H24B H 1.2193 0.3541 0.1355 0.043 Uiso 1 1 calc R . . 
C25 C 1.1281(3) 0.1407(3) 0.12754(13) 0.0456(6) Uani 1 1 d . . . 
H25A H 1.1287 0.1118 0.1771 0.068 Uiso 1 1 calc R . . 
H25B H 1.2472 0.0905 0.0988 0.068 Uiso 1 1 calc R . . 
H25C H 1.0214 0.1046 0.1111 0.068 Uiso 1 1 calc R . . 
C26 C 1.0480(3) -0.4069(2) 0.40592(11) 0.0304(5) Uani 1 1 d . . . 
H26A H 0.9791 -0.4857 0.3894 0.036 Uiso 1 1 calc R . . 
H26B H 1.1794 -0.4592 0.4082 0.036 Uiso 1 1 calc R . . 
 
loop_ 
 _atom_site_aniso_label 
 _atom_site_aniso_U_11 
 _atom_site_aniso_U_22 
 _atom_site_aniso_U_33 
 _atom_site_aniso_U_23 
 _atom_site_aniso_U_13 
 _atom_site_aniso_U_12 
Si1 0.0226(3) 0.0285(4) 0.0223(3) 0.0032(2) -0.0043(2) -0.0043(2) 
O1 0.0299(8) 0.0223(8) 0.0379(8) -0.0060(7) -0.0063(6) 0.0039(6) 
O2 0.0315(8) 0.0181(8) 0.0423(9) -0.0006(7) -0.0054(6) 0.0026(6) 
C1 0.0149(9) 0.0237(11) 0.0209(10) 0.0011(8) -0.0068(7) -0.0037(8) 
C2 0.0150(9) 0.0216(11) 0.0214(10) 0.0003(8) -0.0073(7) -0.0026(8) 
C3 0.0199(10) 0.0253(12) 0.0235(10) 0.0019(9) -0.0079(8) -0.0029(9) 
C4 0.0188(9) 0.0226(11) 0.0252(10) -0.0009(9) -0.0093(8) -0.0046(8) 
C5 0.0236(10) 0.0245(11) 0.0258(11) -0.0038(9) -0.0086(8) -0.0010(9) 
C6 0.0178(9) 0.0237(12) 0.0321(11) -0.0079(9) -0.0087(8) 0.0000(9) 
C7 0.0220(10) 0.0175(11) 0.0354(12) 0.0008(9) -0.0112(9) -0.0026(8) 
C8 0.0210(10) 0.0223(11) 0.0268(11) 0.0031(9) -0.0076(8) -0.0024(9) 
C9 0.0154(9) 0.0219(11) 0.0295(11) 0.0006(9) -0.0081(8) -0.0029(8) 
C10 0.0187(9) 0.0231(11) 0.0209(10) 0.0042(9) -0.0067(8) -0.0050(8) 
C11 0.0152(9) 0.0205(11) 0.0235(10) -0.0002(8) -0.0082(7) -0.0015(8) 
C12 0.0175(9) 0.0190(11) 0.0281(11) -0.0021(9) -0.0066(8) -0.0002(8) 
C13 0.0204(10) 0.0242(11) 0.0268(11) 0.0008(9) -0.0055(8) -0.0017(8) 
C14 0.0274(11) 0.0343(13) 0.0240(10) 0.0030(9) -0.0059(8) -0.0082(9) 
C15 0.0305(11) 0.0293(13) 0.0302(11) 0.0060(10) -0.0050(9) -0.0058(10) 
C16 0.0348(12) 0.0305(12) 0.0270(11) 0.0034(10) -0.0077(9) -0.0081(10) 
C17 0.0438(13) 0.0280(13) 0.0354(13) 0.0042(10) -0.0074(10) -0.0057(11) 
C18 0.0235(10) 0.0319(12) 0.0229(10) 0.0027(9) -0.0023(8) -0.0052(9) 
C19 0.0257(11) 0.0373(13) 0.0263(11) 0.0040(10) -0.0048(9) -0.0081(10) 
C20 0.0285(11) 0.0346(13) 0.0279(11) 0.0014(10) -0.0089(9) -0.0069(10) 
C21 0.0407(13) 0.0588(17) 0.0344(13) 0.0087(12) -0.0152(10) -0.0106(12) 
C22 0.0218(10) 0.0351(13) 0.0259(11) 0.0031(10) -0.0028(8) -0.0065(9) 
C23 0.0260(11) 0.0328(13) 0.0299(11) 0.0012(10) -0.0049(9) -0.0046(10) 
C24 0.0266(11) 0.0360(14) 0.0433(13) -0.0023(11) -0.0040(10) -0.0025(10) 
C25 0.0348(13) 0.0378(15) 0.0623(16) -0.0082(12) -0.0073(11) -0.0006(11) 
C26 0.0266(11) 0.0215(12) 0.0439(13) -0.0033(10) -0.0108(9) -0.0012(9) 
 
_geom_special_details 
; 
 All esds (except the esd in the dihedral angle between two l.s. planes) 
 are estimated using the full covariance matrix.  The cell esds are taken 
 into account individually in the estimation of esds in distances, angles 
 and torsion angles; correlations between esds in cell parameters are only 
 used when they are defined by crystal symmetry.  An approximate (isotropic) 
 treatment of cell esds is used for estimating esds involving l.s. planes. 
; 
 
loop_ 
 _geom_bond_atom_site_label_1 
 _geom_bond_atom_site_label_2 
 _geom_bond_distance 
 _geom_bond_site_symmetry_2 
 _geom_bond_publ_flag 
Si1 C13 1.8347(19) . ? 
Si1 C14 1.866(2) . ? 
Si1 C22 1.8690(19) . ? 
Si1 C18 1.8714(19) . ? 
O1 C6 1.370(2) . ? 
O1 C26 1.437(2) . ? 
O2 C7 1.370(2) . ? 
O2 C26 1.430(2) . ? 
C1 C2 1.416(2) . ? 
C1 C11 1.416(2) 2_666 ? 
C1 C12 1.431(2) . ? 
C2 C3 1.410(3) . ? 
C2 C11 1.438(2) . ? 
C3 C4 1.384(3) . ? 
C3 H3 0.9500 . ? 
C4 C9 1.441(3) . ? 
C4 C5 1.442(3) . ? 
C5 C6 1.341(3) . ? 
C5 H5 0.9500 . ? 
C6 C7 1.418(3) . ? 
C7 C8 1.342(3) . ? 
C8 C9 1.439(3) . ? 
C8 H8 0.9500 . ? 
C9 C10 1.378(3) . ? 
C10 C11 1.412(2) . ? 
C10 H10 0.9500 . ? 
C11 C1 1.416(2) 2_666 ? 
C12 C13 1.206(2) . ? 
C14 C15 1.535(3) . ? 
C14 H14A 0.9900 . ? 
C14 H14B 0.9900 . ? 
C15 C16 1.524(3) . ? 
C15 H15A 0.9900 . ? 
C15 H15B 0.9900 . ? 
C16 C17 1.518(3) . ? 
C16 H16A 0.9900 . ? 
C16 H16B 0.9900 . ? 
C17 H17A 0.9800 . ? 
C17 H17B 0.9800 . ? 
C17 H17C 0.9800 . ? 
C18 C19 1.538(2) . ? 
C18 H18A 0.9900 . ? 
C18 H18B 0.9900 . ? 
C19 C20 1.524(2) . ? 
C19 H19A 0.9900 . ? 
C19 H19B 0.9900 . ? 
C20 C21 1.516(3) . ? 
C20 H20A 0.9900 . ? 
C20 H20B 0.9900 . ? 
C21 H21A 0.9800 . ? 
C21 H21B 0.9800 . ? 
C21 H21C 0.9800 . ? 
C22 C23 1.530(3) . ? 
C22 H22A 0.9900 . ? 
C22 H22B 0.9900 . ? 
C23 C24 1.522(3) . ? 
C23 H23A 0.9900 . ? 
C23 H23B 0.9900 . ? 
C24 C25 1.518(3) . ? 
C24 H24A 0.9900 . ? 
C24 H24B 0.9900 . ? 
C25 H25A 0.9800 . ? 
C25 H25B 0.9800 . ? 
C25 H25C 0.9800 . ? 
C26 H26A 0.9900 . ? 
C26 H26B 0.9900 . ? 
 
loop_ 
 _geom_angle_atom_site_label_1 
 _geom_angle_atom_site_label_2 
 _geom_angle_atom_site_label_3 
 _geom_angle 
 _geom_angle_site_symmetry_1 
 _geom_angle_site_symmetry_3 
 _geom_angle_publ_flag 
C13 Si1 C14 108.81(9) . . ? 
C13 Si1 C22 108.43(9) . . ? 
C14 Si1 C22 111.36(9) . . ? 
C13 Si1 C18 108.33(8) . . ? 
C14 Si1 C18 109.23(9) . . ? 
C22 Si1 C18 110.60(9) . . ? 
C6 O1 C26 106.76(15) . . ? 
C7 O2 C26 106.71(15) . . ? 
C2 C1 C11 121.17(16) . 2_666 ? 
C2 C1 C12 119.85(17) . . ? 
C11 C1 C12 118.97(17) 2_666 . ? 
C3 C2 C1 122.41(17) . . ? 
C3 C2 C11 118.57(17) . . ? 
C1 C2 C11 119.01(16) . . ? 
C4 C3 C2 122.56(18) . . ? 
C4 C3 H3 118.7 . . ? 
C2 C3 H3 118.7 . . ? 
C3 C4 C9 118.65(17) . . ? 
C3 C4 C5 121.71(18) . . ? 
C9 C4 C5 119.64(17) . . ? 
C6 C5 C4 117.65(18) . . ? 
C6 C5 H5 121.2 . . ? 
C4 C5 H5 121.2 . . ? 
C5 C6 O1 128.64(18) . . ? 
C5 C6 C7 122.43(18) . . ? 
O1 C6 C7 108.92(17) . . ? 
C8 C7 O2 127.49(18) . . ? 
C8 C7 C6 123.16(18) . . ? 
O2 C7 C6 109.33(17) . . ? 
C7 C8 C9 117.22(18) . . ? 
C7 C8 H8 121.4 . . ? 
C9 C8 H8 121.4 . . ? 
C10 C9 C8 120.62(17) . . ? 
C10 C9 C4 119.50(17) . . ? 
C8 C9 C4 119.88(17) . . ? 
C9 C10 C11 122.34(17) . . ? 
C9 C10 H10 118.8 . . ? 
C11 C10 H10 118.8 . . ? 
C10 C11 C1 121.81(17) . 2_666 ? 
C10 C11 C2 118.37(17) . . ? 
C1 C11 C2 119.81(16) 2_666 . ? 
C13 C12 C1 178.1(2) . . ? 
C12 C13 Si1 177.59(17) . . ? 
C15 C14 Si1 115.10(13) . . ? 
C15 C14 H14A 108.5 . . ? 
Si1 C14 H14A 108.5 . . ? 
C15 C14 H14B 108.5 . . ? 
Si1 C14 H14B 108.5 . . ? 
H14A C14 H14B 107.5 . . ? 
C16 C15 C14 113.88(16) . . ? 
C16 C15 H15A 108.8 . . ? 
C14 C15 H15A 108.8 . . ? 
C16 C15 H15B 108.8 . . ? 
C14 C15 H15B 108.8 . . ? 
H15A C15 H15B 107.7 . . ? 
C17 C16 C15 113.58(17) . . ? 
C17 C16 H16A 108.9 . . ? 
C15 C16 H16A 108.9 . . ? 
C17 C16 H16B 108.9 . . ? 
C15 C16 H16B 108.9 . . ? 
H16A C16 H16B 107.7 . . ? 
C16 C17 H17A 109.5 . . ? 
C16 C17 H17B 109.5 . . ? 
H17A C17 H17B 109.5 . . ? 
C16 C17 H17C 109.5 . . ? 
H17A C17 H17C 109.5 . . ? 
H17B C17 H17C 109.5 . . ? 
C19 C18 Si1 113.35(12) . . ? 
C19 C18 H18A 108.9 . . ? 
Si1 C18 H18A 108.9 . . ? 
C19 C18 H18B 108.9 . . ? 
Si1 C18 H18B 108.9 . . ? 
H18A C18 H18B 107.7 . . ? 
C20 C19 C18 113.87(15) . . ? 
C20 C19 H19A 108.8 . . ? 
C18 C19 H19A 108.8 . . ? 
C20 C19 H19B 108.8 . . ? 
C18 C19 H19B 108.8 . . ? 
H19A C19 H19B 107.7 . . ? 
C21 C20 C19 112.80(16) . . ? 
C21 C20 H20A 109.0 . . ? 
C19 C20 H20A 109.0 . . ? 
C21 C20 H20B 109.0 . . ? 
C19 C20 H20B 109.0 . . ? 
H20A C20 H20B 107.8 . . ? 
C20 C21 H21A 109.5 . . ? 
C20 C21 H21B 109.5 . . ? 
H21A C21 H21B 109.5 . . ? 
C20 C21 H21C 109.5 . . ? 
H21A C21 H21C 109.5 . . ? 
H21B C21 H21C 109.5 . . ? 
C23 C22 Si1 114.78(13) . . ? 
C23 C22 H22A 108.6 . . ? 
Si1 C22 H22A 108.6 . . ? 
C23 C22 H22B 108.6 . . ? 
Si1 C22 H22B 108.6 . . ? 
H22A C22 H22B 107.5 . . ? 
C24 C23 C22 113.95(16) . . ? 
C24 C23 H23A 108.8 . . ? 
C22 C23 H23A 108.8 . . ? 
C24 C23 H23B 108.8 . . ? 
C22 C23 H23B 108.8 . . ? 
H23A C23 H23B 107.7 . . ? 
C25 C24 C23 113.58(18) . . ? 
C25 C24 H24A 108.9 . . ? 
C23 C24 H24A 108.9 . . ? 
C25 C24 H24B 108.9 . . ? 
C23 C24 H24B 108.9 . . ? 
H24A C24 H24B 107.7 . . ? 
C24 C25 H25A 109.5 . . ? 
C24 C25 H25B 109.5 . . ? 
H25A C25 H25B 109.5 . . ? 
C24 C25 H25C 109.5 . . ? 
H25A C25 H25C 109.5 . . ? 
H25B C25 H25C 109.5 . . ? 
O2 C26 O1 107.77(15) . . ? 
O2 C26 H26A 110.2 . . ? 
O1 C26 H26A 110.2 . . ? 
O2 C26 H26B 110.2 . . ? 
O1 C26 H26B 110.2 . . ? 
H26A C26 H26B 108.5 . . ? 
 
loop_ 
 _geom_torsion_atom_site_label_1 
 _geom_torsion_atom_site_label_2 
 _geom_torsion_atom_site_label_3 
 _geom_torsion_atom_site_label_4 
 _geom_torsion 
 _geom_torsion_site_symmetry_1 
 _geom_torsion_site_symmetry_2 
 _geom_torsion_site_symmetry_3 
 _geom_torsion_site_symmetry_4 
 _geom_torsion_publ_flag 
C11 C1 C2 C3 -178.90(16) 2_666 . . . ? 
C12 C1 C2 C3 1.6(3) . . . . ? 
C11 C1 C2 C11 0.5(3) 2_666 . . . ? 
C12 C1 C2 C11 -178.94(15) . . . . ? 
C1 C2 C3 C4 -179.71(16) . . . . ? 
C11 C2 C3 C4 0.8(3) . . . . ? 
C2 C3 C4 C9 0.1(3) . . . . ? 
C2 C3 C4 C5 -179.81(16) . . . . ? 
C3 C4 C5 C6 -178.87(16) . . . . ? 
C9 C4 C5 C6 1.2(3) . . . . ? 
C4 C5 C6 O1 -179.27(16) . . . . ? 
C4 C5 C6 C7 -0.6(3) . . . . ? 
C26 O1 C6 C5 -176.57(19) . . . . ? 
C26 O1 C6 C7 4.59(19) . . . . ? 
C26 O2 C7 C8 177.25(18) . . . . ? 
C26 O2 C7 C6 -4.11(19) . . . . ? 
C5 C6 C7 C8 -0.5(3) . . . . ? 
O1 C6 C7 C8 178.39(17) . . . . ? 
C5 C6 C7 O2 -179.25(16) . . . . ? 
O1 C6 C7 O2 -0.3(2) . . . . ? 
O2 C7 C8 C9 179.38(16) . . . . ? 
C6 C7 C8 C9 0.9(3) . . . . ? 
C7 C8 C9 C10 -179.84(16) . . . . ? 
C7 C8 C9 C4 -0.2(3) . . . . ? 
C3 C4 C9 C10 -1.1(2) . . . . ? 
C5 C4 C9 C10 178.79(16) . . . . ? 
C3 C4 C9 C8 179.24(16) . . . . ? 
C5 C4 C9 C8 -0.8(2) . . . . ? 
C8 C9 C10 C11 -179.19(15) . . . . ? 
C4 C9 C10 C11 1.2(3) . . . . ? 
C9 C10 C11 C1 -179.94(16) . . . 2_666 ? 
C9 C10 C11 C2 -0.2(3) . . . . ? 
C3 C2 C11 C10 -0.8(2) . . . . ? 
C1 C2 C11 C10 179.74(15) . . . . ? 
C3 C2 C11 C1 178.93(15) . . . 2_666 ? 
C1 C2 C11 C1 -0.5(3) . . . 2_666 ? 
C13 Si1 C14 C15 -49.78(16) . . . . ? 
C22 Si1 C14 C15 -169.24(14) . . . . ? 
C18 Si1 C14 C15 68.31(16) . . . . ? 
Si1 C14 C15 C16 -165.51(13) . . . . ? 
C14 C15 C16 C17 -178.49(16) . . . . ? 
C13 Si1 C18 C19 179.97(14) . . . . ? 
C14 Si1 C18 C19 61.58(16) . . . . ? 
C22 Si1 C18 C19 -61.32(17) . . . . ? 
Si1 C18 C19 C20 -172.70(14) . . . . ? 
C18 C19 C20 C21 176.62(18) . . . . ? 
C13 Si1 C22 C23 53.82(16) . . . . ? 
C14 Si1 C22 C23 173.51(13) . . . . ? 
C18 Si1 C22 C23 -64.83(16) . . . . ? 
Si1 C22 C23 C24 173.29(14) . . . . ? 
C22 C23 C24 C25 176.73(17) . . . . ? 
C7 O2 C26 O1 6.88(19) . . . . ? 
C6 O1 C26 O2 -7.09(19) . . . . ? 
 
_diffrn_measured_fraction_theta_max    0.993 
_diffrn_reflns_theta_full              27.49 
_diffrn_measured_fraction_theta_full   0.993 
_refine_diff_density_max    0.352 
_refine_diff_density_min   -0.333 
_refine_diff_density_rms    0.058 
