 
data_k06346 
 
_audit_creation_method            SHELXL-97 
_chemical_name_systematic 
; 
 ? 
; 
_chemical_name_common             ? 
_chemical_melting_point           ? 
_chemical_formula_moiety          
 'C42 H54 S2 Si2' 
_chemical_formula_sum 
 'C42 H54 S2 Si2' 
_chemical_formula_weight          679.15 
 
loop_ 
 _atom_type_symbol 
 _atom_type_description 
 _atom_type_scat_dispersion_real 
 _atom_type_scat_dispersion_imag 
 _atom_type_scat_source 
 'C'  'C'    .0033    .0016 
 'International Tables Vol C Tables 4.2.6.8 and 6.1.1.4' 
 'H'  'H'    .0000    .0000 
 'International Tables Vol C Tables 4.2.6.8 and 6.1.1.4' 
 'S'  'S'    .1246    .1234 
 'International Tables Vol C Tables 4.2.6.8 and 6.1.1.4' 
 'Si'  'Si'    .0817    .0704 
 'International Tables Vol C Tables 4.2.6.8 and 6.1.1.4' 
 
_symmetry_cell_setting            triclinic
_symmetry_space_group_name_H-M    'P -1'
 
loop_ 
 _symmetry_equiv_pos_as_xyz 
 'x, y, z' 
 '-x, -y, -z' 
 
_cell_length_a                    8.3039(2) 
_cell_length_b                    10.6399(3) 
_cell_length_c                    11.1645(4) 
_cell_angle_alpha                 97.4821(11) 
_cell_angle_beta                  99.4733(11) 
_cell_angle_gamma                 95.1998(12) 
_cell_volume                      958.32(5) 
_cell_formula_units_Z             1 
_cell_measurement_temperature     180.0(2) 
_cell_measurement_reflns_used     4338
_cell_measurement_theta_min       1.00
_cell_measurement_theta_max       27.48
 
_exptl_crystal_description        rod
_exptl_crystal_colour             red
_exptl_crystal_size_max           0.50 
_exptl_crystal_size_mid           0.14 
_exptl_crystal_size_min           0.11 
_exptl_crystal_density_meas       ? 
_exptl_crystal_density_diffrn     1.177 
_exptl_crystal_density_method     'not measured' 
_exptl_crystal_F_000              366 
_exptl_absorpt_coefficient_mu     0.230 
_exptl_absorpt_correction_type    multi-scan
_exptl_absorpt_correction_T_min   0.8938 
_exptl_absorpt_correction_T_max   0.9752 
_exptl_absorpt_process_details    'Scalepack (Otwinowski & Minor, 1997)'
 
_exptl_special_details 
; 
 The crystals explode on cooling to 90K.  Data were collected at 180K.
; 
 
_diffrn_ambient_temperature       180.0(2) 
_diffrn_radiation_wavelength      0.71073 
_diffrn_radiation_type            MoK\a 
_diffrn_radiation_source          'fine-focus sealed tube' 
_diffrn_radiation_monochromator   graphite 
_diffrn_measurement_device_type   'Nonius KappaCCD diffractometer'
_diffrn_measurement_method        '\w scans at fixed \c = 55\%'
_diffrn_detector_area_resol_mean  18
_diffrn_standards_number          ? 
_diffrn_standards_interval_count  ? 
_diffrn_standards_interval_time   ? 
_diffrn_standards_decay_%         ? 
_diffrn_reflns_number             8604 
_diffrn_reflns_av_R_equivalents   0.0527 
_diffrn_reflns_av_sigmaI/netI     0.0798 
_diffrn_reflns_limit_h_min        -10 
_diffrn_reflns_limit_h_max        10 
_diffrn_reflns_limit_k_min        -13 
_diffrn_reflns_limit_k_max        13 
_diffrn_reflns_limit_l_min        -14 
_diffrn_reflns_limit_l_max        14 
_diffrn_reflns_theta_min          1.87 
_diffrn_reflns_theta_max          27.50 
_reflns_number_total              4416 
_reflns_number_gt                 2524 
_reflns_threshold_expression      >2\s(I)    
 
_computing_data_collection        'COLLECT (Nonius, 1998)'
_computing_cell_refinement        'SCALEPACK (Otwinowski & Minor, 1997)'
_computing_data_reduction         'DENZO-SMN (Otwinowski & Minor, 1997)'
_computing_structure_solution     'SHELXS-97 (Sheldrick, 1990)' 
_computing_structure_refinement   'SHELXL-97 (Sheldrick, 1997)' 
_computing_molecular_graphics     'XP in SHELXTL (Sheldrick, 1994)'
_computing_publication_material
; 
SHELX97-2 (Sheldrick, 1997) and local procedures 
; 
 
_refine_special_details 
; 
 Refinement of F^2^ against ALL reflections.  The weighted R-factor wR and 
 goodness of fit S are based on F^2^, conventional R-factors R are based 
 on F, with F set to zero for negative F^2^. The threshold expression of 
 F^2^ > 2sigma(F^2^) is used only for calculating R-factors(gt) etc. and is 
 not relevant to the choice of reflections for refinement.  R-factors based 
 on F^2^ are statistically about twice as large as those based on F, and R- 
 factors based on ALL data will be even larger. 
 
 Extensive disorder typical for crystals of this class of compound.
; 
 
_refine_ls_structure_factor_coef  Fsqd  
_refine_ls_matrix_type            full 
_refine_ls_weighting_scheme       calc  
_refine_ls_weighting_details 
 'calc w=1/[\s^2^(Fo^2^)+(0.1127P)^2^+0.0816P] where P=(Fo^2^+2Fc^2^)/3' 
_atom_sites_solution_primary      direct 
_atom_sites_solution_secondary    difmap 
_atom_sites_solution_hydrogens    geom 
_refine_ls_hydrogen_treatment     constr 
_refine_ls_extinction_method      none 
_refine_ls_extinction_coef        ? 
_refine_ls_number_reflns          4416 
_refine_ls_number_parameters      250 
_refine_ls_number_restraints      205 
_refine_ls_R_factor_all           0.1296 
_refine_ls_R_factor_gt            0.0675 
_refine_ls_wR_factor_ref          0.2148 
_refine_ls_wR_factor_gt           0.1831 
_refine_ls_goodness_of_fit_ref    1.063 
_refine_ls_restrained_S_all       1.055 
_refine_ls_shift/su_max           0.001 
_refine_ls_shift/su_mean          0.000 
 
loop_ 
 _atom_site_label 
 _atom_site_type_symbol 
 _atom_site_fract_x 
 _atom_site_fract_y 
 _atom_site_fract_z 
 _atom_site_U_iso_or_equiv 
 _atom_site_adp_type 
 _atom_site_occupancy 
 _atom_site_symmetry_multiplicity 
 _atom_site_calc_flag 
 _atom_site_refinement_flags 
 _atom_site_disorder_assembly 
 _atom_site_disorder_group 
Si1 Si 0.33064(10) 0.94407(7) 0.25853(7) 0.0437(3) Uani 1 1 d . A . 
C1 C 0.4614(3) 0.6086(2) 0.4455(2) 0.0334(6) Uani 1 1 d . . . 
C2 C 0.6005(3) 0.5494(2) 0.4210(2) 0.0330(6) Uani 1 1 d . . . 
C3 C 0.698(3) 0.596(4) 0.338(3) 0.0384(18) Uani 0.566(3) 1 d PD A 1 
H3 H 0.6685 0.6660 0.2981 0.046 Uiso 0.566(3) 1 calc PR A 1 
C4 C 0.832(3) 0.539(3) 0.317(4) 0.0422(10) Uani 0.566(3) 1 d PDU A 1 
S5 S 0.9606(2) 0.58988(16) 0.22072(15) 0.0470(6) Uani 0.566(3) 1 d PDU A 1 
C6 C 1.064(3) 0.463(3) 0.236(3) 0.0389(13) Uani 0.566(3) 1 d PDU A 1 
C7 C 1.0122(9) 0.3864(6) 0.3142(6) 0.0382(6) Uani 0.566(3) 1 d PDU A 1 
H7 H 1.0645 0.3140 0.3337 0.046 Uiso 0.566(3) 1 calc PR A 1 
C8 C 0.867(4) 0.426(3) 0.367(3) 0.0390(12) Uani 0.566(3) 1 d PDU A 1 
C9 C 0.771(4) 0.375(5) 0.446(3) 0.0383(18) Uani 0.566(3) 1 d PDU A 1 
H9 H 0.7952 0.2987 0.4779 0.046 Uiso 0.566(3) 1 calc PR A 1 
C3' C 0.708(4) 0.599(5) 0.350(4) 0.0384(18) Uani 0.434(3) 1 d PDU A 2 
H3 H 0.6951 0.6788 0.3227 0.046 Uiso 0.434(3) 1 calc PR A 2 
C4' C 0.837(4) 0.528(3) 0.319(5) 0.0422(10) Uani 0.434(3) 1 d PDU A 2 
C5' C 0.9692(11) 0.5380(9) 0.2422(8) 0.0470(6) Uani 0.434(3) 1 d PDU A 2 
H5' H 0.9768 0.6062 0.1956 0.056 Uiso 0.434(3) 1 calc PR A 2 
C6' C 1.074(4) 0.453(4) 0.239(4) 0.0389(13) Uani 0.434(3) 1 d PDU A 2 
S7' S 1.0338(3) 0.34133(19) 0.32861(19) 0.0382(6) Uani 0.434(3) 1 d PDU A 2 
C8' C 0.872(5) 0.417(4) 0.371(5) 0.0390(12) Uani 0.434(3) 1 d PDU A 2 
C9' C 0.782(6) 0.377(6) 0.451(5) 0.0383(18) Uani 0.434(3) 1 d PD A 2 
H9 H 0.8132 0.3077 0.4916 0.046 Uiso 0.434(3) 1 calc PR A 2 
C10 C 0.6388(3) 0.4371(2) 0.4758(2) 0.0324(6) Uani 1 1 d . . . 
C11 C 0.4192(3) 0.7161(2) 0.3853(2) 0.0361(6) Uani 1 1 d . . . 
C12 C 0.3818(3) 0.8033(3) 0.3311(3) 0.0420(7) Uani 1 1 d . A . 
C13 C 0.1466(4) 1.0045(3) 0.3135(3) 0.0604(9) Uani 1 1 d . . . 
H13A H 0.1029 1.0645 0.2590 0.072 Uiso 1 1 calc R . . 
H13B H 0.0606 0.9315 0.3049 0.072 Uiso 1 1 calc R . . 
C14 C 0.1761(5) 1.0710(4) 0.4442(3) 0.0746(11) Uani 1 1 d . . . 
H14A H 0.2103 1.0107 0.5001 0.112 Uiso 1 1 calc R . . 
H14B H 0.0746 1.1030 0.4627 0.112 Uiso 1 1 calc R . . 
H14C H 0.2627 1.1426 0.4549 0.112 Uiso 1 1 calc R . . 
C15 C 0.5146(4) 1.0679(3) 0.3077(3) 0.0577(9) Uani 1 1 d . . . 
H15A H 0.4841 1.1502 0.2840 0.069 Uiso 1 1 calc R . . 
H15B H 0.5454 1.0797 0.3983 0.069 Uiso 1 1 calc R . . 
C16 C 0.6637(4) 1.0337(3) 0.2518(3) 0.0667(10) Uani 1 1 d . . . 
H16A H 0.6893 0.9490 0.2689 0.100 Uiso 1 1 calc R . . 
H16B H 0.7582 1.0969 0.2877 0.100 Uiso 1 1 calc R . . 
H16C H 0.6392 1.0332 0.1628 0.100 Uiso 1 1 calc R . . 
C17 C 0.2894(5) 0.9051(4) 0.0883(3) 0.0781(12) Uani 1 1 d D . . 
H17A H 0.2677 0.9842 0.0537 0.094 Uiso 1 1 calc R B 1 
H17B H 0.3905 0.8775 0.0619 0.094 Uiso 1 1 calc R B 1 
C18 C 0.1504(6) 0.8048(5) 0.0332(4) 0.085(2) Uani 0.806(8) 1 d PD C 1 
H18A H 0.1770 0.7225 0.0566 0.128 Uiso 0.806(8) 1 calc PR C 1 
H18B H 0.1321 0.7990 -0.0564 0.128 Uiso 0.806(8) 1 calc PR C 1 
H18C H 0.0507 0.8272 0.0632 0.128 Uiso 0.806(8) 1 calc PR C 1 
C18' C 0.1342(10) 0.9545(5) 0.0311(17) 0.091(9) Uiso 0.194(8) 1 d PRD C 2 
H18D H 0.1172 0.9320 -0.0584 0.137 Uiso 0.194(8) 1 calc PR C 2 
H18E H 0.1445 1.0475 0.0527 0.137 Uiso 0.194(8) 1 calc PR C 2 
H18F H 0.0403 0.9162 0.0619 0.137 Uiso 0.194(8) 1 calc PR C 2 
C19 C 1.2034(4) 0.4512(3) 0.1631(3) 0.0393(8) Uani 0.903(4) 1 d PDU A 1 
H19A H 1.1578 0.4474 0.0748 0.047 Uiso 0.903(4) 1 calc PR A 1 
H19B H 1.2827 0.5292 0.1881 0.047 Uiso 0.903(4) 1 calc PR A 1 
C20 C 1.2961(4) 0.3354(3) 0.1793(3) 0.0562(10) Uani 0.903(4) 1 d PDU A 1 
H20A H 1.2197 0.2566 0.1485 0.067 Uiso 0.903(4) 1 calc PR A 1 
H20B H 1.3371 0.3357 0.2678 0.067 Uiso 0.903(4) 1 calc PR A 1 
C21 C 1.4462(5) 0.3347(4) 0.1081(4) 0.0671(12) Uani 0.903(4) 1 d PDU A 1 
H21A H 1.5207 0.4148 0.1367 0.080 Uiso 0.903(4) 1 calc PR A 1 
H21B H 1.5088 0.2626 0.1268 0.080 Uiso 0.903(4) 1 calc PR A 1 
C22 C 1.3894(6) 0.3225(4) -0.0267(4) 0.0769(13) Uani 0.903(4) 1 d PDU A 1 
H22A H 1.3144 0.2438 -0.0549 0.115 Uiso 0.903(4) 1 calc PR A 1 
H22B H 1.4844 0.3197 -0.0684 0.115 Uiso 0.903(4) 1 calc PR A 1 
H22C H 1.3320 0.3959 -0.0457 0.115 Uiso 0.903(4) 1 calc PR A 1 
C19' C 1.220(4) 0.412(3) 0.209(2) 0.0393(8) Uani 0.097(4) 1 d PDU A 2 
H19C H 1.2684 0.3636 0.2733 0.047 Uiso 0.097(4) 1 calc PR A 2 
H19D H 1.2991 0.4880 0.2101 0.047 Uiso 0.097(4) 1 calc PR A 2 
C20' C 1.197(3) 0.330(3) 0.086(2) 0.043(5) Uiso 0.097(4) 1 d PDU A 2 
H20C H 1.1149 0.3636 0.0275 0.052 Uiso 0.097(4) 1 calc PR A 2 
H20D H 1.1527 0.2425 0.0938 0.052 Uiso 0.097(4) 1 calc PR A 2 
C21' C 1.358(5) 0.322(3) 0.030(4) 0.0671(12) Uani 0.097(4) 1 d PDU A 2 
H21C H 1.4503 0.3082 0.0938 0.080 Uiso 0.097(4) 1 calc PR A 2 
H21D H 1.3421 0.2486 -0.0374 0.080 Uiso 0.097(4) 1 calc PR A 2 
C22' C 1.398(5) 0.443(3) -0.019(3) 0.0769(13) Uani 0.097(4) 1 d PDU . 2 
H22D H 1.4952 0.4367 -0.0581 0.115 Uiso 0.097(4) 1 calc PR A 2 
H22E H 1.4218 0.5143 0.0491 0.115 Uiso 0.097(4) 1 calc PR A 2 
H22F H 1.3049 0.4581 -0.0790 0.115 Uiso 0.097(4) 1 calc PR A 2 
 
loop_ 
 _atom_site_aniso_label 
 _atom_site_aniso_U_11 
 _atom_site_aniso_U_22 
 _atom_site_aniso_U_33 
 _atom_site_aniso_U_23 
 _atom_site_aniso_U_13 
 _atom_site_aniso_U_12 
Si1 0.0530(6) 0.0418(5) 0.0374(5) 0.0097(3) 0.0018(4) 0.0161(4) 
C1 0.0343(15) 0.0318(14) 0.0319(14) 0.0027(11) 0.0000(11) 0.0064(11) 
C2 0.0336(15) 0.0333(14) 0.0304(14) 0.0017(11) 0.0030(11) 0.0040(11) 
C3 0.040(3) 0.0427(19) 0.032(5) 0.007(3) 0.004(3) 0.001(2) 
C4 0.0362(17) 0.050(3) 0.0363(16) -0.002(2) 0.0073(15) -0.0032(17) 
S5 0.0398(8) 0.0571(11) 0.0474(9) 0.0061(7) 0.0148(6) 0.0120(7) 
C6 0.037(2) 0.039(3) 0.0392(18) 0.0022(19) 0.005(2) 0.0080(18) 
C7 0.0429(10) 0.0341(13) 0.0406(9) 0.0114(8) 0.0080(7) 0.0104(8) 
C8 0.031(2) 0.042(3) 0.040(2) -0.0069(18) 0.0025(19) 0.0065(18) 
C9 0.034(4) 0.0395(19) 0.038(3) -0.003(2) 0.000(3) 0.009(3) 
C3' 0.040(3) 0.0427(19) 0.032(5) 0.007(3) 0.004(3) 0.001(2) 
C4' 0.0362(17) 0.050(3) 0.0363(16) -0.002(2) 0.0073(15) -0.0032(17) 
C5' 0.0398(8) 0.0571(11) 0.0474(9) 0.0061(7) 0.0148(6) 0.0120(7) 
C6' 0.037(2) 0.039(3) 0.0392(18) 0.0022(19) 0.005(2) 0.0080(18) 
S7' 0.0429(10) 0.0341(13) 0.0406(9) 0.0114(8) 0.0080(7) 0.0104(8) 
C8' 0.031(2) 0.042(3) 0.040(2) -0.0069(18) 0.0025(19) 0.0065(18) 
C9' 0.034(4) 0.0395(19) 0.038(3) -0.003(2) 0.000(3) 0.009(3) 
C10 0.0342(15) 0.0310(13) 0.0292(13) -0.0008(10) 0.0012(11) 0.0040(11) 
C11 0.0383(16) 0.0331(14) 0.0349(15) 0.0012(11) 0.0036(12) 0.0038(12) 
C12 0.0439(18) 0.0407(16) 0.0391(16) 0.0024(13) 0.0024(13) 0.0070(13) 
C13 0.063(2) 0.054(2) 0.064(2) 0.0178(16) 0.0009(18) 0.0172(17) 
C14 0.072(3) 0.094(3) 0.061(2) 0.012(2) 0.017(2) 0.023(2) 
C15 0.073(2) 0.0487(18) 0.058(2) 0.0137(15) 0.0178(18) 0.0190(17) 
C16 0.063(2) 0.074(2) 0.067(2) 0.0118(19) 0.0240(19) 0.0055(19) 
C17 0.102(3) 0.081(3) 0.050(2) 0.0073(19) -0.002(2) 0.036(2) 
C18 0.095(4) 0.093(4) 0.056(3) 0.009(3) -0.001(3) -0.025(3) 
C19 0.0437(19) 0.0416(18) 0.0360(19) 0.0107(14) 0.0117(16) 0.0072(15) 
C20 0.053(2) 0.063(2) 0.057(2) 0.0128(18) 0.0152(18) 0.0175(18) 
C21 0.074(3) 0.072(3) 0.057(2) 0.004(2) 0.010(2) 0.031(2) 
C22 0.088(3) 0.088(3) 0.059(3) 0.007(2) 0.021(2) 0.024(3) 
C19' 0.0437(19) 0.0416(18) 0.0360(19) 0.0107(14) 0.0117(16) 0.0072(15) 
C21' 0.074(3) 0.072(3) 0.057(2) 0.004(2) 0.010(2) 0.031(2) 
C22' 0.088(3) 0.088(3) 0.059(3) 0.007(2) 0.021(2) 0.024(3) 
 
_geom_special_details 
; 
 All esds (except the esd in the dihedral angle between two l.s. planes) 
 are estimated using the full covariance matrix.  The cell esds are taken 
 into account individually in the estimation of esds in distances, angles 
 and torsion angles; correlations between esds in cell parameters are only 
 used when they are defined by crystal symmetry.  An approximate (isotropic) 
 treatment of cell esds is used for estimating esds involving l.s. planes. 
; 
 
loop_ 
 _geom_bond_atom_site_label_1 
 _geom_bond_atom_site_label_2 
 _geom_bond_distance 
 _geom_bond_site_symmetry_2 
 _geom_bond_publ_flag 
Si1 C12 1.843(3) . ? 
Si1 C17 1.859(3) . ? 
Si1 C13 1.874(3) . ? 
Si1 C15 1.882(4) . ? 
C1 C10 1.407(4) 2_666 ? 
C1 C2 1.413(3) . ? 
C1 C11 1.441(4) . ? 
C2 C3' 1.40(5) . ? 
C2 C3 1.43(4) . ? 
C2 C10 1.448(3) . ? 
C3 C4 1.359(19) . ? 
C3 H3 0.9500 . ? 
C4 C8 1.423(9) . ? 
C4 S5 1.74(2) . ? 
S5 C6 1.68(2) . ? 
C6 C7 1.36(2) . ? 
C6 C19 1.526(10) . ? 
C7 C8 1.50(2) . ? 
C7 H7 0.9500 . ? 
C8 C9 1.405(19) . ? 
C9 C10 1.40(4) . ? 
C9 H9 0.9500 . ? 
C3' C4' 1.42(2) . ? 
C3' H3 0.9500 . ? 
C4' C8' 1.417(11) . ? 
C4' C5' 1.51(3) . ? 
C5' C6' 1.31(3) . ? 
C5' H5' 0.9500 . ? 
C6' C19' 1.40(4) . ? 
C6' S7' 1.70(3) . ? 
S7' C8' 1.73(3) . ? 
C8' C9' 1.34(2) . ? 
C9' C10 1.45(5) . ? 
C9' H9 0.9500 . ? 
C10 C1 1.407(4) 2_666 ? 
C11 C12 1.209(4) . ? 
C13 C14 1.507(5) . ? 
C13 H13A 0.9900 . ? 
C13 H13B 0.9900 . ? 
C14 H14A 0.9800 . ? 
C14 H14B 0.9800 . ? 
C14 H14C 0.9800 . ? 
C15 C16 1.527(4) . ? 
C15 H15A 0.9900 . ? 
C15 H15B 0.9900 . ? 
C16 H16A 0.9800 . ? 
C16 H16B 0.9800 . ? 
C16 H16C 0.9800 . ? 
C17 C18 1.490(6) . ? 
C17 C18' 1.512(6) . ? 
C17 H17A 0.9900 . ? 
C17 H17B 0.9900 . ? 
C18 H18A 0.9800 . ? 
C18 H18B 0.9800 . ? 
C18 H18C 0.9800 . ? 
C18' H18D 0.9800 . ? 
C18' H18E 0.9800 . ? 
C18' H18F 0.9800 . ? 
C19 C20 1.525(4) . ? 
C19 H19A 0.9900 . ? 
C19 H19B 0.9900 . ? 
C20 C21 1.585(5) . ? 
C20 H20A 0.9900 . ? 
C20 H20B 0.9900 . ? 
C21 C22 1.487(6) . ? 
C21 H21A 0.9900 . ? 
C21 H21B 0.9900 . ? 
C22 H22A 0.9800 . ? 
C22 H22B 0.9800 . ? 
C22 H22C 0.9800 . ? 
C19' C20' 1.510(18) . ? 
C19' H19C 0.9900 . ? 
C19' H19D 0.9900 . ? 
C20' C21' 1.569(19) . ? 
C20' H20C 0.9900 . ? 
C20' H20D 0.9900 . ? 
C21' C22' 1.50(2) . ? 
C21' H21C 0.9900 . ? 
C21' H21D 0.9900 . ? 
C22' C22' 1.94(7) 2_865 ? 
C22' H22D 0.9800 . ? 
C22' H22E 0.9800 . ? 
C22' H22F 0.9800 . ? 
 
loop_ 
 _geom_angle_atom_site_label_1 
 _geom_angle_atom_site_label_2 
 _geom_angle_atom_site_label_3 
 _geom_angle 
 _geom_angle_site_symmetry_1 
 _geom_angle_site_symmetry_3 
 _geom_angle_publ_flag 
C12 Si1 C17 111.25(14) . . ? 
C12 Si1 C13 109.19(14) . . ? 
C17 Si1 C13 110.14(17) . . ? 
C12 Si1 C15 106.70(14) . . ? 
C17 Si1 C15 109.18(17) . . ? 
C13 Si1 C15 110.33(15) . . ? 
C10 C1 C2 121.6(2) 2_666 . ? 
C10 C1 C11 119.5(2) 2_666 . ? 
C2 C1 C11 118.9(2) . . ? 
C3' C2 C1 122.3(14) . . ? 
C3' C2 C3 6(3) . . ? 
C1 C2 C3 120.4(10) . . ? 
C3' C2 C10 118.3(14) . . ? 
C1 C2 C10 119.3(2) . . ? 
C3 C2 C10 120.2(10) . . ? 
C4 C3 C2 119(3) . . ? 
C4 C3 H3 120.3 . . ? 
C2 C3 H3 120.3 . . ? 
C3 C4 C8 120(3) . . ? 
C3 C4 S5 123(2) . . ? 
C8 C4 S5 116.6(13) . . ? 
C6 S5 C4 90.1(8) . . ? 
C7 C6 C19 129.4(16) . . ? 
C7 C6 S5 114.6(7) . . ? 
C19 C6 S5 116.0(14) . . ? 
C6 C7 C8 114.7(12) . . ? 
C6 C7 H7 122.6 . . ? 
C8 C7 H7 122.6 . . ? 
C9 C8 C4 122(3) . . ? 
C9 C8 C7 134(2) . . ? 
C4 C8 C7 103.9(12) . . ? 
C10 C9 C8 119(3) . . ? 
C10 C9 H9 120.5 . . ? 
C8 C9 H9 120.5 . . ? 
C2 C3' C4' 120(4) . . ? 
C2 C3' H3 120.2 . . ? 
C4' C3' H3 120.2 . . ? 
C8' C4' C3' 121(4) . . ? 
C8' C4' C5' 100.2(14) . . ? 
C3' C4' C5' 138(3) . . ? 
C6' C5' C4' 120.8(16) . . ? 
C6' C5' H5' 119.6 . . ? 
C4' C5' H5' 119.6 . . ? 
C5' C6' C19' 151(3) . . ? 
C5' C6' S7' 110.6(10) . . ? 
C19' C6' S7' 97(2) . . ? 
C6' S7' C8' 91.0(10) . . ? 
C9' C8' C4' 119(4) . . ? 
C9' C8' S7' 123(3) . . ? 
C4' C8' S7' 117.4(16) . . ? 
C8' C9' C10 121(4) . . ? 
C8' C9' H9 119.3 . . ? 
C10 C9' H9 119.3 . . ? 
C9 C10 C1 121.7(12) . 2_666 ? 
C9 C10 C2 119.1(12) . . ? 
C1 C10 C2 119.1(2) 2_666 . ? 
C9 C10 C9' 3(4) . . ? 
C1 C10 C9' 121.9(15) 2_666 . ? 
C2 C10 C9' 119.0(15) . . ? 
C12 C11 C1 177.8(3) . . ? 
C11 C12 Si1 176.0(2) . . ? 
C14 C13 Si1 115.7(2) . . ? 
C14 C13 H13A 108.4 . . ? 
Si1 C13 H13A 108.4 . . ? 
C14 C13 H13B 108.4 . . ? 
Si1 C13 H13B 108.4 . . ? 
H13A C13 H13B 107.4 . . ? 
C13 C14 H14A 109.5 . . ? 
C13 C14 H14B 109.5 . . ? 
H14A C14 H14B 109.5 . . ? 
C13 C14 H14C 109.5 . . ? 
H14A C14 H14C 109.5 . . ? 
H14B C14 H14C 109.5 . . ? 
C16 C15 Si1 113.6(2) . . ? 
C16 C15 H15A 108.9 . . ? 
Si1 C15 H15A 108.9 . . ? 
C16 C15 H15B 108.9 . . ? 
Si1 C15 H15B 108.9 . . ? 
H15A C15 H15B 107.7 . . ? 
C15 C16 H16A 109.5 . . ? 
C15 C16 H16B 109.5 . . ? 
H16A C16 H16B 109.5 . . ? 
C15 C16 H16C 109.5 . . ? 
H16A C16 H16C 109.5 . . ? 
H16B C16 H16C 109.5 . . ? 
C18 C17 C18' 65.0(2) . . ? 
C18 C17 Si1 116.5(3) . . ? 
C18' C17 Si1 112.2(8) . . ? 
C18 C17 H17A 108.2 . . ? 
C18' C17 H17A 46.8 . . ? 
Si1 C17 H17A 108.2 . . ? 
C18 C17 H17B 108.2 . . ? 
C18' C17 H17B 137.4 . . ? 
Si1 C17 H17B 108.2 . . ? 
H17A C17 H17B 107.3 . . ? 
C17 C18 H18A 109.5 . . ? 
C17 C18 H18B 109.5 . . ? 
C17 C18 H18C 109.5 . . ? 
C17 C18' H18D 109.5 . . ? 
C17 C18' H18E 109.5 . . ? 
H18D C18' H18E 109.5 . . ? 
C17 C18' H18F 109.5 . . ? 
H18D C18' H18F 109.5 . . ? 
H18E C18' H18F 109.5 . . ? 
C20 C19 C6 114.9(10) . . ? 
C20 C19 H19A 108.6 . . ? 
C6 C19 H19A 108.6 . . ? 
C20 C19 H19B 108.6 . . ? 
C6 C19 H19B 108.6 . . ? 
H19A C19 H19B 107.5 . . ? 
C19 C20 C21 111.9(3) . . ? 
C19 C20 H20A 109.2 . . ? 
C21 C20 H20A 109.2 . . ? 
C19 C20 H20B 109.2 . . ? 
C21 C20 H20B 109.2 . . ? 
H20A C20 H20B 107.9 . . ? 
C22 C21 C20 111.3(4) . . ? 
C22 C21 H21A 109.4 . . ? 
C20 C21 H21A 109.4 . . ? 
C22 C21 H21B 109.4 . . ? 
C20 C21 H21B 109.4 . . ? 
H21A C21 H21B 108.0 . . ? 
C6' C19' C20' 114(3) . . ? 
C6' C19' H19C 108.8 . . ? 
C20' C19' H19C 108.8 . . ? 
C6' C19' H19D 108.8 . . ? 
C20' C19' H19D 108.8 . . ? 
H19C C19' H19D 107.7 . . ? 
C19' C20' C21' 115(2) . . ? 
C19' C20' H20C 108.6 . . ? 
C21' C20' H20C 108.6 . . ? 
C19' C20' H20D 108.6 . . ? 
C21' C20' H20D 108.6 . . ? 
H20C C20' H20D 107.6 . . ? 
C22' C21' C20' 109(2) . . ? 
C22' C21' H21C 109.9 . . ? 
C20' C21' H21C 109.9 . . ? 
C22' C21' H21D 109.9 . . ? 
C20' C21' H21D 109.9 . . ? 
H21C C21' H21D 108.3 . . ? 
C21' C22' C22' 129(4) . 2_865 ? 
C21' C22' H22D 109.5 . . ? 
C22' C22' H22D 52.7 2_865 . ? 
C21' C22' H22E 109.5 . . ? 
C22' C22' H22E 56.9 2_865 . ? 
H22D C22' H22E 109.5 . . ? 
C21' C22' H22F 109.5 . . ? 
C22' C22' H22F 121.9 2_865 . ? 
H22D C22' H22F 109.5 . . ? 
H22E C22' H22F 109.5 . . ? 
 
loop_ 
 _geom_torsion_atom_site_label_1 
 _geom_torsion_atom_site_label_2 
 _geom_torsion_atom_site_label_3 
 _geom_torsion_atom_site_label_4 
 _geom_torsion 
 _geom_torsion_site_symmetry_1 
 _geom_torsion_site_symmetry_2 
 _geom_torsion_site_symmetry_3 
 _geom_torsion_site_symmetry_4 
 _geom_torsion_publ_flag 
C10 C1 C2 C3' -175(2) 2_666 . . . ? 
C11 C1 C2 C3' 6(2) . . . . ? 
C10 C1 C2 C3 178.4(15) 2_666 . . . ? 
C11 C1 C2 C3 0.2(15) . . . . ? 
C10 C1 C2 C10 1.5(4) 2_666 . . . ? 
C11 C1 C2 C10 -176.6(2) . . . . ? 
C3' C2 C3 C4 67(25) . . . . ? 
C1 C2 C3 C4 179(3) . . . . ? 
C10 C2 C3 C4 -4(4) . . . . ? 
C2 C3 C4 C8 6(5) . . . . ? 
C2 C3 C4 S5 -179(2) . . . . ? 
C3 C4 S5 C6 -173(4) . . . . ? 
C8 C4 S5 C6 2(3) . . . . ? 
C4 S5 C6 C7 -3(3) . . . . ? 
C4 S5 C6 C19 179(3) . . . . ? 
C19 C6 C7 C8 -179(3) . . . . ? 
S5 C6 C7 C8 3(3) . . . . ? 
C3 C4 C8 C9 -4(5) . . . . ? 
S5 C4 C8 C9 -179(4) . . . . ? 
C3 C4 C8 C7 175(4) . . . . ? 
S5 C4 C8 C7 0(3) . . . . ? 
C6 C7 C8 C9 177(5) . . . . ? 
C6 C7 C8 C4 -2(3) . . . . ? 
C4 C8 C9 C10 0(6) . . . . ? 
C7 C8 C9 C10 -179(4) . . . . ? 
C1 C2 C3' C4' -174(3) . . . . ? 
C3 C2 C3' C4' -102(28) . . . . ? 
C10 C2 C3' C4' 9(5) . . . . ? 
C2 C3' C4' C8' -8(6) . . . . ? 
C2 C3' C4' C5' 175(5) . . . . ? 
C8' C4' C5' C6' 0(5) . . . . ? 
C3' C4' C5' C6' 177(6) . . . . ? 
C4' C5' C6' C19' -167(7) . . . . ? 
C4' C5' C6' S7' 1(5) . . . . ? 
C5' C6' S7' C8' -1(4) . . . . ? 
C19' C6' S7' C8' 173(3) . . . . ? 
C3' C4' C8' C9' 0(7) . . . . ? 
C5' C4' C8' C9' 178(5) . . . . ? 
C3' C4' C8' S7' -179(5) . . . . ? 
C5' C4' C8' S7' -1(4) . . . . ? 
C6' S7' C8' C9' -178(5) . . . . ? 
C6' S7' C8' C4' 1(4) . . . . ? 
C4' C8' C9' C10 6(8) . . . . ? 
S7' C8' C9' C10 -175(4) . . . . ? 
C8 C9 C10 C1 -180(3) . . . 2_666 ? 
C8 C9 C10 C2 3(5) . . . . ? 
C8 C9 C10 C9' -86(45) . . . . ? 
C3' C2 C10 C9 -7(3) . . . . ? 
C1 C2 C10 C9 176(2) . . . . ? 
C3 C2 C10 C9 -1(3) . . . . ? 
C3' C2 C10 C1 176(2) . . . 2_666 ? 
C1 C2 C10 C1 -1.5(4) . . . 2_666 ? 
C3 C2 C10 C1 -178.4(15) . . . 2_666 ? 
C3' C2 C10 C9' -3(3) . . . . ? 
C1 C2 C10 C9' -180(3) . . . . ? 
C3 C2 C10 C9' 3(3) . . . . ? 
C8' C9' C10 C9 88(44) . . . . ? 
C8' C9' C10 C1 177(4) . . . 2_666 ? 
C8' C9' C10 C2 -5(7) . . . . ? 
C10 C1 C11 C12 -105(8) 2_666 . . . ? 
C2 C1 C11 C12 73(8) . . . . ? 
C1 C11 C12 Si1 -178(100) . . . . ? 
C17 Si1 C12 C11 164(4) . . . . ? 
C13 Si1 C12 C11 -74(4) . . . . ? 
C15 Si1 C12 C11 45(4) . . . . ? 
C12 Si1 C13 C14 72.7(3) . . . . ? 
C17 Si1 C13 C14 -164.9(3) . . . . ? 
C15 Si1 C13 C14 -44.3(3) . . . . ? 
C12 Si1 C15 C16 69.5(3) . . . . ? 
C17 Si1 C15 C16 -50.9(3) . . . . ? 
C13 Si1 C15 C16 -172.0(2) . . . . ? 
C12 Si1 C17 C18 60.5(4) . . . . ? 
C13 Si1 C17 C18 -60.7(3) . . . . ? 
C15 Si1 C17 C18 178.0(3) . . . . ? 
C12 Si1 C17 C18' 132.7(4) . . . . ? 
C13 Si1 C17 C18' 11.5(4) . . . . ? 
C15 Si1 C17 C18' -109.8(4) . . . . ? 
C7 C6 C19 C20 1(4) . . . . ? 
S5 C6 C19 C20 179.5(14) . . . . ? 
C6 C19 C20 C21 -176.3(15) . . . . ? 
C19 C20 C21 C22 -64.0(4) . . . . ? 
C5' C6' C19' C20' -94(8) . . . . ? 
S7' C6' C19' C20' 98(3) . . . . ? 
C6' C19' C20' C21' 160(3) . . . . ? 
C19' C20' C21' C22' -76(4) . . . . ? 
C20' C21' C22' C22' 126(4) . . . 2_865 ? 
 
_diffrn_measured_fraction_theta_max     .999 
_diffrn_reflns_theta_full              27.50 
_diffrn_measured_fraction_theta_full    .999 
_refine_diff_density_max     .526 
_refine_diff_density_min    -.374 
_refine_diff_density_rms     .063 
