 
data_x06135 
 
_audit_creation_method            SHELXL-97 
_chemical_name_systematic 
; 
 ? 
; 
_chemical_name_common             ? 
_chemical_melting_point           ? 
_chemical_formula_moiety          ? 
_chemical_formula_sum 
 'C60 H74 Si2' 
_chemical_formula_weight          851.37 
 
loop_ 
 _atom_type_symbol 
 _atom_type_description 
 _atom_type_scat_dispersion_real 
 _atom_type_scat_dispersion_imag 
 _atom_type_scat_source 
 'C'  'C'    .0181    .0091 
 'International Tables Vol C Tables 4.2.6.8 and 6.1.1.4' 
 'H'  'H'    .0000    .0000 
 'International Tables Vol C Tables 4.2.6.8 and 6.1.1.4' 
 'Si'  'Si'    .2541    .3302 
 'International Tables Vol C Tables 4.2.6.8 and 6.1.1.4' 
 
_symmetry_cell_setting            monoclinic
_symmetry_space_group_name_H-M    'C 2/c'
 
loop_ 
 _symmetry_equiv_pos_as_xyz 
 'x, y, z' 
 '-x, y, -z+1/2' 
 'x+1/2, y+1/2, z' 
 '-x+1/2, y+1/2, -z+1/2' 
 '-x, -y, -z' 
 'x, -y, z-1/2' 
 '-x+1/2, -y+1/2, -z' 
 'x+1/2, -y+1/2, z-1/2' 
 
_cell_length_a                    34.850(2) 
_cell_length_b                    18.3704(11) 
_cell_length_c                    15.1624(9) 
_cell_angle_alpha                 90.00 
_cell_angle_beta                  98.201(3) 
_cell_angle_gamma                 90.00 
_cell_volume                      9607.9(10) 
_cell_formula_units_Z             8 
_cell_measurement_temperature     90.0(2) 
_cell_measurement_reflns_used     8287
_cell_measurement_theta_min       2.56
_cell_measurement_theta_max       66.09
 
_exptl_crystal_description        plate
_exptl_crystal_colour             ? 
_exptl_crystal_size_max           0.10 
_exptl_crystal_size_mid           0.10 
_exptl_crystal_size_min           0.003
_exptl_crystal_density_meas       ? 
_exptl_crystal_density_diffrn     1.177 
_exptl_crystal_density_method     'not measured' 
_exptl_crystal_F_000              3696 
_exptl_absorpt_coefficient_mu     0.948 
_exptl_absorpt_correction_type    multi-scan
_exptl_absorpt_correction_T_min   0.9112 
_exptl_absorpt_correction_T_max   0.9972 
_exptl_absorpt_process_details    'Sadabs in APEX2 (Bruker-Nonius, 2004)'
 
_exptl_special_details 
; 
 ? 
; 
 
_diffrn_ambient_temperature       90.0(2) 
_diffrn_radiation_wavelength      1.54178 
_diffrn_radiation_type            CuK\a 
_diffrn_radiation_source          'fine-focus rotating anode' 
_diffrn_radiation_monochromator   'Helios multilayer optics' 
_diffrn_measurement_device_type   'X8 Proteum diffractometer'
_diffrn_measurement_method        '\w scans at fixed \c = 55\%'
_diffrn_detector_area_resol_mean  18
_diffrn_standards_number          ? 
_diffrn_standards_interval_count  ? 
_diffrn_standards_interval_time   ? 
_diffrn_standards_decay_%         ? 
_diffrn_reflns_number             51238 
_diffrn_reflns_av_R_equivalents   0.0996 
_diffrn_reflns_av_sigmaI/netI     0.0597 
_diffrn_reflns_limit_h_min        -41 
_diffrn_reflns_limit_h_max        41 
_diffrn_reflns_limit_k_min        -14 
_diffrn_reflns_limit_k_max        20 
_diffrn_reflns_limit_l_min        -18 
_diffrn_reflns_limit_l_max        18 
_diffrn_reflns_theta_min          2.56 
_diffrn_reflns_theta_max          68.07 
_reflns_number_total              8177 
_reflns_number_gt                 5095 
_reflns_threshold_expression      >2\s(I)    
 
_computing_data_collection        'APEX2 (Bruker-Nonius, 2004)'
_computing_cell_refinement        'APEX2 (Bruker-Nonius, 2004)'
_computing_data_reduction         'APEX2 (Bruker-Nonius, 2004)'
_computing_structure_solution     'SHELXS-97 (Sheldrick, 1990)' 
_computing_structure_refinement   'SHELXL-97 (Sheldrick, 1997)' 
_computing_molecular_graphics     'XP in SHELXTL (Sheldrick, 1994)'
_computing_publication_material
; 
SHELX97-2 (Sheldrick, 1997) and local procedures 
; 
 
_refine_special_details 
; 
 Refinement of F^2^ against ALL reflections.  The weighted R-factor wR and 
 goodness of fit S are based on F^2^, conventional R-factors R are based 
 on F, with F set to zero for negative F^2^. The threshold expression of 
 F^2^ > 2sigma(F^2^) is used only for calculating R-factors(gt) etc. and is 
 not relevant to the choice of reflections for refinement.  R-factors based 
 on F^2^ are statistically about twice as large as those based on F, and R- 
 factors based on ALL data will be even larger. 
 
 Structure contains two half molecules, one sits on 2-fold and the
 other sits on inversion.

; 
 
_refine_ls_structure_factor_coef  Fsqd  
_refine_ls_matrix_type            full 
_refine_ls_weighting_scheme       calc  
_refine_ls_weighting_details 
 'calc w=1/[\s^2^(Fo^2^)+(0.0934P)^2^+30.9304P] where P=(Fo^2^+2Fc^2^)/3' 
_atom_sites_solution_primary      direct 
_atom_sites_solution_secondary    difmap 
_atom_sites_solution_hydrogens    geom 
_refine_ls_hydrogen_treatment     constr 
_refine_ls_extinction_method      SHELXL 
_refine_ls_extinction_coef        0.00013(2) 
_refine_ls_extinction_expression 
 'Fc^*^=kFc[1+0.001xFc^2^\l^3^/sin(2\q)]^-1/4^' 
_refine_ls_number_reflns          8177 
_refine_ls_number_parameters      588 
_refine_ls_number_restraints      111 
_refine_ls_R_factor_all           0.1329 
_refine_ls_R_factor_gt            0.0749 
_refine_ls_wR_factor_ref          0.2235 
_refine_ls_wR_factor_gt           0.1822 
_refine_ls_goodness_of_fit_ref    1.052 
_refine_ls_restrained_S_all       1.052 
_refine_ls_shift/su_max           0.007 
_refine_ls_shift/su_mean          0.005 
 
loop_ 
 _atom_site_label 
 _atom_site_type_symbol 
 _atom_site_fract_x 
 _atom_site_fract_y 
 _atom_site_fract_z 
 _atom_site_U_iso_or_equiv 
 _atom_site_adp_type 
 _atom_site_occupancy 
 _atom_site_symmetry_multiplicity 
 _atom_site_calc_flag 
 _atom_site_refinement_flags 
 _atom_site_disorder_assembly 
 _atom_site_disorder_group 
Si1A Si 0.15945(3) 0.01992(7) 0.42069(7) 0.0376(3) Uani 1 1 d . . . 
C1A C 0.03823(10) 0.0063(2) 0.4802(2) 0.0301(9) Uani 1 1 d . . . 
C2A C 0.02210(10) -0.0636(2) 0.4893(2) 0.0301(9) Uani 1 1 d . . . 
C3A C 0.04288(11) -0.1273(2) 0.4783(3) 0.0330(9) Uani 1 1 d . . . 
H3A H 0.0686 -0.1236 0.4645 0.040 Uiso 1 1 calc R . . 
C4A C 0.02708(11) -0.1955(2) 0.4870(2) 0.0319(9) Uani 1 1 d . . . 
C5A C 0.04769(11) -0.2611(2) 0.4761(3) 0.0347(10) Uani 1 1 d . . . 
H5A H 0.0734 -0.2580 0.4624 0.042 Uiso 1 1 calc R . . 
C6A C 0.03211(11) -0.3279(2) 0.4845(2) 0.0344(10) Uani 1 1 d . . . 
C7A C -0.00671(11) -0.3338(2) 0.5061(2) 0.0352(10) Uani 1 1 d . . . 
C8A C -0.02697(11) -0.2721(2) 0.5172(3) 0.0334(9) Uani 1 1 d . . . 
H8A H -0.0525 -0.2764 0.5317 0.040 Uiso 1 1 calc R . . 
C9A C -0.01154(10) -0.2020(2) 0.5079(2) 0.0312(9) Uani 1 1 d . . . 
C10A C -0.03230(11) -0.1390(2) 0.5182(2) 0.0319(9) Uani 1 1 d . . . 
H10A H -0.0580 -0.1432 0.5317 0.038 Uiso 1 1 calc R . . 
C11A C -0.01678(10) -0.0694(2) 0.5093(2) 0.0302(9) Uani 1 1 d . . . 
C12A C 0.07676(11) 0.0124(2) 0.4605(3) 0.0324(9) Uani 1 1 d . . . 
C13A C 0.10939(12) 0.0176(2) 0.4428(3) 0.0366(10) Uani 1 1 d . . . 
C14A C 0.16407(11) 0.0862(2) 0.3301(3) 0.0386(10) Uani 1 1 d . . . 
H14A H 0.1919 0.0862 0.3205 0.046 Uiso 1 1 calc R . . 
C15A C 0.13960(13) 0.0710(3) 0.2392(3) 0.0457(11) Uani 1 1 d . . . 
H15A H 0.1505 0.0298 0.2086 0.055 Uiso 1 1 calc R . . 
H15B H 0.1124 0.0596 0.2463 0.055 Uiso 1 1 calc R . . 
C16A C 0.14188(13) 0.1414(3) 0.1876(3) 0.0480(12) Uani 1 1 d . . . 
H16A H 0.1173 0.1502 0.1477 0.058 Uiso 1 1 calc R . . 
H16B H 0.1632 0.1390 0.1511 0.058 Uiso 1 1 calc R . . 
C17A C 0.14936(14) 0.2023(3) 0.2569(3) 0.0494(12) Uani 1 1 d . . . 
H17A H 0.1275 0.2372 0.2505 0.059 Uiso 1 1 calc R . . 
H17B H 0.1734 0.2289 0.2500 0.059 Uiso 1 1 calc R . . 
C18A C 0.15327(15) 0.1641(3) 0.3477(3) 0.0526(13) Uani 1 1 d . . . 
H18A H 0.1737 0.1876 0.3904 0.063 Uiso 1 1 calc R . . 
H18B H 0.1285 0.1661 0.3724 0.063 Uiso 1 1 calc R . . 
C19A C 0.19008(11) 0.0473(3) 0.5269(3) 0.0429(11) Uani 1 1 d . B . 
H19A H 0.1908 0.0051 0.5687 0.051 Uiso 1 1 calc R . . 
C20A C 0.17565(14) 0.1134(3) 0.5745(3) 0.0592(12) Uani 1 1 d DU . . 
H20A H 0.1647 0.0974 0.6280 0.071 Uiso 1 1 calc R A 1 
H20B H 0.1551 0.1389 0.5342 0.071 Uiso 1 1 calc R A 1 
C21A C 0.2110(4) 0.1659(11) 0.6021(15) 0.0633(15) Uani 0.289(12) 1 d PDU B 1 
H21A H 0.2053 0.2145 0.5751 0.076 Uiso 0.289(12) 1 calc PR B 1 
H21B H 0.2156 0.1716 0.6677 0.076 Uiso 0.289(12) 1 calc PR B 1 
C22A C 0.2431(5) 0.1369(11) 0.5729(15) 0.0620(15) Uani 0.289(12) 1 d PDU B 1 
H22A H 0.2628 0.1255 0.6247 0.074 Uiso 0.289(12) 1 calc PR B 1 
H22B H 0.2543 0.1729 0.5352 0.074 Uiso 0.289(12) 1 calc PR B 1 
C23A C 0.23228(13) 0.0671(3) 0.5189(3) 0.0569(11) Uani 1 1 d DU . . 
H23A H 0.2497 0.0268 0.5421 0.068 Uiso 1 1 calc R B 1 
H23B H 0.2351 0.0751 0.4555 0.068 Uiso 1 1 calc R B 1 
C21C C 0.21122(19) 0.1341(6) 0.6413(6) 0.0623(14) Uani 0.711(12) 1 d PDU B 2 
H21E H 0.2121 0.1874 0.6507 0.075 Uiso 0.711(12) 1 calc PR B 2 
H21F H 0.2102 0.1100 0.6993 0.075 Uiso 0.711(12) 1 calc PR B 2 
C22C C 0.2454(2) 0.1099(6) 0.6035(6) 0.0632(13) Uani 0.711(12) 1 d PDU B 2 
H22E H 0.2619 0.0789 0.6469 0.076 Uiso 0.711(12) 1 calc PR B 2 
H22F H 0.2609 0.1526 0.5898 0.076 Uiso 0.711(12) 1 calc PR B 2 
C24A C 0.17119(12) -0.0740(3) 0.3878(3) 0.0463(12) Uani 1 1 d . . . 
H24A H 0.1971 -0.0740 0.3665 0.056 Uiso 1 1 calc R . . 
C25A C 0.17137(16) -0.1298(3) 0.4619(4) 0.0627(15) Uani 1 1 d . . . 
H25A H 0.1961 -0.1275 0.5030 0.075 Uiso 1 1 calc R . . 
H25B H 0.1498 -0.1203 0.4964 0.075 Uiso 1 1 calc R . . 
C26A C 0.1667(2) -0.2023(4) 0.4185(5) 0.097(2) Uani 1 1 d . . . 
H26A H 0.1923 -0.2248 0.4162 0.117 Uiso 1 1 calc R . . 
H26B H 0.1514 -0.2349 0.4522 0.117 Uiso 1 1 calc R . . 
C27A C 0.1463(2) -0.1902(3) 0.3283(5) 0.089(2) Uani 1 1 d . . . 
H27A H 0.1209 -0.2152 0.3207 0.107 Uiso 1 1 calc R . . 
H27B H 0.1618 -0.2099 0.2837 0.107 Uiso 1 1 calc R . . 
C28A C 0.14074(16) -0.1086(3) 0.3155(4) 0.0646(15) Uani 1 1 d . . . 
H28A H 0.1142 -0.0941 0.3241 0.077 Uiso 1 1 calc R . . 
H28B H 0.1453 -0.0937 0.2552 0.077 Uiso 1 1 calc R . . 
C29A C 0.05438(13) -0.3949(3) 0.4725(3) 0.0432(11) Uani 1 1 d . . . 
H29A H 0.0798 -0.3818 0.4567 0.065 Uiso 1 1 calc R . . 
H29B H 0.0402 -0.4244 0.4246 0.065 Uiso 1 1 calc R . . 
H29C H 0.0579 -0.4229 0.5280 0.065 Uiso 1 1 calc R . . 
C30A C -0.02444(12) -0.4065(2) 0.5159(3) 0.0374(10) Uani 1 1 d . . . 
H30A H -0.0506 -0.4003 0.5315 0.056 Uiso 1 1 calc R . . 
H30B H -0.0085 -0.4339 0.5631 0.056 Uiso 1 1 calc R . . 
H30C H -0.0259 -0.4332 0.4596 0.056 Uiso 1 1 calc R . . 
Si1B Si 0.15938(3) 0.44445(7) 0.66675(7) 0.0354(3) Uani 1 1 d . . . 
C1B C 0.03813(10) 0.4396(2) 0.7282(2) 0.0292(9) Uani 1 1 d . . . 
C2B C 0.01951(10) 0.5061(2) 0.7394(2) 0.0297(9) Uani 1 1 d . . . 
C3B C 0.03749(11) 0.5729(2) 0.7290(2) 0.0304(9) Uani 1 1 d . . . 
H3B H 0.0631 0.5732 0.7145 0.036 Uiso 1 1 calc R . . 
C4B C 0.01931(11) 0.6386(2) 0.7392(2) 0.0306(9) Uani 1 1 d . . . 
C5B C 0.03745(11) 0.7066(2) 0.7298(3) 0.0332(9) Uani 1 1 d . . . 
H5B H 0.0632 0.7072 0.7159 0.040 Uiso 1 1 calc R . . 
C6B C 0.01954(11) 0.7707(2) 0.7399(3) 0.0351(10) Uani 1 1 d . . . 
C7B C 0.01884(11) 0.1085(2) 0.7353(3) 0.0352(10) Uani 1 1 d . . . 
C8B C 0.03626(11) 0.1727(2) 0.7226(3) 0.0337(9) Uani 1 1 d . . . 
H8B H 0.0611 0.1721 0.7035 0.040 Uiso 1 1 calc R . . 
C9B C 0.01899(10) 0.2408(2) 0.7366(2) 0.0319(9) Uani 1 1 d . . . 
C10B C 0.03696(11) 0.3059(2) 0.7255(2) 0.0324(9) Uani 1 1 d . . . 
H10B H 0.0622 0.3056 0.7086 0.039 Uiso 1 1 calc R . . 
C11B C 0.01930(10) 0.3729(2) 0.7382(2) 0.0289(9) Uani 1 1 d . . . 
C12B C 0.07669(11) 0.4400(2) 0.7076(2) 0.0317(9) Uani 1 1 d . . . 
C13B C 0.10933(11) 0.4419(2) 0.6908(3) 0.0345(9) Uani 1 1 d . . . 
C14B C 0.18677(11) 0.3757(3) 0.7401(3) 0.0393(10) Uani 1 1 d . D . 
H14B H 0.1736 0.3279 0.7264 0.047 Uiso 1 1 calc R . . 
C15B C 0.18772(13) 0.3894(3) 0.8411(3) 0.0532(13) Uani 1 1 d . D . 
H15C H 0.1840 0.4417 0.8529 0.064 Uiso 1 1 calc R . . 
H15D H 0.1671 0.3613 0.8642 0.064 Uiso 1 1 calc R . . 
C16B C 0.22743(15) 0.3644(4) 0.8849(4) 0.0709(17) Uani 1 1 d . . . 
H16C H 0.2432 0.4066 0.9089 0.085 Uiso 1 1 calc R C 1 
H16D H 0.2249 0.3304 0.9344 0.085 Uiso 1 1 calc R C 1 
C17B C 0.24599(18) 0.3270(5) 0.8141(4) 0.0629(19) Uani 0.811(9) 1 d PU D 1 
H17C H 0.2393 0.2746 0.8111 0.075 Uiso 0.811(9) 1 calc PR D 1 
H17D H 0.2745 0.3322 0.8255 0.075 Uiso 0.811(9) 1 calc PR D 1 
C17D C 0.2535(8) 0.391(2) 0.8203(18) 0.063(3) Uiso 0.189(9) 1 d PU D 2 
H17E H 0.2794 0.3682 0.8311 0.076 Uiso 0.189(9) 1 calc PR D 2 
H17F H 0.2564 0.4449 0.8226 0.076 Uiso 0.189(9) 1 calc PR D 2 
C18B C 0.22950(12) 0.3653(3) 0.7290(3) 0.0542(13) Uani 1 1 d . . . 
H18C H 0.2321 0.3349 0.6762 0.065 Uiso 1 1 calc R D 1 
H18D H 0.2425 0.4126 0.7233 0.065 Uiso 1 1 calc R D 1 
C19B C 0.15831(11) 0.4186(2) 0.5476(3) 0.0370(10) Uani 1 1 d . . . 
H19B H 0.1855 0.4193 0.5339 0.044 Uiso 1 1 calc R . . 
C20B C 0.14096(13) 0.3438(3) 0.5217(3) 0.0436(11) Uani 1 1 d . . . 
H20C H 0.1595 0.3044 0.5426 0.052 Uiso 1 1 calc R . . 
H20D H 0.1166 0.3360 0.5471 0.052 Uiso 1 1 calc R . . 
C21B C 0.13318(14) 0.3461(3) 0.4201(3) 0.0481(12) Uani 1 1 d . . . 
H21C H 0.1559 0.3277 0.3945 0.058 Uiso 1 1 calc R . . 
H21D H 0.1104 0.3157 0.3977 0.058 Uiso 1 1 calc R . . 
C22B C 0.12550(16) 0.4254(3) 0.3950(3) 0.0580(14) Uani 1 1 d . . . 
H22C H 0.0982 0.4321 0.3676 0.070 Uiso 1 1 calc R . . 
H22D H 0.1426 0.4414 0.3519 0.070 Uiso 1 1 calc R . . 
C23B C 0.13388(12) 0.4690(3) 0.4813(3) 0.0431(11) Uani 1 1 d . . . 
H23C H 0.1095 0.4825 0.5034 0.052 Uiso 1 1 calc R . . 
H23D H 0.1484 0.5140 0.4718 0.052 Uiso 1 1 calc R . . 
C24B C 0.17834(11) 0.5381(3) 0.6889(3) 0.0406(11) Uani 1 1 d . . . 
H24B H 0.1847 0.5433 0.7550 0.049 Uiso 1 1 calc R . . 
C25B C 0.21540(13) 0.5575(3) 0.6489(3) 0.0498(12) Uani 1 1 d . . . 
H25C H 0.2389 0.5418 0.6889 0.060 Uiso 1 1 calc R . . 
H25D H 0.2152 0.5342 0.5899 0.060 Uiso 1 1 calc R . . 
C26B C 0.21397(14) 0.6395(3) 0.6403(3) 0.0521(13) Uani 1 1 d . . . 
H26C H 0.2313 0.6571 0.5986 0.063 Uiso 1 1 calc R . . 
H26D H 0.2212 0.6634 0.6989 0.063 Uiso 1 1 calc R . . 
C27B C 0.17163(15) 0.6530(3) 0.6038(3) 0.0551(13) Uani 1 1 d . . . 
H27C H 0.1665 0.6426 0.5391 0.066 Uiso 1 1 calc R . . 
H27D H 0.1642 0.7040 0.6141 0.066 Uiso 1 1 calc R . . 
C28B C 0.14949(13) 0.5999(3) 0.6561(3) 0.0422(11) Uani 1 1 d . . . 
H28C H 0.1266 0.5800 0.6173 0.051 Uiso 1 1 calc R . . 
H28D H 0.1405 0.6249 0.7073 0.051 Uiso 1 1 calc R . . 
C29B C 0.03950(13) 0.8411(2) 0.7298(3) 0.0409(10) Uani 1 1 d . . . 
H29D H 0.0656 0.8318 0.7153 0.061 Uiso 1 1 calc R . . 
H29E H 0.0414 0.8685 0.7857 0.061 Uiso 1 1 calc R . . 
H29F H 0.0247 0.8694 0.6818 0.061 Uiso 1 1 calc R . . 
C30B C 0.03798(12) 0.0377(2) 0.7201(3) 0.0410(11) Uani 1 1 d . . . 
H30D H 0.0616 0.0469 0.6935 0.062 Uiso 1 1 calc R . . 
H30E H 0.0202 0.0074 0.6797 0.062 Uiso 1 1 calc R . . 
H30F H 0.0448 0.0124 0.7771 0.062 Uiso 1 1 calc R . . 
 
loop_ 
 _atom_site_aniso_label 
 _atom_site_aniso_U_11 
 _atom_site_aniso_U_22 
 _atom_site_aniso_U_33 
 _atom_site_aniso_U_23 
 _atom_site_aniso_U_13 
 _atom_site_aniso_U_12 
Si1A 0.0279(5) 0.0432(8) 0.0430(6) 0.0024(6) 0.0094(4) 0.0008(5) 
C1A 0.0279(18) 0.030(3) 0.0322(19) 0.0005(16) 0.0042(15) -0.0026(17) 
C2A 0.0296(19) 0.029(3) 0.0329(19) 0.0017(17) 0.0064(15) 0.0024(17) 
C3A 0.0286(19) 0.032(3) 0.039(2) 0.0028(18) 0.0089(16) 0.0006(18) 
C4A 0.034(2) 0.027(3) 0.035(2) 0.0027(17) 0.0051(16) 0.0043(18) 
C5A 0.031(2) 0.033(3) 0.041(2) 0.0019(18) 0.0103(16) 0.0031(18) 
C6A 0.036(2) 0.034(3) 0.034(2) 0.0015(18) 0.0060(16) 0.0042(19) 
C7A 0.037(2) 0.035(3) 0.033(2) -0.0006(18) 0.0042(16) -0.0006(19) 
C8A 0.033(2) 0.027(3) 0.040(2) 0.0012(18) 0.0057(16) -0.0041(18) 
C9A 0.0297(19) 0.028(3) 0.036(2) 0.0000(17) 0.0067(15) 0.0010(17) 
C10A 0.0288(19) 0.033(3) 0.035(2) -0.0003(17) 0.0057(15) 0.0003(18) 
C11A 0.0282(19) 0.031(3) 0.0325(19) 0.0014(17) 0.0072(15) 0.0017(17) 
C12A 0.032(2) 0.028(3) 0.038(2) 0.0022(17) 0.0092(16) 0.0019(17) 
C13A 0.039(2) 0.031(3) 0.040(2) 0.0016(19) 0.0065(17) 0.0025(19) 
C14A 0.029(2) 0.041(3) 0.047(2) 0.003(2) 0.0105(17) 0.0000(18) 
C15A 0.048(2) 0.043(3) 0.048(2) 0.002(2) 0.0111(19) 0.003(2) 
C16A 0.046(2) 0.051(3) 0.048(3) 0.008(2) 0.013(2) -0.001(2) 
C17A 0.054(3) 0.033(3) 0.062(3) 0.011(2) 0.013(2) 0.000(2) 
C18A 0.060(3) 0.049(4) 0.050(3) 0.001(2) 0.011(2) -0.004(2) 
C19A 0.031(2) 0.050(3) 0.047(2) 0.004(2) 0.0065(17) 0.005(2) 
C20A 0.050(2) 0.077(3) 0.050(2) -0.014(2) 0.0032(18) 0.005(2) 
C21A 0.054(2) 0.078(3) 0.055(3) -0.010(2) 0.000(2) 0.000(2) 
C22A 0.051(2) 0.078(3) 0.054(3) -0.008(2) 0.001(2) -0.004(2) 
C23A 0.041(2) 0.077(3) 0.052(2) -0.007(2) 0.0043(17) -0.003(2) 
C21C 0.054(2) 0.077(3) 0.053(2) -0.011(2) -0.0011(19) 0.000(2) 
C22C 0.051(2) 0.081(3) 0.055(2) -0.009(2) 0.000(2) -0.005(2) 
C24A 0.035(2) 0.045(3) 0.061(3) 0.008(2) 0.014(2) 0.005(2) 
C25A 0.060(3) 0.052(4) 0.074(3) 0.014(3) 0.002(3) 0.006(3) 
C26A 0.111(6) 0.056(5) 0.121(6) 0.013(4) 0.004(5) -0.005(4) 
C27A 0.095(5) 0.041(4) 0.121(6) -0.010(4) -0.019(4) 0.010(3) 
C28A 0.072(3) 0.052(4) 0.069(3) -0.008(3) 0.009(3) 0.009(3) 
C29A 0.046(2) 0.035(3) 0.050(2) 0.000(2) 0.0096(19) 0.008(2) 
C30A 0.040(2) 0.033(3) 0.039(2) -0.0008(19) 0.0041(17) -0.0051(19) 
Si1B 0.0271(5) 0.0380(8) 0.0425(6) -0.0010(5) 0.0097(4) -0.0005(5) 
C1B 0.0278(18) 0.026(2) 0.0337(19) -0.0006(17) 0.0058(14) 0.0016(17) 
C2B 0.0312(19) 0.029(3) 0.0293(19) -0.0019(16) 0.0062(15) -0.0003(17) 
C3B 0.0273(18) 0.026(3) 0.038(2) 0.0014(17) 0.0070(15) -0.0032(16) 
C4B 0.034(2) 0.021(2) 0.036(2) -0.0010(17) 0.0062(16) 0.0001(17) 
C5B 0.033(2) 0.027(3) 0.039(2) 0.0011(18) 0.0051(16) -0.0028(18) 
C6B 0.036(2) 0.034(3) 0.035(2) -0.0008(18) 0.0033(16) -0.0020(19) 
C7B 0.039(2) 0.030(3) 0.035(2) -0.0017(18) 0.0010(17) 0.0013(19) 
C8B 0.034(2) 0.030(3) 0.038(2) -0.0003(18) 0.0057(16) 0.0020(18) 
C9B 0.032(2) 0.032(3) 0.033(2) -0.0024(17) 0.0060(15) 0.0019(18) 
C10B 0.0312(19) 0.031(3) 0.037(2) -0.0021(18) 0.0085(16) -0.0009(18) 
C11B 0.0280(19) 0.026(2) 0.0330(19) -0.0007(16) 0.0065(15) 0.0002(17) 
C12B 0.032(2) 0.027(3) 0.037(2) -0.0013(17) 0.0076(16) -0.0004(17) 
C13B 0.035(2) 0.029(3) 0.040(2) 0.0011(18) 0.0072(16) 0.0009(18) 
C14B 0.034(2) 0.038(3) 0.047(2) 0.002(2) 0.0108(17) 0.0021(19) 
C15B 0.051(3) 0.061(4) 0.049(3) 0.005(2) 0.011(2) 0.012(2) 
C16B 0.058(3) 0.087(5) 0.063(3) -0.001(3) -0.010(3) 0.004(3) 
C17B 0.050(3) 0.068(4) 0.071(3) 0.006(3) 0.006(2) 0.009(3) 
C18B 0.036(2) 0.060(4) 0.068(3) 0.001(3) 0.013(2) 0.006(2) 
C19B 0.031(2) 0.034(3) 0.049(2) -0.0027(19) 0.0132(17) -0.0016(18) 
C20B 0.041(2) 0.035(3) 0.055(3) -0.005(2) 0.0085(19) -0.005(2) 
C21B 0.050(3) 0.048(3) 0.048(3) -0.010(2) 0.014(2) -0.007(2) 
C22B 0.067(3) 0.066(4) 0.043(3) -0.004(2) 0.012(2) -0.010(3) 
C23B 0.045(2) 0.041(3) 0.045(2) -0.002(2) 0.0121(19) -0.002(2) 
C24B 0.035(2) 0.046(3) 0.043(2) -0.002(2) 0.0113(17) 0.001(2) 
C25B 0.043(2) 0.048(3) 0.063(3) -0.009(2) 0.020(2) -0.009(2) 
C26B 0.062(3) 0.038(3) 0.060(3) -0.006(2) 0.022(2) -0.020(2) 
C27B 0.074(3) 0.040(3) 0.053(3) -0.002(2) 0.018(2) -0.011(3) 
C28B 0.047(2) 0.034(3) 0.048(2) -0.001(2) 0.0140(19) -0.004(2) 
C29B 0.046(2) 0.028(3) 0.049(2) -0.001(2) 0.0064(19) -0.006(2) 
C30B 0.046(2) 0.033(3) 0.043(2) -0.0005(19) 0.0016(18) 0.004(2) 
 
_geom_special_details 
; 
 All esds (except the esd in the dihedral angle between two l.s. planes) 
 are estimated using the full covariance matrix.  The cell esds are taken 
 into account individually in the estimation of esds in distances, angles 
 and torsion angles; correlations between esds in cell parameters are only 
 used when they are defined by crystal symmetry.  An approximate (isotropic) 
 treatment of cell esds is used for estimating esds involving l.s. planes. 
; 
 
loop_ 
 _geom_bond_atom_site_label_1 
 _geom_bond_atom_site_label_2 
 _geom_bond_distance 
 _geom_bond_site_symmetry_2 
 _geom_bond_publ_flag 
Si1A C13A 1.823(4) . ? 
Si1A C24A 1.858(5) . ? 
Si1A C14A 1.859(4) . ? 
Si1A C19A 1.870(4) . ? 
C1A C11A 1.401(6) 5_556 ? 
C1A C2A 1.416(6) . ? 
C1A C12A 1.421(5) . ? 
C2A C3A 1.398(6) . ? 
C2A C11A 1.434(5) . ? 
C3A C4A 1.382(6) . ? 
C3A H3A 0.9500 . ? 
C4A C5A 1.426(6) . ? 
C4A C9A 1.431(5) . ? 
C5A C6A 1.354(6) . ? 
C5A H5A 0.9500 . ? 
C6A C7A 1.440(5) . ? 
C6A C29A 1.481(6) . ? 
C7A C8A 1.358(6) . ? 
C7A C30A 1.488(6) . ? 
C8A C9A 1.410(6) . ? 
C8A H8A 0.9500 . ? 
C9A C10A 1.385(6) . ? 
C10A C11A 1.403(6) . ? 
C10A H10A 0.9500 . ? 
C11A C1A 1.401(6) 5_556 ? 
C12A C13A 1.209(5) . ? 
C14A C18A 1.514(7) . ? 
C14A C15A 1.539(6) . ? 
C14A H14A 1.0000 . ? 
C15A C16A 1.520(6) . ? 
C15A H15A 0.9900 . ? 
C15A H15B 0.9900 . ? 
C16A C17A 1.531(7) . ? 
C16A H16A 0.9900 . ? 
C16A H16B 0.9900 . ? 
C17A C18A 1.532(6) . ? 
C17A H17A 0.9900 . ? 
C17A H17B 0.9900 . ? 
C18A H18A 0.9900 . ? 
C18A H18B 0.9900 . ? 
C19A C20A 1.532(7) . ? 
C19A C23A 1.536(6) . ? 
C19A H19A 1.0000 . ? 
C20A C21C 1.533(8) . ? 
C20A C21A 1.573(15) . ? 
C20A H20A 0.9900 . ? 
C20A H20B 0.9900 . ? 
C21A C22A 1.368(16) . ? 
C21A H21A 0.9900 . ? 
C21A H21B 0.9900 . ? 
C22A C23A 1.540(15) . ? 
C22A H22A 0.9900 . ? 
C22A H22B 0.9900 . ? 
C23A C22C 1.519(8) . ? 
C23A H23A 0.9900 . ? 
C23A H23B 0.9900 . ? 
C21C C22C 1.463(9) . ? 
C21C H21E 0.9900 . ? 
C21C H21F 0.9900 . ? 
C22C H22E 0.9900 . ? 
C22C H22F 0.9900 . ? 
C24A C25A 1.519(7) . ? 
C24A C28A 1.549(7) . ? 
C24A H24A 1.0000 . ? 
C25A C26A 1.484(9) . ? 
C25A H25A 0.9900 . ? 
C25A H25B 0.9900 . ? 
C26A C27A 1.465(9) . ? 
C26A H26A 0.9900 . ? 
C26A H26B 0.9900 . ? 
C27A C28A 1.520(8) . ? 
C27A H27A 0.9900 . ? 
C27A H27B 0.9900 . ? 
C28A H28A 0.9900 . ? 
C28A H28B 0.9900 . ? 
C29A H29A 0.9800 . ? 
C29A H29B 0.9800 . ? 
C29A H29C 0.9800 . ? 
C30A H30A 0.9800 . ? 
C30A H30B 0.9800 . ? 
C30A H30C 0.9800 . ? 
Si1B C13B 1.833(4) . ? 
Si1B C14B 1.854(4) . ? 
Si1B C24B 1.856(5) . ? 
Si1B C19B 1.863(4) . ? 
C1B C2B 1.404(6) . ? 
C1B C11B 1.409(6) . ? 
C1B C12B 1.423(5) . ? 
C2B C3B 1.397(5) . ? 
C2B C2B 1.441(7) 2_556 ? 
C3B C4B 1.381(6) . ? 
C3B H3B 0.9500 . ? 
C4B C5B 1.416(6) . ? 
C4B C4B 1.430(7) 2_556 ? 
C5B C6B 1.351(6) . ? 
C5B H5B 0.9500 . ? 
C6B C6B 1.438(8) 2_556 ? 
C6B C29B 1.487(6) . ? 
C7B C8B 1.353(6) . ? 
C7B C7B 1.446(8) 2_556 ? 
C7B C30B 1.494(6) . ? 
C8B C9B 1.417(6) . ? 
C8B H8B 0.9500 . ? 
C9B C10B 1.372(6) . ? 
C9B C9B 1.438(7) 2_556 ? 
C10B C11B 1.401(6) . ? 
C10B H10B 0.9500 . ? 
C11B C11B 1.441(7) 2_556 ? 
C12B C13B 1.201(5) . ? 
C14B C18B 1.534(6) . ? 
C14B C15B 1.548(6) . ? 
C14B H14B 1.0000 . ? 
C15B C16B 1.518(7) . ? 
C15B H15C 0.9900 . ? 
C15B H15D 0.9900 . ? 
C16B C17B 1.496(9) . ? 
C16B C17D 1.51(3) . ? 
C16B H16C 0.9900 . ? 
C16B H16D 0.9900 . ? 
C17B C18B 1.508(8) . ? 
C17B H17C 0.9900 . ? 
C17B H17D 0.9900 . ? 
C17D C18B 1.59(3) . ? 
C17D H17E 0.9900 . ? 
C17D H17F 0.9900 . ? 
C18B H18C 0.9900 . ? 
C18B H18D 0.9900 . ? 
C19B C20B 1.530(6) . ? 
C19B C23B 1.533(6) . ? 
C19B H19B 1.0000 . ? 
C20B C21B 1.525(6) . ? 
C20B H20C 0.9900 . ? 
C20B H20D 0.9900 . ? 
C21B C22B 1.520(7) . ? 
C21B H21C 0.9900 . ? 
C21B H21D 0.9900 . ? 
C22B C23B 1.527(6) . ? 
C22B H22C 0.9900 . ? 
C22B H22D 0.9900 . ? 
C23B H23C 0.9900 . ? 
C23B H23D 0.9900 . ? 
C24B C25B 1.545(6) . ? 
C24B C28B 1.551(6) . ? 
C24B H24B 1.0000 . ? 
C25B C26B 1.513(7) . ? 
C25B H25C 0.9900 . ? 
C25B H25D 0.9900 . ? 
C26B C27B 1.521(7) . ? 
C26B H26C 0.9900 . ? 
C26B H26D 0.9900 . ? 
C27B C28B 1.533(6) . ? 
C27B H27C 0.9900 . ? 
C27B H27D 0.9900 . ? 
C28B H28C 0.9900 . ? 
C28B H28D 0.9900 . ? 
C29B H29D 0.9800 . ? 
C29B H29E 0.9800 . ? 
C29B H29F 0.9800 . ? 
C30B H30D 0.9800 . ? 
C30B H30E 0.9800 . ? 
C30B H30F 0.9800 . ? 
 
loop_ 
 _geom_angle_atom_site_label_1 
 _geom_angle_atom_site_label_2 
 _geom_angle_atom_site_label_3 
 _geom_angle 
 _geom_angle_site_symmetry_1 
 _geom_angle_site_symmetry_3 
 _geom_angle_publ_flag 
C13A Si1A C24A 106.3(2) . . ? 
C13A Si1A C14A 109.71(19) . . ? 
C24A Si1A C14A 111.4(2) . . ? 
C13A Si1A C19A 106.95(18) . . ? 
C24A Si1A C19A 111.1(2) . . ? 
C14A Si1A C19A 111.2(2) . . ? 
C11A C1A C2A 120.9(3) 5_556 . ? 
C11A C1A C12A 119.6(4) 5_556 . ? 
C2A C1A C12A 119.5(4) . . ? 
C3A C2A C1A 121.8(3) . . ? 
C3A C2A C11A 119.0(4) . . ? 
C1A C2A C11A 119.2(4) . . ? 
C4A C3A C2A 121.8(4) . . ? 
C4A C3A H3A 119.1 . . ? 
C2A C3A H3A 119.1 . . ? 
C3A C4A C5A 122.8(4) . . ? 
C3A C4A C9A 119.9(4) . . ? 
C5A C4A C9A 117.3(4) . . ? 
C6A C5A C4A 122.7(4) . . ? 
C6A C5A H5A 118.7 . . ? 
C4A C5A H5A 118.7 . . ? 
C5A C6A C7A 119.5(4) . . ? 
C5A C6A C29A 121.1(4) . . ? 
C7A C6A C29A 119.4(4) . . ? 
C8A C7A C6A 119.1(4) . . ? 
C8A C7A C30A 120.4(4) . . ? 
C6A C7A C30A 120.5(4) . . ? 
C7A C8A C9A 122.5(4) . . ? 
C7A C8A H8A 118.8 . . ? 
C9A C8A H8A 118.8 . . ? 
C10A C9A C8A 122.6(4) . . ? 
C10A C9A C4A 118.5(4) . . ? 
C8A C9A C4A 118.9(4) . . ? 
C9A C10A C11A 122.4(4) . . ? 
C9A C10A H10A 118.8 . . ? 
C11A C10A H10A 118.8 . . ? 
C1A C11A C10A 121.6(3) 5_556 . ? 
C1A C11A C2A 119.9(4) 5_556 . ? 
C10A C11A C2A 118.5(4) . . ? 
C13A C12A C1A 179.3(4) . . ? 
C12A C13A Si1A 176.1(4) . . ? 
C18A C14A C15A 102.0(4) . . ? 
C18A C14A Si1A 116.1(3) . . ? 
C15A C14A Si1A 116.6(3) . . ? 
C18A C14A H14A 107.2 . . ? 
C15A C14A H14A 107.2 . . ? 
Si1A C14A H14A 107.2 . . ? 
C16A C15A C14A 104.1(4) . . ? 
C16A C15A H15A 110.9 . . ? 
C14A C15A H15A 110.9 . . ? 
C16A C15A H15B 110.9 . . ? 
C14A C15A H15B 110.9 . . ? 
H15A C15A H15B 108.9 . . ? 
C15A C16A C17A 106.5(4) . . ? 
C15A C16A H16A 110.4 . . ? 
C17A C16A H16A 110.4 . . ? 
C15A C16A H16B 110.4 . . ? 
C17A C16A H16B 110.4 . . ? 
H16A C16A H16B 108.6 . . ? 
C16A C17A C18A 105.5(4) . . ? 
C16A C17A H17A 110.6 . . ? 
C18A C17A H17A 110.6 . . ? 
C16A C17A H17B 110.6 . . ? 
C18A C17A H17B 110.6 . . ? 
H17A C17A H17B 108.8 . . ? 
C14A C18A C17A 105.5(4) . . ? 
C14A C18A H18A 110.6 . . ? 
C17A C18A H18A 110.6 . . ? 
C14A C18A H18B 110.6 . . ? 
C17A C18A H18B 110.6 . . ? 
H18A C18A H18B 108.8 . . ? 
C20A C19A C23A 103.4(4) . . ? 
C20A C19A Si1A 115.7(3) . . ? 
C23A C19A Si1A 115.5(3) . . ? 
C20A C19A H19A 107.2 . . ? 
C23A C19A H19A 107.2 . . ? 
Si1A C19A H19A 107.2 . . ? 
C19A C20A C21C 102.6(5) . . ? 
C19A C20A C21A 108.3(7) . . ? 
C21C C20A C21A 31.1(8) . . ? 
C19A C20A H20A 110.0 . . ? 
C21C C20A H20A 84.6 . . ? 
C21A C20A H20A 110.2 . . ? 
C19A C20A H20B 110.0 . . ? 
C21C C20A H20B 137.2 . . ? 
C21A C20A H20B 109.9 . . ? 
H20A C20A H20B 108.4 . . ? 
C22A C21A C20A 108.6(12) . . ? 
C22A C21A H21A 110.1 . . ? 
C20A C21A H21A 110.1 . . ? 
C22A C21A H21B 109.9 . . ? 
C20A C21A H21B 109.8 . . ? 
H21A C21A H21B 108.3 . . ? 
C21A C22A C23A 110.3(12) . . ? 
C21A C22A H22A 109.7 . . ? 
C23A C22A H22A 109.5 . . ? 
C21A C22A H22B 109.5 . . ? 
C23A C22A H22B 109.7 . . ? 
H22A C22A H22B 108.1 . . ? 
C22C C23A C22A 25.5(8) . . ? 
C22C C23A C19A 103.4(4) . . ? 
C22A C23A C19A 108.6(7) . . ? 
C22C C23A H23A 89.5 . . ? 
C22A C23A H23A 110.0 . . ? 
C19A C23A H23A 110.0 . . ? 
C22C C23A H23B 133.0 . . ? 
C22A C23A H23B 109.9 . . ? 
C19A C23A H23B 110.0 . . ? 
H23A C23A H23B 108.4 . . ? 
C22C C21C C20A 107.0(5) . . ? 
C22C C21C H21E 110.3 . . ? 
C20A C21C H21E 110.3 . . ? 
C22C C21C H21F 110.3 . . ? 
C20A C21C H21F 110.3 . . ? 
H21E C21C H21F 108.6 . . ? 
C21C C22C C23A 108.9(5) . . ? 
C21C C22C H22E 109.9 . . ? 
C23A C22C H22E 109.9 . . ? 
C21C C22C H22F 109.9 . . ? 
C23A C22C H22F 109.9 . . ? 
H22E C22C H22F 108.3 . . ? 
C25A C24A C28A 100.2(4) . . ? 
C25A C24A Si1A 113.9(4) . . ? 
C28A C24A Si1A 114.6(3) . . ? 
C25A C24A H24A 109.3 . . ? 
C28A C24A H24A 109.3 . . ? 
Si1A C24A H24A 109.3 . . ? 
C26A C25A C24A 106.8(5) . . ? 
C26A C25A H25A 110.4 . . ? 
C24A C25A H25A 110.4 . . ? 
C26A C25A H25B 110.4 . . ? 
C24A C25A H25B 110.4 . . ? 
H25A C25A H25B 108.6 . . ? 
C27A C26A C25A 106.6(5) . . ? 
C27A C26A H26A 110.4 . . ? 
C25A C26A H26A 110.4 . . ? 
C27A C26A H26B 110.4 . . ? 
C25A C26A H26B 110.4 . . ? 
H26A C26A H26B 108.6 . . ? 
C26A C27A C28A 107.7(5) . . ? 
C26A C27A H27A 110.2 . . ? 
C28A C27A H27A 110.2 . . ? 
C26A C27A H27B 110.2 . . ? 
C28A C27A H27B 110.2 . . ? 
H27A C27A H27B 108.5 . . ? 
C27A C28A C24A 104.6(5) . . ? 
C27A C28A H28A 110.8 . . ? 
C24A C28A H28A 110.8 . . ? 
C27A C28A H28B 110.8 . . ? 
C24A C28A H28B 110.8 . . ? 
H28A C28A H28B 108.9 . . ? 
C6A C29A H29A 109.5 . . ? 
C6A C29A H29B 109.5 . . ? 
H29A C29A H29B 109.5 . . ? 
C6A C29A H29C 109.5 . . ? 
H29A C29A H29C 109.5 . . ? 
H29B C29A H29C 109.5 . . ? 
C7A C30A H30A 109.5 . . ? 
C7A C30A H30B 109.5 . . ? 
H30A C30A H30B 109.5 . . ? 
C7A C30A H30C 109.5 . . ? 
H30A C30A H30C 109.5 . . ? 
H30B C30A H30C 109.5 . . ? 
C13B Si1B C14B 106.64(19) . . ? 
C13B Si1B C24B 108.18(19) . . ? 
C14B Si1B C24B 112.5(2) . . ? 
C13B Si1B C19B 107.37(18) . . ? 
C14B Si1B C19B 110.2(2) . . ? 
C24B Si1B C19B 111.67(19) . . ? 
C2B C1B C11B 120.9(3) . . ? 
C2B C1B C12B 119.3(4) . . ? 
C11B C1B C12B 119.8(4) . . ? 
C3B C2B C1B 121.9(3) . . ? 
C3B C2B C2B 118.5(2) . 2_556 ? 
C1B C2B C2B 119.6(2) . 2_556 ? 
C4B C3B C2B 122.3(4) . . ? 
C4B C3B H3B 118.8 . . ? 
C2B C3B H3B 118.8 . . ? 
C3B C4B C5B 122.7(4) . . ? 
C3B C4B C4B 119.1(2) . 2_556 ? 
C5B C4B C4B 118.1(2) . 2_556 ? 
C6B C5B C4B 122.5(4) . . ? 
C6B C5B H5B 118.8 . . ? 
C4B C5B H5B 118.8 . . ? 
C5B C6B C6B 119.4(2) . 2_556 ? 
C5B C6B C29B 121.1(4) . . ? 
C6B C6B C29B 119.5(2) 2_556 . ? 
C8B C7B C7B 119.3(2) . 2_556 ? 
C8B C7B C30B 121.1(4) . . ? 
C7B C7B C30B 119.5(2) 2_556 . ? 
C7B C8B C9B 122.6(4) . . ? 
C7B C8B H8B 118.7 . . ? 
C9B C8B H8B 118.7 . . ? 
C10B C9B C8B 122.7(4) . . ? 
C10B C9B C9B 119.3(2) . 2_556 ? 
C8B C9B C9B 118.0(2) . 2_556 ? 
C9B C10B C11B 122.1(4) . . ? 
C9B C10B H10B 118.9 . . ? 
C11B C10B H10B 118.9 . . ? 
C10B C11B C1B 122.0(3) . . ? 
C10B C11B C11B 118.6(2) . 2_556 ? 
C1B C11B C11B 119.5(2) . 2_556 ? 
C13B C12B C1B 178.6(5) . . ? 
C12B C13B Si1B 179.3(4) . . ? 
C18B C14B C15B 104.2(4) . . ? 
C18B C14B Si1B 116.4(3) . . ? 
C15B C14B Si1B 114.8(3) . . ? 
C18B C14B H14B 107.0 . . ? 
C15B C14B H14B 107.0 . . ? 
Si1B C14B H14B 107.0 . . ? 
C16B C15B C14B 105.8(4) . . ? 
C16B C15B H15C 110.6 . . ? 
C14B C15B H15C 110.6 . . ? 
C16B C15B H15D 110.6 . . ? 
C14B C15B H15D 110.6 . . ? 
H15C C15B H15D 108.7 . . ? 
C17B C16B C15B 106.6(4) . . ? 
C17B C16B C17D 47.5(13) . . ? 
C15B C16B C17D 102.3(12) . . ? 
C17B C16B H16C 110.4 . . ? 
C15B C16B H16C 110.4 . . ? 
C17D C16B H16C 68.1 . . ? 
C17B C16B H16D 110.4 . . ? 
C15B C16B H16D 110.4 . . ? 
C17D C16B H16D 145.5 . . ? 
H16C C16B H16D 108.6 . . ? 
C16B C17B C18B 104.4(5) . . ? 
C16B C17B H17C 110.9 . . ? 
C18B C17B H17C 110.9 . . ? 
C16B C17B H17D 110.9 . . ? 
C18B C17B H17D 110.9 . . ? 
H17C C17B H17D 108.9 . . ? 
C16B C17D C18B 100.1(18) . . ? 
C16B C17D H17E 111.8 . . ? 
C18B C17D H17E 111.8 . . ? 
C16B C17D H17F 111.7 . . ? 
C18B C17D H17F 111.7 . . ? 
H17E C17D H17F 109.5 . . ? 
C17B C18B C14B 102.8(4) . . ? 
C17B C18B C17D 46.0(12) . . ? 
C14B C18B C17D 105.4(11) . . ? 
C17B C18B H18C 111.2 . . ? 
C14B C18B H18C 111.2 . . ? 
C17D C18B H18C 141.0 . . ? 
C17B C18B H18D 111.2 . . ? 
C14B C18B H18D 111.2 . . ? 
C17D C18B H18D 67.7 . . ? 
H18C C18B H18D 109.1 . . ? 
C20B C19B C23B 102.2(3) . . ? 
C20B C19B Si1B 115.5(3) . . ? 
C23B C19B Si1B 114.5(3) . . ? 
C20B C19B H19B 108.1 . . ? 
C23B C19B H19B 108.1 . . ? 
Si1B C19B H19B 108.1 . . ? 
C21B C20B C19B 103.9(4) . . ? 
C21B C20B H20C 111.0 . . ? 
C19B C20B H20C 111.0 . . ? 
C21B C20B H20D 111.0 . . ? 
C19B C20B H20D 111.0 . . ? 
H20C C20B H20D 109.0 . . ? 
C22B C21B C20B 106.3(4) . . ? 
C22B C21B H21C 110.5 . . ? 
C20B C21B H21C 110.5 . . ? 
C22B C21B H21D 110.5 . . ? 
C20B C21B H21D 110.5 . . ? 
H21C C21B H21D 108.7 . . ? 
C21B C22B C23B 106.4(4) . . ? 
C21B C22B H22C 110.4 . . ? 
C23B C22B H22C 110.4 . . ? 
C21B C22B H22D 110.4 . . ? 
C23B C22B H22D 110.4 . . ? 
H22C C22B H22D 108.6 . . ? 
C22B C23B C19B 105.4(4) . . ? 
C22B C23B H23C 110.7 . . ? 
C19B C23B H23C 110.7 . . ? 
C22B C23B H23D 110.7 . . ? 
C19B C23B H23D 110.7 . . ? 
H23C C23B H23D 108.8 . . ? 
C25B C24B C28B 104.2(4) . . ? 
C25B C24B Si1B 116.0(3) . . ? 
C28B C24B Si1B 115.0(3) . . ? 
C25B C24B H24B 107.0 . . ? 
C28B C24B H24B 107.0 . . ? 
Si1B C24B H24B 107.0 . . ? 
C26B C25B C24B 104.1(4) . . ? 
C26B C25B H25C 110.9 . . ? 
C24B C25B H25C 110.9 . . ? 
C26B C25B H25D 110.9 . . ? 
C24B C25B H25D 110.9 . . ? 
H25C C25B H25D 108.9 . . ? 
C25B C26B C27B 102.2(4) . . ? 
C25B C26B H26C 111.3 . . ? 
C27B C26B H26C 111.3 . . ? 
C25B C26B H26D 111.3 . . ? 
C27B C26B H26D 111.3 . . ? 
H26C C26B H26D 109.2 . . ? 
C26B C27B C28B 104.0(4) . . ? 
C26B C27B H27C 111.0 . . ? 
C28B C27B H27C 111.0 . . ? 
C26B C27B H27D 111.0 . . ? 
C28B C27B H27D 111.0 . . ? 
H27C C27B H27D 109.0 . . ? 
C27B C28B C24B 106.3(4) . . ? 
C27B C28B H28C 110.5 . . ? 
C24B C28B H28C 110.5 . . ? 
C27B C28B H28D 110.5 . . ? 
C24B C28B H28D 110.5 . . ? 
H28C C28B H28D 108.7 . . ? 
C6B C29B H29D 109.5 . . ? 
C6B C29B H29E 109.5 . . ? 
H29D C29B H29E 109.5 . . ? 
C6B C29B H29F 109.5 . . ? 
H29D C29B H29F 109.5 . . ? 
H29E C29B H29F 109.5 . . ? 
C7B C30B H30D 109.5 . . ? 
C7B C30B H30E 109.5 . . ? 
H30D C30B H30E 109.5 . . ? 
C7B C30B H30F 109.5 . . ? 
H30D C30B H30F 109.5 . . ? 
H30E C30B H30F 109.5 . . ? 
 
loop_ 
 _geom_torsion_atom_site_label_1 
 _geom_torsion_atom_site_label_2 
 _geom_torsion_atom_site_label_3 
 _geom_torsion_atom_site_label_4 
 _geom_torsion 
 _geom_torsion_site_symmetry_1 
 _geom_torsion_site_symmetry_2 
 _geom_torsion_site_symmetry_3 
 _geom_torsion_site_symmetry_4 
 _geom_torsion_publ_flag 
C11A C1A C2A C3A 179.4(4) 5_556 . . . ? 
C12A C1A C2A C3A -0.7(6) . . . . ? 
C11A C1A C2A C11A 0.1(6) 5_556 . . . ? 
C12A C1A C2A C11A 179.9(3) . . . . ? 
C1A C2A C3A C4A -179.9(4) . . . . ? 
C11A C2A C3A C4A -0.5(6) . . . . ? 
C2A C3A C4A C5A 179.9(4) . . . . ? 
C2A C3A C4A C9A -0.1(6) . . . . ? 
C3A C4A C5A C6A -179.9(4) . . . . ? 
C9A C4A C5A C6A 0.2(6) . . . . ? 
C4A C5A C6A C7A -0.5(6) . . . . ? 
C4A C5A C6A C29A 179.8(4) . . . . ? 
C5A C6A C7A C8A 0.3(6) . . . . ? 
C29A C6A C7A C8A 179.9(4) . . . . ? 
C5A C6A C7A C30A -179.9(4) . . . . ? 
C29A C6A C7A C30A -0.2(6) . . . . ? 
C6A C7A C8A C9A 0.3(6) . . . . ? 
C30A C7A C8A C9A -179.5(4) . . . . ? 
C7A C8A C9A C10A 179.2(4) . . . . ? 
C7A C8A C9A C4A -0.7(6) . . . . ? 
C3A C4A C9A C10A 0.6(6) . . . . ? 
C5A C4A C9A C10A -179.5(3) . . . . ? 
C3A C4A C9A C8A -179.5(4) . . . . ? 
C5A C4A C9A C8A 0.4(5) . . . . ? 
C8A C9A C10A C11A 179.7(4) . . . . ? 
C4A C9A C10A C11A -0.4(6) . . . . ? 
C9A C10A C11A C1A 179.9(4) . . . 5_556 ? 
C9A C10A C11A C2A -0.3(5) . . . . ? 
C3A C2A C11A C1A -179.5(3) . . . 5_556 ? 
C1A C2A C11A C1A -0.1(6) . . . 5_556 ? 
C3A C2A C11A C10A 0.7(5) . . . . ? 
C1A C2A C11A C10A -179.9(3) . . . . ? 
C11A C1A C12A C13A -97(37) 5_556 . . . ? 
C2A C1A C12A C13A 83(37) . . . . ? 
C1A C12A C13A Si1A -119(35) . . . . ? 
C24A Si1A C13A C12A 49(6) . . . . ? 
C14A Si1A C13A C12A 169(6) . . . . ? 
C19A Si1A C13A C12A -70(6) . . . . ? 
C13A Si1A C14A C18A 59.7(4) . . . . ? 
C24A Si1A C14A C18A 177.1(3) . . . . ? 
C19A Si1A C14A C18A -58.4(4) . . . . ? 
C13A Si1A C14A C15A -60.6(4) . . . . ? 
C24A Si1A C14A C15A 56.8(4) . . . . ? 
C19A Si1A C14A C15A -178.7(3) . . . . ? 
C18A C14A C15A C16A 39.4(4) . . . . ? 
Si1A C14A C15A C16A 166.9(3) . . . . ? 
C14A C15A C16A C17A -26.2(5) . . . . ? 
C15A C16A C17A C18A 2.8(5) . . . . ? 
C15A C14A C18A C17A -37.9(4) . . . . ? 
Si1A C14A C18A C17A -165.8(3) . . . . ? 
C16A C17A C18A C14A 22.1(5) . . . . ? 
C13A Si1A C19A C20A -47.6(4) . . . . ? 
C24A Si1A C19A C20A -163.2(3) . . . . ? 
C14A Si1A C19A C20A 72.1(4) . . . . ? 
C13A Si1A C19A C23A -168.6(4) . . . . ? 
C24A Si1A C19A C23A 75.8(4) . . . . ? 
C14A Si1A C19A C23A -48.9(4) . . . . ? 
C23A C19A C20A C21C -37.8(6) . . . . ? 
Si1A C19A C20A C21C -165.1(5) . . . . ? 
C23A C19A C20A C21A -6.0(11) . . . . ? 
Si1A C19A C20A C21A -133.3(11) . . . . ? 
C19A C20A C21A C22A 1.5(18) . . . . ? 
C21C C20A C21A C22A 85.6(19) . . . . ? 
C20A C21A C22A C23A 4(2) . . . . ? 
C21A C22A C23A C22C -90(2) . . . . ? 
C21A C22A C23A C19A -7.9(19) . . . . ? 
C20A C19A C23A C22C 34.3(6) . . . . ? 
Si1A C19A C23A C22C 161.6(5) . . . . ? 
C20A C19A C23A C22A 8.3(11) . . . . ? 
Si1A C19A C23A C22A 135.6(11) . . . . ? 
C19A C20A C21C C22C 27.3(8) . . . . ? 
C21A C20A C21C C22C -77.3(13) . . . . ? 
C20A C21C C22C C23A -6.0(9) . . . . ? 
C22A C23A C22C C21C 87.5(17) . . . . ? 
C19A C23A C22C C21C -17.7(8) . . . . ? 
C13A Si1A C24A C25A -65.6(4) . . . . ? 
C14A Si1A C24A C25A 175.0(3) . . . . ? 
C19A Si1A C24A C25A 50.4(4) . . . . ? 
C13A Si1A C24A C28A 48.9(4) . . . . ? 
C14A Si1A C24A C28A -70.5(4) . . . . ? 
C19A Si1A C24A C28A 165.0(3) . . . . ? 
C28A C24A C25A C26A 36.9(6) . . . . ? 
Si1A C24A C25A C26A 159.7(4) . . . . ? 
C24A C25A C26A C27A -25.9(7) . . . . ? 
C25A C26A C27A C28A 3.2(8) . . . . ? 
C26A C27A C28A C24A 19.9(7) . . . . ? 
C25A C24A C28A C27A -34.0(6) . . . . ? 
Si1A C24A C28A C27A -156.3(4) . . . . ? 
C11B C1B C2B C3B -179.4(4) . . . . ? 
C12B C1B C2B C3B 1.4(6) . . . . ? 
C11B C1B C2B C2B -0.6(6) . . . 2_556 ? 
C12B C1B C2B C2B -179.8(4) . . . 2_556 ? 
C1B C2B C3B C4B 179.5(4) . . . . ? 
C2B C2B C3B C4B 0.6(6) 2_556 . . . ? 
C2B C3B C4B C5B 179.3(4) . . . . ? 
C2B C3B C4B C4B -0.2(7) . . . 2_556 ? 
C3B C4B C5B C6B -180.0(4) . . . . ? 
C4B C4B C5B C6B -0.5(7) 2_556 . . . ? 
C4B C5B C6B C6B -0.5(7) . . . 2_556 ? 
C4B C5B C6B C29B 179.8(4) . . . . ? 
C7B C7B C8B C9B -0.3(7) 2_556 . . . ? 
C30B C7B C8B C9B -179.8(4) . . . . ? 
C7B C8B C9B C10B 178.7(4) . . . . ? 
C7B C8B C9B C9B -1.6(7) . . . 2_556 ? 
C8B C9B C10B C11B 178.9(4) . . . . ? 
C9B C9B C10B C11B -0.8(7) 2_556 . . . ? 
C9B C10B C11B C1B 178.8(4) . . . . ? 
C9B C10B C11B C11B -1.4(6) . . . 2_556 ? 
C2B C1B C11B C10B 178.6(4) . . . . ? 
C12B C1B C11B C10B -2.2(6) . . . . ? 
C2B C1B C11B C11B -1.2(6) . . . 2_556 ? 
C12B C1B C11B C11B 178.1(4) . . . 2_556 ? 
C2B C1B C12B C13B 18(18) . . . . ? 
C11B C1B C12B C13B -161(18) . . . . ? 
C1B C12B C13B Si1B 84(40) . . . . ? 
C14B Si1B C13B C12B 33(33) . . . . ? 
C24B Si1B C13B C12B -88(33) . . . . ? 
C19B Si1B C13B C12B 151(33) . . . . ? 
C13B Si1B C14B C18B 177.4(4) . . . . ? 
C24B Si1B C14B C18B -64.2(4) . . . . ? 
C19B Si1B C14B C18B 61.1(4) . . . . ? 
C13B Si1B C14B C15B -60.6(4) . . . . ? 
C24B Si1B C14B C15B 57.8(4) . . . . ? 
C19B Si1B C14B C15B -176.9(3) . . . . ? 
C18B C14B C15B C16B -16.3(6) . . . . ? 
Si1B C14B C15B C16B -144.7(4) . . . . ? 
C14B C15B C16B C17B -8.6(7) . . . . ? 
C14B C15B C16B C17D 40.4(15) . . . . ? 
C15B C16B C17B C18B 30.7(7) . . . . ? 
C17D C16B C17B C18B -60.9(15) . . . . ? 
C17B C16B C17D C18B 54.9(13) . . . . ? 
C15B C16B C17D C18B -46.5(18) . . . . ? 
C16B C17B C18B C14B -40.6(6) . . . . ? 
C16B C17B C18B C17D 58.5(15) . . . . ? 
C15B C14B C18B C17B 34.8(6) . . . . ? 
Si1B C14B C18B C17B 162.2(4) . . . . ? 
C15B C14B C18B C17D -12.7(14) . . . . ? 
Si1B C14B C18B C17D 114.8(14) . . . . ? 
C16B C17D C18B C17B -56.2(14) . . . . ? 
C16B C17D C18B C14B 37(2) . . . . ? 
C13B Si1B C19B C20B -58.3(4) . . . . ? 
C14B Si1B C19B C20B 57.5(4) . . . . ? 
C24B Si1B C19B C20B -176.7(3) . . . . ? 
C13B Si1B C19B C23B 60.1(3) . . . . ? 
C14B Si1B C19B C23B 175.9(3) . . . . ? 
C24B Si1B C19B C23B -58.3(3) . . . . ? 
C23B C19B C20B C21B 39.5(4) . . . . ? 
Si1B C19B C20B C21B 164.4(3) . . . . ? 
C19B C20B C21B C22B -29.0(5) . . . . ? 
C20B C21B C22B C23B 6.9(5) . . . . ? 
C21B C22B C23B C19B 17.8(5) . . . . ? 
C20B C19B C23B C22B -35.4(4) . . . . ? 
Si1B C19B C23B C22B -161.0(3) . . . . ? 
C13B Si1B C24B C25B -163.8(3) . . . . ? 
C14B Si1B C24B C25B 78.7(4) . . . . ? 
C19B Si1B C24B C25B -45.9(4) . . . . ? 
C13B Si1B C24B C28B -41.9(3) . . . . ? 
C14B Si1B C24B C28B -159.4(3) . . . . ? 
C19B Si1B C24B C28B 76.1(3) . . . . ? 
C28B C24B C25B C26B 28.2(5) . . . . ? 
Si1B C24B C25B C26B 155.7(3) . . . . ? 
C24B C25B C26B C27B -43.0(5) . . . . ? 
C25B C26B C27B C28B 40.9(5) . . . . ? 
C26B C27B C28B C24B -23.4(5) . . . . ? 
C25B C24B C28B C27B -2.8(5) . . . . ? 
Si1B C24B C28B C27B -130.9(3) . . . . ? 
 
_diffrn_measured_fraction_theta_max     .933 
_diffrn_reflns_theta_full              68.07 
_diffrn_measured_fraction_theta_full    .933 
_refine_diff_density_max     .489 
_refine_diff_density_min    -.434 
_refine_diff_density_rms     .090 
