 
data_x08072 
 
_audit_creation_method            SHELXL-97 
_chemical_name_systematic 
; 
 ? 
; 
_chemical_name_common             ? 
_chemical_melting_point           ? 
_chemical_formula_moiety 
 'C44 H52 Si2' 
_chemical_formula_sum 
 'C44 H52 Si2' 
_chemical_formula_weight          637.04 
 
loop_ 
 _atom_type_symbol 
 _atom_type_description 
 _atom_type_scat_dispersion_real 
 _atom_type_scat_dispersion_imag 
 _atom_type_scat_source 
 'C'  'C'   0.0181   0.0091 
 'International Tables Vol C Tables 4.2.6.8 and 6.1.1.4' 
 'H'  'H'   0.0000   0.0000 
 'International Tables Vol C Tables 4.2.6.8 and 6.1.1.4' 
 'Si'  'Si'   0.2541   0.3302 
 'International Tables Vol C Tables 4.2.6.8 and 6.1.1.4' 
 
_symmetry_cell_setting            triclinic
_symmetry_space_group_name_H-M    'P -1'
_symmetry_space_group_name_Hall   '-P 1'
 
loop_ 
 _symmetry_equiv_pos_as_xyz 
 'x, y, z' 
 '-x, -y, -z' 
 
_cell_length_a                    7.1746(3) 
_cell_length_b                    7.8462(3) 
_cell_length_c                    16.4197(7) 
_cell_angle_alpha                 92.307(1) 
_cell_angle_beta                  101.956(1) 
_cell_angle_gamma                 92.835(1) 
_cell_volume                      901.95(6) 
_cell_formula_units_Z             1 
_cell_measurement_temperature     90.0(2) 
_cell_measurement_reflns_used     9923
_cell_measurement_theta_min       2.75
_cell_measurement_theta_max       68.70
 
_exptl_crystal_description        lath
_exptl_crystal_colour             'dark blue'
_exptl_crystal_size_max           0.25 
_exptl_crystal_size_mid           0.08 
_exptl_crystal_size_min           0.02 
_exptl_crystal_density_meas       ? 
_exptl_crystal_density_diffrn     1.173 
_exptl_crystal_density_method     'not measured' 
_exptl_crystal_F_000              344 
_exptl_absorpt_coefficient_mu     1.101 
_exptl_absorpt_correction_type    multi-scan 
_exptl_absorpt_correction_T_min   0.749 
_exptl_absorpt_correction_T_max   0.978 
_exptl_absorpt_process_details    'Sadabs in APEX2 (BrukerAXS, 2006)' 
 
_exptl_special_details 
; 
 ? 
; 
 
_diffrn_ambient_temperature       90.0(2) 
_diffrn_radiation_wavelength      1.54178 
_diffrn_radiation_type            CuK\a 
_diffrn_radiation_source          'fine-focus rotating anode' 
_diffrn_radiation_monochromator   'graded multilayer optics' 
_diffrn_measurement_device_type   'Bruker X8 Proteum diffractometer'
_diffrn_measurement_method        '\f and \w scans'            
_diffrn_detector_area_resol_mean  18
_diffrn_standards_number          0 
_diffrn_standards_interval_count  . 
_diffrn_standards_interval_time   . 
_diffrn_standards_decay_%         ? 
_diffrn_reflns_number             13178 
_diffrn_reflns_av_R_equivalents   0.0380 
_diffrn_reflns_av_sigmaI/netI     0.0296 
_diffrn_reflns_limit_h_min        -8 
_diffrn_reflns_limit_h_max        8 
_diffrn_reflns_limit_k_min        -9 
_diffrn_reflns_limit_k_max        9 
_diffrn_reflns_limit_l_min        -19 
_diffrn_reflns_limit_l_max        19 
_diffrn_reflns_theta_min          2.75 
_diffrn_reflns_theta_max          68.70 
_reflns_number_total              3285 
_reflns_number_gt                 3199 
_reflns_threshold_expression      >2\s(I)    
 
_computing_data_collection        'APEX2 (Bruker-AXS, 2006)'            
_computing_cell_refinement        'APEX2 (Bruker-AXS, 2006)'            
_computing_data_reduction         'APEX2 (Bruker-AXS, 2006)'            
_computing_structure_solution     'SHELXS-97 (Sheldrick, 2008)' 
_computing_structure_refinement   'SHELXL-97 (Sheldrick, 2008)' 
_computing_molecular_graphics     'XP in SHELXTL (Sheldrick, 2008)'
_computing_publication_material
; 
SHELX97-2 (Sheldrick, 2008) and local procedures 
; 

_publ_section_exptl_refinement
;
H atoms were found in difference Fourier maps and subsequently placed in
idealized positions with constrained C-H distances of 0.98 \%A (RCH~3~),
0.99 \%A (R~2~CH~2~), 1.00 \%A (R~3~CH) 0.95 \%A (C~Ar~H) with U~iso~(H) 
values set to either 1.5U~eq~ (methyl only) or 1.2U~eq~ of the attached 
carbon atom.
;
 
_refine_special_details 
; 
 Refinement of F^2^ against ALL reflections.  The weighted R-factor wR and 
 goodness of fit S are based on F^2^, conventional R-factors R are based 
 on F, with F set to zero for negative F^2^. The threshold expression of 
 F^2^ > 2\s(F^2^) is used only for calculating R-factors(gt) etc. and is 
 not relevant to the choice of reflections for refinement.  R-factors based 
 on F^2^ are statistically about twice as large as those based on F, and R- 
 factors based on ALL data will be even larger. 
; 
 
_refine_ls_structure_factor_coef  Fsqd  
_refine_ls_matrix_type            full 
_refine_ls_weighting_scheme       calc  
_refine_ls_weighting_details 
 'calc w=1/[\s^2^(Fo^2^)+(0.0564P)^2^+0.3508P] where P=(Fo^2^+2Fc^2^)/3' 
_atom_sites_solution_primary      direct 
_atom_sites_solution_secondary    difmap 
_atom_sites_solution_hydrogens    geom 
_refine_ls_hydrogen_treatment     constr 
_refine_ls_extinction_method      SHELXL 
_refine_ls_extinction_coef        0.0048(12) 
_refine_ls_extinction_expression 
 'Fc^*^=kFc[1+0.001xFc^2^\l^3^/sin(2\q)]^-1/4^' 
_refine_ls_number_reflns          3285 
_refine_ls_number_parameters      213 
_refine_ls_number_restraints      0 
_refine_ls_R_factor_all           0.0357 
_refine_ls_R_factor_gt            0.0350 
_refine_ls_wR_factor_ref          0.0985 
_refine_ls_wR_factor_gt           0.0974 
_refine_ls_goodness_of_fit_ref    1.037 
_refine_ls_restrained_S_all       1.037 
_refine_ls_shift/su_max           0.001 
_refine_ls_shift/su_mean          0.000 
 
loop_ 
 _atom_site_label 
 _atom_site_type_symbol 
 _atom_site_fract_x 
 _atom_site_fract_y 
 _atom_site_fract_z 
 _atom_site_U_iso_or_equiv 
 _atom_site_adp_type 
 _atom_site_occupancy 
 _atom_site_symmetry_multiplicity 
 _atom_site_calc_flag 
 _atom_site_refinement_flags 
 _atom_site_disorder_assembly 
 _atom_site_disorder_group 
Si1 Si 0.55710(4) 0.79963(4) 0.838683(19) 0.01597(14) Uani 1 1 d . . . 
C1 C 0.52551(15) 0.56500(14) 0.58378(7) 0.0125(2) Uani 1 1 d . . . 
C2 C 0.66414(16) 0.60939(14) 0.53677(7) 0.0122(2) Uani 1 1 d . . . 
C3 C 0.82780(16) 0.71420(14) 0.57092(7) 0.0134(2) Uani 1 1 d . . . 
H3 H 0.8446 0.7591 0.6267 0.016 Uiso 1 1 calc R . . 
C4 C 0.96577(16) 0.75448(14) 0.52585(7) 0.0133(2) Uani 1 1 d . . . 
C5 C 1.13349(16) 0.86021(15) 0.56048(8) 0.0160(3) Uani 1 1 d . . . 
H5 H 1.1521 0.9059 0.6162 0.019 Uiso 1 1 calc R . . 
C6 C 1.26649(16) 0.89620(15) 0.51490(8) 0.0180(3) Uani 1 1 d . . . 
H6 H 1.3780 0.9655 0.5393 0.022 Uiso 1 1 calc R . . 
C7 C 1.24074(17) 0.83096(15) 0.43058(8) 0.0184(3) Uani 1 1 d . . . 
H7 H 1.3350 0.8574 0.3993 0.022 Uiso 1 1 calc R . . 
C8 C 1.08275(17) 0.73161(15) 0.39483(8) 0.0168(3) Uani 1 1 d . . . 
H8 H 1.0672 0.6895 0.3386 0.020 Uiso 1 1 calc R . . 
C9 C 0.93919(16) 0.68935(14) 0.44068(7) 0.0139(2) Uani 1 1 d . . . 
C10 C 0.77704(16) 0.58708(14) 0.40589(7) 0.0137(2) Uani 1 1 d . . . 
H10 H 0.7597 0.5453 0.3496 0.016 Uiso 1 1 calc R . . 
C11 C 0.63734(15) 0.54318(14) 0.45140(7) 0.0123(2) Uani 1 1 d . . . 
C12 C 0.54789(15) 0.63347(14) 0.66722(7) 0.0136(3) Uani 1 1 d . . . 
C13 C 0.56168(16) 0.69405(15) 0.73731(7) 0.0157(3) Uani 1 1 d . . . 
C14 C 0.31537(18) 0.74692(17) 0.85802(8) 0.0213(3) Uani 1 1 d . . . 
H14 H 0.2854 0.8064 0.9084 0.026 Uiso 1 1 calc R . . 
C15 C 0.14761(18) 0.71223(17) 0.78492(8) 0.0230(3) Uani 1 1 d . . . 
H15A H 0.0229 0.7542 0.7907 0.028 Uiso 1 1 calc R . . 
H15B H 0.1734 0.7160 0.7281 0.028 Uiso 1 1 calc R . . 
C16 C 0.22122(18) 0.56837(18) 0.83610(8) 0.0245(3) Uani 1 1 d . . . 
H16A H 0.2926 0.4831 0.8109 0.029 Uiso 1 1 calc R . . 
H16B H 0.1421 0.5214 0.8736 0.029 Uiso 1 1 calc R . . 
C17 C 0.74752(18) 0.71457(16) 0.92150(7) 0.0202(3) Uani 1 1 d . . . 
H17 H 0.8735 0.7425 0.9066 0.024 Uiso 1 1 calc R . . 
C18 C 0.7239(2) 0.52007(18) 0.92409(8) 0.0262(3) Uani 1 1 d . . . 
H18A H 0.8301 0.4793 0.9648 0.039 Uiso 1 1 calc R . . 
H18B H 0.7231 0.4676 0.8688 0.039 Uiso 1 1 calc R . . 
H18C H 0.6032 0.4887 0.9403 0.039 Uiso 1 1 calc R . . 
C19 C 0.7524(2) 0.8013(2) 1.00717(8) 0.0341(4) Uani 1 1 d . . . 
H19A H 0.6289 0.7795 1.0227 0.051 Uiso 1 1 calc R . . 
H19B H 0.7781 0.9247 1.0050 0.051 Uiso 1 1 calc R . . 
H19C H 0.8532 0.7552 1.0487 0.051 Uiso 1 1 calc R . . 
C20 C 0.60184(18) 1.03624(16) 0.82967(8) 0.0220(3) Uani 1 1 d . . . 
H20 H 0.6034 1.0939 0.8853 0.026 Uiso 1 1 calc R . . 
C21 C 0.4429(2) 1.11016(18) 0.76576(9) 0.0300(3) Uani 1 1 d . . . 
H21A H 0.4711 1.2330 0.7629 0.045 Uiso 1 1 calc R . . 
H21B H 0.3207 1.0914 0.7827 0.045 Uiso 1 1 calc R . . 
H21C H 0.4356 1.0533 0.7109 0.045 Uiso 1 1 calc R . . 
C22 C 0.79637(19) 1.07649(17) 0.80796(9) 0.0268(3) Uani 1 1 d . . . 
H22A H 0.8000 1.0190 0.7543 0.040 Uiso 1 1 calc R . . 
H22B H 0.8973 1.0361 0.8514 0.040 Uiso 1 1 calc R . . 
H22C H 0.8163 1.2002 0.8043 0.040 Uiso 1 1 calc R . . 
 
loop_ 
 _atom_site_aniso_label 
 _atom_site_aniso_U_11 
 _atom_site_aniso_U_22 
 _atom_site_aniso_U_33 
 _atom_site_aniso_U_23 
 _atom_site_aniso_U_13 
 _atom_site_aniso_U_12 
Si1 0.0148(2) 0.0189(2) 0.0131(2) -0.00375(13) 0.00105(13) 0.00130(13) 
C1 0.0109(5) 0.0120(5) 0.0135(5) 0.0004(4) -0.0003(4) 0.0034(4) 
C2 0.0097(5) 0.0109(5) 0.0149(6) 0.0010(4) -0.0005(4) 0.0035(4) 
C3 0.0122(6) 0.0127(5) 0.0141(5) 0.0004(4) -0.0005(4) 0.0029(4) 
C4 0.0102(5) 0.0102(5) 0.0182(6) 0.0022(4) -0.0010(4) 0.0030(4) 
C5 0.0132(6) 0.0141(6) 0.0187(6) 0.0018(4) -0.0015(4) 0.0014(4) 
C6 0.0103(6) 0.0149(6) 0.0264(6) 0.0026(5) -0.0011(5) -0.0018(4) 
C7 0.0130(6) 0.0187(6) 0.0247(6) 0.0048(5) 0.0057(5) 0.0009(5) 
C8 0.0150(6) 0.0162(6) 0.0194(6) 0.0018(4) 0.0037(5) 0.0019(4) 
C9 0.0112(5) 0.0119(5) 0.0184(6) 0.0024(4) 0.0015(4) 0.0031(4) 
C10 0.0129(6) 0.0133(5) 0.0144(6) 0.0005(4) 0.0010(4) 0.0025(4) 
C11 0.0099(5) 0.0115(5) 0.0148(6) 0.0011(4) 0.0000(4) 0.0033(4) 
C12 0.0081(5) 0.0141(5) 0.0177(6) 0.0013(4) 0.0007(4) 0.0003(4) 
C13 0.0118(5) 0.0175(6) 0.0168(6) -0.0005(5) 0.0015(4) -0.0002(4) 
C14 0.0184(6) 0.0282(7) 0.0176(6) -0.0029(5) 0.0045(5) 0.0037(5) 
C15 0.0145(6) 0.0314(7) 0.0231(7) 0.0011(5) 0.0034(5) 0.0044(5) 
C16 0.0184(6) 0.0296(7) 0.0252(7) 0.0040(5) 0.0039(5) -0.0004(5) 
C17 0.0174(6) 0.0257(7) 0.0158(6) -0.0024(5) 0.0002(5) 0.0003(5) 
C18 0.0256(7) 0.0264(7) 0.0235(7) -0.0003(5) -0.0027(5) 0.0053(5) 
C19 0.0455(9) 0.0337(8) 0.0178(7) -0.0056(6) -0.0046(6) 0.0050(7) 
C20 0.0230(7) 0.0201(6) 0.0208(6) -0.0063(5) 0.0008(5) 0.0021(5) 
C21 0.0285(7) 0.0226(7) 0.0359(8) 0.0010(6) -0.0009(6) 0.0040(5) 
C22 0.0252(7) 0.0207(6) 0.0321(7) -0.0028(5) 0.0024(6) -0.0028(5) 
 
_geom_special_details 
; 
 All esds (except the esd in the dihedral angle between two l.s. planes) 
 are estimated using the full covariance matrix.  The cell esds are taken 
 into account individually in the estimation of esds in distances, angles 
 and torsion angles; correlations between esds in cell parameters are only 
 used when they are defined by crystal symmetry.  An approximate (isotropic) 
 treatment of cell esds is used for estimating esds involving l.s. planes. 
; 
 
loop_ 
 _geom_bond_atom_site_label_1 
 _geom_bond_atom_site_label_2 
 _geom_bond_distance 
 _geom_bond_site_symmetry_2 
 _geom_bond_publ_flag 
Si1 C13 1.8363(12) . ? 
Si1 C14 1.8567(13) . ? 
Si1 C20 1.8853(13) . ? 
Si1 C17 1.8854(13) . ? 
C1 C11 1.4150(16) 2_666 ? 
C1 C2 1.4183(16) . ? 
C1 C12 1.4257(16) . ? 
C2 C3 1.4015(16) . ? 
C2 C11 1.4462(16) . ? 
C3 C4 1.3851(16) . ? 
C3 H3 0.9500 . ? 
C4 C5 1.4280(16) . ? 
C4 C9 1.4406(16) . ? 
C5 C6 1.3552(17) . ? 
C5 H5 0.9500 . ? 
C6 C7 1.4285(18) . ? 
C6 H6 0.9500 . ? 
C7 C8 1.3555(18) . ? 
C7 H7 0.9500 . ? 
C8 C9 1.4302(16) . ? 
C8 H8 0.9500 . ? 
C9 C10 1.3853(16) . ? 
C10 C11 1.4066(16) . ? 
C10 H10 0.9500 . ? 
C11 C1 1.4149(16) 2_666 ? 
C12 C13 1.2101(17) . ? 
C14 C15 1.5186(18) . ? 
C14 C16 1.5210(19) . ? 
C14 H14 1.0000 . ? 
C15 C16 1.4869(19) . ? 
C15 H15A 0.9900 . ? 
C15 H15B 0.9900 . ? 
C16 H16A 0.9900 . ? 
C16 H16B 0.9900 . ? 
C17 C18 1.5304(18) . ? 
C17 C19 1.5307(17) . ? 
C17 H17 1.0000 . ? 
C18 H18A 0.9800 . ? 
C18 H18B 0.9800 . ? 
C18 H18C 0.9800 . ? 
C19 H19A 0.9800 . ? 
C19 H19B 0.9800 . ? 
C19 H19C 0.9800 . ? 
C20 C22 1.5318(19) . ? 
C20 C21 1.5350(18) . ? 
C20 H20 1.0000 . ? 
C21 H21A 0.9800 . ? 
C21 H21B 0.9800 . ? 
C21 H21C 0.9800 . ? 
C22 H22A 0.9800 . ? 
C22 H22B 0.9800 . ? 
C22 H22C 0.9800 . ? 
 
loop_ 
 _geom_angle_atom_site_label_1 
 _geom_angle_atom_site_label_2 
 _geom_angle_atom_site_label_3 
 _geom_angle 
 _geom_angle_site_symmetry_1 
 _geom_angle_site_symmetry_3 
 _geom_angle_publ_flag 
C13 Si1 C14 105.84(5) . . ? 
C13 Si1 C20 107.48(6) . . ? 
C14 Si1 C20 111.91(6) . . ? 
C13 Si1 C17 109.33(5) . . ? 
C14 Si1 C17 111.11(6) . . ? 
C20 Si1 C17 110.95(6) . . ? 
C11 C1 C2 121.08(11) 2_666 . ? 
C11 C1 C12 119.29(10) 2_666 . ? 
C2 C1 C12 119.61(10) . . ? 
C3 C2 C1 121.91(11) . . ? 
C3 C2 C11 118.90(10) . . ? 
C1 C2 C11 119.18(11) . . ? 
C4 C3 C2 122.08(11) . . ? 
C4 C3 H3 119.0 . . ? 
C2 C3 H3 119.0 . . ? 
C3 C4 C5 122.35(11) . . ? 
C3 C4 C9 119.17(10) . . ? 
C5 C4 C9 118.47(10) . . ? 
C6 C5 C4 120.90(11) . . ? 
C6 C5 H5 119.6 . . ? 
C4 C5 H5 119.6 . . ? 
C5 C6 C7 120.67(11) . . ? 
C5 C6 H6 119.7 . . ? 
C7 C6 H6 119.7 . . ? 
C8 C7 C6 120.48(11) . . ? 
C8 C7 H7 119.8 . . ? 
C6 C7 H7 119.8 . . ? 
C7 C8 C9 120.82(11) . . ? 
C7 C8 H8 119.6 . . ? 
C9 C8 H8 119.6 . . ? 
C10 C9 C8 122.02(11) . . ? 
C10 C9 C4 119.32(10) . . ? 
C8 C9 C4 118.65(10) . . ? 
C9 C10 C11 122.04(11) . . ? 
C9 C10 H10 119.0 . . ? 
C11 C10 H10 119.0 . . ? 
C10 C11 C1 121.78(11) . 2_666 ? 
C10 C11 C2 118.48(10) . . ? 
C1 C11 C2 119.73(10) 2_666 . ? 
C13 C12 C1 177.98(12) . . ? 
C12 C13 Si1 173.15(10) . . ? 
C15 C14 C16 58.57(9) . . ? 
C15 C14 Si1 119.82(9) . . ? 
C16 C14 Si1 120.42(9) . . ? 
C15 C14 H14 115.4 . . ? 
C16 C14 H14 115.4 . . ? 
Si1 C14 H14 115.4 . . ? 
C16 C15 C14 60.79(9) . . ? 
C16 C15 H15A 117.7 . . ? 
C14 C15 H15A 117.7 . . ? 
C16 C15 H15B 117.7 . . ? 
C14 C15 H15B 117.7 . . ? 
H15A C15 H15B 114.8 . . ? 
C15 C16 C14 60.64(9) . . ? 
C15 C16 H16A 117.7 . . ? 
C14 C16 H16A 117.7 . . ? 
C15 C16 H16B 117.7 . . ? 
C14 C16 H16B 117.7 . . ? 
H16A C16 H16B 114.8 . . ? 
C18 C17 C19 111.05(11) . . ? 
C18 C17 Si1 111.61(8) . . ? 
C19 C17 Si1 111.42(9) . . ? 
C18 C17 H17 107.5 . . ? 
C19 C17 H17 107.5 . . ? 
Si1 C17 H17 107.5 . . ? 
C17 C18 H18A 109.5 . . ? 
C17 C18 H18B 109.5 . . ? 
H18A C18 H18B 109.5 . . ? 
C17 C18 H18C 109.5 . . ? 
H18A C18 H18C 109.5 . . ? 
H18B C18 H18C 109.5 . . ? 
C17 C19 H19A 109.5 . . ? 
C17 C19 H19B 109.5 . . ? 
H19A C19 H19B 109.5 . . ? 
C17 C19 H19C 109.5 . . ? 
H19A C19 H19C 109.5 . . ? 
H19B C19 H19C 109.5 . . ? 
C22 C20 C21 110.29(11) . . ? 
C22 C20 Si1 111.30(9) . . ? 
C21 C20 Si1 111.87(9) . . ? 
C22 C20 H20 107.7 . . ? 
C21 C20 H20 107.7 . . ? 
Si1 C20 H20 107.7 . . ? 
C20 C21 H21A 109.5 . . ? 
C20 C21 H21B 109.5 . . ? 
H21A C21 H21B 109.5 . . ? 
C20 C21 H21C 109.5 . . ? 
H21A C21 H21C 109.5 . . ? 
H21B C21 H21C 109.5 . . ? 
C20 C22 H22A 109.5 . . ? 
C20 C22 H22B 109.5 . . ? 
H22A C22 H22B 109.5 . . ? 
C20 C22 H22C 109.5 . . ? 
H22A C22 H22C 109.5 . . ? 
H22B C22 H22C 109.5 . . ? 
 
loop_ 
 _geom_torsion_atom_site_label_1 
 _geom_torsion_atom_site_label_2 
 _geom_torsion_atom_site_label_3 
 _geom_torsion_atom_site_label_4 
 _geom_torsion 
 _geom_torsion_site_symmetry_1 
 _geom_torsion_site_symmetry_2 
 _geom_torsion_site_symmetry_3 
 _geom_torsion_site_symmetry_4 
 _geom_torsion_publ_flag 
C11 C1 C2 C3 -179.00(10) 2_666 . . . ? 
C12 C1 C2 C3 2.48(16) . . . . ? 
C11 C1 C2 C11 0.28(17) 2_666 . . . ? 
C12 C1 C2 C11 -178.24(9) . . . . ? 
C1 C2 C3 C4 178.41(10) . . . . ? 
C11 C2 C3 C4 -0.87(16) . . . . ? 
C2 C3 C4 C5 -179.54(10) . . . . ? 
C2 C3 C4 C9 1.13(16) . . . . ? 
C3 C4 C5 C6 179.51(10) . . . . ? 
C9 C4 C5 C6 -1.16(16) . . . . ? 
C4 C5 C6 C7 0.86(17) . . . . ? 
C5 C6 C7 C8 -0.12(18) . . . . ? 
C6 C7 C8 C9 -0.30(18) . . . . ? 
C7 C8 C9 C10 -179.52(11) . . . . ? 
C7 C8 C9 C4 -0.03(17) . . . . ? 
C3 C4 C9 C10 -0.41(16) . . . . ? 
C5 C4 C9 C10 -179.76(10) . . . . ? 
C3 C4 C9 C8 -179.91(10) . . . . ? 
C5 C4 C9 C8 0.73(15) . . . . ? 
C8 C9 C10 C11 178.93(10) . . . . ? 
C4 C9 C10 C11 -0.56(17) . . . . ? 
C9 C10 C11 C1 -178.30(10) . . . 2_666 ? 
C9 C10 C11 C2 0.80(16) . . . . ? 
C3 C2 C11 C10 -0.10(16) . . . . ? 
C1 C2 C11 C10 -179.40(9) . . . . ? 
C3 C2 C11 C1 179.03(10) . . . 2_666 ? 
C1 C2 C11 C1 -0.28(17) . . . 2_666 ? 
C11 C1 C12 C13 -61(3) 2_666 . . . ? 
C2 C1 C12 C13 118(3) . . . . ? 
C1 C12 C13 Si1 -5(4) . . . . ? 
C14 Si1 C13 C12 54.7(9) . . . . ? 
C20 Si1 C13 C12 -65.0(9) . . . . ? 
C17 Si1 C13 C12 174.5(8) . . . . ? 
C13 Si1 C14 C15 -28.35(12) . . . . ? 
C20 Si1 C14 C15 88.43(11) . . . . ? 
C17 Si1 C14 C15 -146.94(10) . . . . ? 
C13 Si1 C14 C16 40.52(11) . . . . ? 
C20 Si1 C14 C16 157.30(10) . . . . ? 
C17 Si1 C14 C16 -78.06(11) . . . . ? 
Si1 C14 C15 C16 109.49(11) . . . . ? 
Si1 C14 C16 C15 -108.49(11) . . . . ? 
C13 Si1 C17 C18 -56.35(10) . . . . ? 
C14 Si1 C17 C18 60.11(10) . . . . ? 
C20 Si1 C17 C18 -174.71(9) . . . . ? 
C13 Si1 C17 C19 178.87(9) . . . . ? 
C14 Si1 C17 C19 -64.67(11) . . . . ? 
C20 Si1 C17 C19 60.50(11) . . . . ? 
C13 Si1 C20 C22 -60.42(10) . . . . ? 
C14 Si1 C20 C22 -176.21(9) . . . . ? 
C17 Si1 C20 C22 59.07(10) . . . . ? 
C13 Si1 C20 C21 63.47(10) . . . . ? 
C14 Si1 C20 C21 -52.32(11) . . . . ? 
C17 Si1 C20 C21 -177.05(9) . . . . ? 
 
_diffrn_measured_fraction_theta_max    0.982 
_diffrn_reflns_theta_full              68.70 
_diffrn_measured_fraction_theta_full   0.982 
_refine_diff_density_max    0.413 
_refine_diff_density_min   -0.261 
_refine_diff_density_rms    0.045 
