data_x08153

_vrf_PLAT029_x08153
;
PROBLEM: _diffrn_measured_fraction_theta_full Low .......       0.94      
RESPONSE: This is due to a combination of factors that affect poor
crystals of very low symmetry (i.e. triclinic) on this particular 
machine.  In spite of the somewhat less-than-normal high resolution
cutoff, the structure is unambiguous, the refinement went very smoothly
and the molecular structure and packing are not in any doubt.
;
# end Validation Reply Form

 
 
_audit_creation_method            SHELXL-97 
_chemical_name_systematic 
; 
 ? 
; 
_chemical_name_common             ? 
_chemical_melting_point           ? 
_chemical_formula_moiety 
 'C44 H46 F8 Si2' 
_chemical_formula_sum 
 'C44 H46 F8 Si2' 
_chemical_formula_weight          782.99 
 
loop_ 
 _atom_type_symbol 
 _atom_type_description 
 _atom_type_scat_dispersion_real 
 _atom_type_scat_dispersion_imag 
 _atom_type_scat_source 
 'C'  'C'   0.0181   0.0091 
 'International Tables Vol C Tables 4.2.6.8 and 6.1.1.4' 
 'H'  'H'   0.0000   0.0000 
 'International Tables Vol C Tables 4.2.6.8 and 6.1.1.4' 
 'F'  'F'   0.0727   0.0534 
 'International Tables Vol C Tables 4.2.6.8 and 6.1.1.4' 
 'Si'  'Si'   0.2541   0.3302 
 'International Tables Vol C Tables 4.2.6.8 and 6.1.1.4' 
 
_symmetry_cell_setting            triclinic
_symmetry_space_group_name_H-M    'P -1'
_symmetry_space_group_name_Hall   '-P 1'
 
loop_ 
 _symmetry_equiv_pos_as_xyz 
 'x, y, z' 
 '-x, -y, -z' 
 
_cell_length_a                    7.1691(4) 
_cell_length_b                    8.5469(5) 
_cell_length_c                    17.7563(10) 
_cell_angle_alpha                 86.663(3) 
_cell_angle_beta                  82.531(3) 
_cell_angle_gamma                 66.171(3) 
_cell_volume                      986.78(10) 
_cell_formula_units_Z             1 
_cell_measurement_temperature     210(2) 
_cell_measurement_reflns_used     7815
_cell_measurement_theta_min       2.51
_cell_measurement_theta_max       68.88
 
_exptl_crystal_description        rod
_exptl_crystal_colour             blue
_exptl_crystal_size_max           0.35 
_exptl_crystal_size_mid           0.10 
_exptl_crystal_size_min           0.06 
_exptl_crystal_density_meas       ? 
_exptl_crystal_density_diffrn     1.318 
_exptl_crystal_density_method     'not measured' 
_exptl_crystal_F_000              410 
_exptl_absorpt_coefficient_mu     1.410 
_exptl_absorpt_correction_type    multi-scan 
_exptl_absorpt_correction_T_min   0.563
_exptl_absorpt_correction_T_max   0.920 
_exptl_absorpt_process_details    'Sadabs in APEX2 (BrukerAXS, 2006)' 
 
_exptl_special_details 
; 
 ? 
; 
 
_diffrn_ambient_temperature       210.0(2) 
_diffrn_radiation_wavelength      1.54178 
_diffrn_radiation_type            CuK\a 
_diffrn_radiation_source          'fine-focus rotating anode' 
_diffrn_radiation_monochromator   'graded multilayer optics' 
_diffrn_measurement_device_type   'Bruker X8 Proteum diffractometer'
_diffrn_measurement_method        '\f and \w scans'            
_diffrn_detector_area_resol_mean  18
_diffrn_standards_number          0 
_diffrn_standards_interval_count  . 
_diffrn_standards_interval_time   . 
_diffrn_standards_decay_%         ? 
_diffrn_reflns_number             11312 
_diffrn_reflns_av_R_equivalents   0.0444 
_diffrn_reflns_av_sigmaI/netI     0.0417 
_diffrn_reflns_limit_h_min        -8 
_diffrn_reflns_limit_h_max        8 
_diffrn_reflns_limit_k_min        -10 
_diffrn_reflns_limit_k_max        7 
_diffrn_reflns_limit_l_min        -21 
_diffrn_reflns_limit_l_max        21 
_diffrn_reflns_theta_min          2.51 
_diffrn_reflns_theta_max          68.87 
_reflns_number_total              3446 
_reflns_number_gt                 2862 
_reflns_threshold_expression      >2\s(I)    
 
_computing_data_collection        'APEX2 (Bruker-AXS, 2006)'            
_computing_cell_refinement        'APEX2 (Bruker-AXS, 2006)'            
_computing_data_reduction         'APEX2 (Bruker-AXS, 2006)'            
_computing_structure_solution     'SHELXS-97 (Sheldrick, 2008)' 
_computing_structure_refinement   'SHELXL-97 (Sheldrick, 2008)' 
_computing_molecular_graphics     'XP in SHELXTL (Sheldrick, 2008)'
_computing_publication_material
; 
SHELX97-2 (Sheldrick, 2008) and local procedures 
; 

_publ_section_exptl_refinement
;
H atoms were found in difference Fourier maps and subsequently placed in
idealized positions with constrained distances of 
0.98 \%A (RCH~3~),
0.99 \%A (R~2~CH~2~),
0.95 \%A (C~Ar~H),
and with U~iso~(H) values set to either 1.2U~eq~ or 1.5U~eq~ (RCH~3~) 
of the attached atom. 
;


 
_refine_special_details 
; 
 Refinement of F^2^ against ALL reflections.  The weighted R-factor wR and 
 goodness of fit S are based on F^2^, conventional R-factors R are based 
 on F, with F set to zero for negative F^2^. The threshold expression of 
 F^2^ > 2\s(F^2^) is used only for calculating R-factors(gt) etc. and is 
 not relevant to the choice of reflections for refinement.  R-factors based 
 on F^2^ are statistically about twice as large as those based on F, and R- 
 factors based on ALL data will be even larger. 
; 
 
_refine_ls_structure_factor_coef  Fsqd  
_refine_ls_matrix_type            full 
_refine_ls_weighting_scheme       calc  
_refine_ls_weighting_details 
 'calc w=1/[\s^2^(Fo^2^)+(0.0384P)^2^+1.6748P] where P=(Fo^2^+2Fc^2^)/3' 
_atom_sites_solution_primary      direct 
_atom_sites_solution_secondary    difmap 
_atom_sites_solution_hydrogens    geom 
_refine_ls_hydrogen_treatment     constr 
_refine_ls_extinction_method      none 
_refine_ls_extinction_coef        ? 
_refine_ls_number_reflns          3446 
_refine_ls_number_parameters      247 
_refine_ls_number_restraints      0 
_refine_ls_R_factor_all           0.0771 
_refine_ls_R_factor_gt            0.0621 
_refine_ls_wR_factor_ref          0.1597 
_refine_ls_wR_factor_gt           0.1467 
_refine_ls_goodness_of_fit_ref    1.148 
_refine_ls_restrained_S_all       1.148 
_refine_ls_shift/su_max           0.000 
_refine_ls_shift/su_mean          0.000 
 
loop_ 
 _atom_site_label 
 _atom_site_type_symbol 
 _atom_site_fract_x 
 _atom_site_fract_y 
 _atom_site_fract_z 
 _atom_site_U_iso_or_equiv 
 _atom_site_adp_type 
 _atom_site_occupancy 
 _atom_site_symmetry_multiplicity 
 _atom_site_calc_flag 
 _atom_site_refinement_flags 
 _atom_site_disorder_assembly 
 _atom_site_disorder_group 
Si1 Si 0.89411(13) 0.26855(11) 0.19140(4) 0.0345(2) Uani 1 1 d . . . 
F1 F 0.9238(3) -0.2114(2) 0.45412(10) 0.0405(5) Uani 1 1 d . . . 
F2 F 0.9042(3) -0.4333(2) 0.56961(11) 0.0467(5) Uani 1 1 d . . . 
F3 F 0.6825(3) -0.3188(2) 0.70195(10) 0.0441(5) Uani 1 1 d . . . 
F4 F 0.4588(3) 0.0216(2) 0.72560(9) 0.0394(5) Uani 1 1 d . . . 
C1 C 0.6143(4) 0.4405(4) 0.42831(15) 0.0264(6) Uani 1 1 d . . . 
C2 C 0.6047(4) 0.3206(4) 0.48536(15) 0.0261(6) Uani 1 1 d . . . 
C3 C 0.7095(4) 0.1435(4) 0.47409(15) 0.0278(6) Uani 1 1 d . . . 
H3 H 0.7868 0.1034 0.4270 0.033 Uiso 1 1 calc R . . 
C4 C 0.7022(4) 0.0272(4) 0.53008(15) 0.0261(6) Uani 1 1 d . . . 
C5 C 0.8109(5) -0.1527(4) 0.52118(16) 0.0315(7) Uani 1 1 d . . . 
C6 C 0.8029(5) -0.2644(4) 0.57725(17) 0.0326(7) Uani 1 1 d . . . 
C7 C 0.6827(5) -0.2039(4) 0.64762(17) 0.0332(7) Uani 1 1 d . . . 
C8 C 0.5742(5) -0.0350(4) 0.65869(16) 0.0306(6) Uani 1 1 d . . . 
C9 C 0.5793(4) 0.0883(4) 0.60180(15) 0.0281(6) Uani 1 1 d . . . 
C10 C 0.4748(4) 0.2617(4) 0.61393(15) 0.0278(6) Uani 1 1 d . . . 
H10 H 0.3936 0.3004 0.6605 0.033 Uiso 1 1 calc R . . 
C11 C 0.4872(4) 0.3819(4) 0.55806(15) 0.0252(6) Uani 1 1 d . . . 
C12 C 0.7197(5) 0.3810(4) 0.35441(16) 0.0296(6) Uani 1 1 d . . . 
C13 C 0.7985(5) 0.3327(4) 0.29160(16) 0.0326(7) Uani 1 1 d . . . 
C14 C 0.9805(5) 0.4330(5) 0.14365(18) 0.0416(8) Uani 1 1 d . . . 
H14A H 1.1006 0.4285 0.1660 0.050 Uiso 1 1 calc R . . 
H14B H 1.0232 0.4044 0.0897 0.050 Uiso 1 1 calc R . . 
C15 C 0.8152(7) 0.6154(5) 0.1504(2) 0.0535(10) Uani 1 1 d . . . 
H15A H 0.6851 0.6138 0.1399 0.064 Uiso 1 1 calc R . . 
H15B H 0.7967 0.6536 0.2028 0.064 Uiso 1 1 calc R . . 
C16 C 0.8620(7) 0.7451(6) 0.0973(2) 0.0604(11) Uani 1 1 d . . . 
H16A H 0.9944 0.7431 0.1049 0.091 Uiso 1 1 calc R . . 
H16B H 0.7565 0.8586 0.1081 0.091 Uiso 1 1 calc R . . 
H16C H 0.8647 0.7161 0.0450 0.091 Uiso 1 1 calc R . . 
C17 C 0.6731(5) 0.2677(4) 0.14595(17) 0.0360(7) Uani 1 1 d . . . 
H17A H 0.6341 0.1769 0.1693 0.043 Uiso 1 1 calc R . . 
H17B H 0.5555 0.3770 0.1564 0.043 Uiso 1 1 calc R . . 
C18 C 0.7185(5) 0.2405(5) 0.06017(18) 0.0452(8) Uani 1 1 d . . . 
H18A H 0.7573 0.3314 0.0368 0.054 Uiso 1 1 calc R . . 
H18B H 0.8362 0.1313 0.0497 0.054 Uiso 1 1 calc R . . 
C19 C 0.5383(6) 0.2398(6) 0.0234(2) 0.0599(11) Uani 1 1 d . . . 
H19A H 0.5010 0.1483 0.0453 0.090 Uiso 1 1 calc R . . 
H19B H 0.5771 0.2220 -0.0308 0.090 Uiso 1 1 calc R . . 
H19C H 0.4220 0.3486 0.0323 0.090 Uiso 1 1 calc R . . 
C20 C 1.1052(5) 0.0502(5) 0.18936(18) 0.0427(8) Uani 1 1 d . . . 
H20A H 1.1293 0.0035 0.1382 0.051 Uiso 1 1 calc R . . 
H20B H 1.2312 0.0600 0.1994 0.051 Uiso 1 1 calc R . . 
C21 C 1.0630(6) -0.0756(5) 0.2465(2) 0.0506(9) Uani 1 1 d . . . 
H21A H 1.0531 -0.0350 0.2980 0.061 Uiso 1 1 calc R . . 
H21B H 0.9299 -0.0767 0.2399 0.061 Uiso 1 1 calc R . . 
C22 C 1.2257(7) -0.2576(5) 0.2392(3) 0.0650(12) Uani 1 1 d . . . 
H22A H 1.2265 -0.3036 0.1904 0.097 Uiso 1 1 calc R . . 
H22B H 1.1950 -0.3280 0.2796 0.097 Uiso 1 1 calc R . . 
H22C H 1.3594 -0.2573 0.2428 0.097 Uiso 1 1 calc R . . 
 
loop_ 
 _atom_site_aniso_label 
 _atom_site_aniso_U_11 
 _atom_site_aniso_U_22 
 _atom_site_aniso_U_33 
 _atom_site_aniso_U_23 
 _atom_site_aniso_U_13 
 _atom_site_aniso_U_12 
Si1 0.0340(5) 0.0361(5) 0.0304(4) -0.0077(3) 0.0025(3) -0.0121(4) 
F1 0.0467(11) 0.0291(10) 0.0373(10) -0.0070(7) 0.0042(8) -0.0084(8) 
F2 0.0596(13) 0.0228(9) 0.0489(11) -0.0034(8) 0.0008(9) -0.0090(9) 
F3 0.0533(12) 0.0311(10) 0.0434(10) 0.0084(8) 0.0004(8) -0.0152(9) 
F4 0.0445(11) 0.0346(10) 0.0333(9) 0.0004(7) 0.0055(7) -0.0129(8) 
C1 0.0251(15) 0.0259(15) 0.0274(13) -0.0042(11) -0.0006(10) -0.0095(12) 
C2 0.0257(15) 0.0275(15) 0.0248(13) -0.0035(11) -0.0034(10) -0.0099(12) 
C3 0.0266(15) 0.0286(16) 0.0264(14) -0.0049(11) 0.0006(10) -0.0097(12) 
C4 0.0254(15) 0.0244(15) 0.0293(14) -0.0026(11) -0.0046(11) -0.0101(12) 
C5 0.0316(16) 0.0267(16) 0.0341(15) -0.0063(11) 0.0009(12) -0.0099(13) 
C6 0.0351(17) 0.0196(15) 0.0414(17) 0.0000(12) -0.0073(12) -0.0084(13) 
C7 0.0349(17) 0.0265(16) 0.0387(16) 0.0024(12) -0.0039(12) -0.0133(13) 
C8 0.0283(16) 0.0295(16) 0.0321(15) -0.0035(11) 0.0000(11) -0.0103(13) 
C9 0.0294(15) 0.0268(16) 0.0290(14) 0.0004(11) -0.0038(11) -0.0120(12) 
C10 0.0283(15) 0.0270(15) 0.0258(13) -0.0029(11) -0.0012(10) -0.0090(12) 
C11 0.0265(15) 0.0246(15) 0.0244(13) -0.0020(10) -0.0026(10) -0.0099(12) 
C12 0.0307(16) 0.0243(15) 0.0331(16) -0.0001(11) -0.0019(12) -0.0108(12) 
C13 0.0337(17) 0.0302(16) 0.0323(16) -0.0014(12) -0.0022(12) -0.0114(13) 
C14 0.0415(19) 0.054(2) 0.0316(16) -0.0091(14) 0.0055(13) -0.0228(17) 
C15 0.066(3) 0.044(2) 0.047(2) 0.0006(16) 0.0087(17) -0.0233(19) 
C16 0.078(3) 0.064(3) 0.052(2) 0.0108(19) -0.012(2) -0.042(2) 
C17 0.0355(18) 0.0350(17) 0.0354(16) -0.0035(12) 0.0002(12) -0.0130(14) 
C18 0.040(2) 0.058(2) 0.0378(17) -0.0028(15) -0.0034(14) -0.0198(17) 
C19 0.053(2) 0.081(3) 0.049(2) -0.0051(19) -0.0141(17) -0.026(2) 
C20 0.0352(18) 0.049(2) 0.0356(17) -0.0141(14) 0.0012(13) -0.0084(15) 
C21 0.044(2) 0.036(2) 0.068(2) -0.0056(16) -0.0047(17) -0.0110(16) 
C22 0.060(3) 0.038(2) 0.092(3) -0.011(2) -0.027(2) -0.0083(19) 
 
_geom_special_details 
; 
 All esds (except the esd in the dihedral angle between two l.s. planes) 
 are estimated using the full covariance matrix.  The cell esds are taken 
 into account individually in the estimation of esds in distances, angles 
 and torsion angles; correlations between esds in cell parameters are only 
 used when they are defined by crystal symmetry.  An approximate (isotropic) 
 treatment of cell esds is used for estimating esds involving l.s. planes. 
; 
 
loop_ 
 _geom_bond_atom_site_label_1 
 _geom_bond_atom_site_label_2 
 _geom_bond_distance 
 _geom_bond_site_symmetry_2 
 _geom_bond_publ_flag 
Si1 C13 1.852(3) . ? 
Si1 C20 1.867(3) . ? 
Si1 C17 1.872(3) . ? 
Si1 C14 1.873(4) . ? 
F1 C5 1.347(3) . ? 
F2 C6 1.334(3) . ? 
F3 C7 1.336(3) . ? 
F4 C8 1.348(3) . ? 
C1 C11 1.413(4) 2_666 ? 
C1 C2 1.414(4) . ? 
C1 C12 1.436(4) . ? 
C2 C3 1.404(4) . ? 
C2 C11 1.446(4) . ? 
C3 C4 1.376(4) . ? 
C3 H3 0.9400 . ? 
C4 C5 1.423(4) . ? 
C4 C9 1.444(4) . ? 
C5 C6 1.351(4) . ? 
C6 C7 1.417(4) . ? 
C7 C8 1.347(4) . ? 
C8 C9 1.424(4) . ? 
C9 C10 1.379(4) . ? 
C10 C11 1.407(4) . ? 
C10 H10 0.9400 . ? 
C11 C1 1.413(4) 2_666 ? 
C12 C13 1.198(4) . ? 
C14 C15 1.530(5) . ? 
C14 H14A 0.9800 . ? 
C14 H14B 0.9800 . ? 
C15 C16 1.525(5) . ? 
C15 H15A 0.9800 . ? 
C15 H15B 0.9800 . ? 
C16 H16A 0.9700 . ? 
C16 H16B 0.9700 . ? 
C16 H16C 0.9700 . ? 
C17 C18 1.527(4) . ? 
C17 H17A 0.9800 . ? 
C17 H17B 0.9800 . ? 
C18 C19 1.524(5) . ? 
C18 H18A 0.9800 . ? 
C18 H18B 0.9800 . ? 
C19 H19A 0.9700 . ? 
C19 H19B 0.9700 . ? 
C19 H19C 0.9700 . ? 
C20 C21 1.528(5) . ? 
C20 H20A 0.9800 . ? 
C20 H20B 0.9800 . ? 
C21 C22 1.522(5) . ? 
C21 H21A 0.9800 . ? 
C21 H21B 0.9800 . ? 
C22 H22A 0.9700 . ? 
C22 H22B 0.9700 . ? 
C22 H22C 0.9700 . ? 
 
loop_ 
 _geom_angle_atom_site_label_1 
 _geom_angle_atom_site_label_2 
 _geom_angle_atom_site_label_3 
 _geom_angle 
 _geom_angle_site_symmetry_1 
 _geom_angle_site_symmetry_3 
 _geom_angle_publ_flag 
C13 Si1 C20 108.81(14) . . ? 
C13 Si1 C17 107.17(14) . . ? 
C20 Si1 C17 110.58(15) . . ? 
C13 Si1 C14 108.09(14) . . ? 
C20 Si1 C14 112.59(16) . . ? 
C17 Si1 C14 109.42(15) . . ? 
C11 C1 C2 120.9(2) 2_666 . ? 
C11 C1 C12 119.6(3) 2_666 . ? 
C2 C1 C12 119.5(3) . . ? 
C3 C2 C1 122.0(2) . . ? 
C3 C2 C11 118.9(3) . . ? 
C1 C2 C11 119.1(3) . . ? 
C4 C3 C2 121.8(2) . . ? 
C4 C3 H3 119.1 . . ? 
C2 C3 H3 119.1 . . ? 
C3 C4 C5 123.2(3) . . ? 
C3 C4 C9 119.2(3) . . ? 
C5 C4 C9 117.5(3) . . ? 
F1 C5 C6 119.7(3) . . ? 
F1 C5 C4 118.1(3) . . ? 
C6 C5 C4 122.2(3) . . ? 
F2 C6 C5 122.7(3) . . ? 
F2 C6 C7 117.2(3) . . ? 
C5 C6 C7 120.1(3) . . ? 
F3 C7 C8 121.8(3) . . ? 
F3 C7 C6 118.0(3) . . ? 
C8 C7 C6 120.2(3) . . ? 
C7 C8 F4 119.9(3) . . ? 
C7 C8 C9 121.9(3) . . ? 
F4 C8 C9 118.2(3) . . ? 
C10 C9 C8 122.1(3) . . ? 
C10 C9 C4 119.8(3) . . ? 
C8 C9 C4 118.1(3) . . ? 
C9 C10 C11 121.4(3) . . ? 
C9 C10 H10 119.3 . . ? 
C11 C10 H10 119.3 . . ? 
C10 C11 C1 121.2(2) . 2_666 ? 
C10 C11 C2 118.7(3) . . ? 
C1 C11 C2 120.0(3) 2_666 . ? 
C13 C12 C1 176.8(3) . . ? 
C12 C13 Si1 174.2(3) . . ? 
C15 C14 Si1 113.6(2) . . ? 
C15 C14 H14A 108.9 . . ? 
Si1 C14 H14A 108.9 . . ? 
C15 C14 H14B 108.9 . . ? 
Si1 C14 H14B 108.9 . . ? 
H14A C14 H14B 107.7 . . ? 
C16 C15 C14 114.6(3) . . ? 
C16 C15 H15A 108.6 . . ? 
C14 C15 H15A 108.6 . . ? 
C16 C15 H15B 108.6 . . ? 
C14 C15 H15B 108.6 . . ? 
H15A C15 H15B 107.6 . . ? 
C15 C16 H16A 109.5 . . ? 
C15 C16 H16B 109.5 . . ? 
H16A C16 H16B 109.5 . . ? 
C15 C16 H16C 109.5 . . ? 
H16A C16 H16C 109.5 . . ? 
H16B C16 H16C 109.5 . . ? 
C18 C17 Si1 113.8(2) . . ? 
C18 C17 H17A 108.8 . . ? 
Si1 C17 H17A 108.8 . . ? 
C18 C17 H17B 108.8 . . ? 
Si1 C17 H17B 108.8 . . ? 
H17A C17 H17B 107.7 . . ? 
C19 C18 C17 113.6(3) . . ? 
C19 C18 H18A 108.8 . . ? 
C17 C18 H18A 108.8 . . ? 
C19 C18 H18B 108.8 . . ? 
C17 C18 H18B 108.8 . . ? 
H18A C18 H18B 107.7 . . ? 
C18 C19 H19A 109.5 . . ? 
C18 C19 H19B 109.5 . . ? 
H19A C19 H19B 109.5 . . ? 
C18 C19 H19C 109.5 . . ? 
H19A C19 H19C 109.5 . . ? 
H19B C19 H19C 109.5 . . ? 
C21 C20 Si1 114.4(2) . . ? 
C21 C20 H20A 108.7 . . ? 
Si1 C20 H20A 108.7 . . ? 
C21 C20 H20B 108.7 . . ? 
Si1 C20 H20B 108.7 . . ? 
H20A C20 H20B 107.6 . . ? 
C22 C21 C20 114.0(3) . . ? 
C22 C21 H21A 108.7 . . ? 
C20 C21 H21A 108.7 . . ? 
C22 C21 H21B 108.7 . . ? 
C20 C21 H21B 108.7 . . ? 
H21A C21 H21B 107.6 . . ? 
C21 C22 H22A 109.5 . . ? 
C21 C22 H22B 109.5 . . ? 
H22A C22 H22B 109.5 . . ? 
C21 C22 H22C 109.5 . . ? 
H22A C22 H22C 109.5 . . ? 
H22B C22 H22C 109.5 . . ? 
 
loop_ 
 _geom_torsion_atom_site_label_1 
 _geom_torsion_atom_site_label_2 
 _geom_torsion_atom_site_label_3 
 _geom_torsion_atom_site_label_4 
 _geom_torsion 
 _geom_torsion_site_symmetry_1 
 _geom_torsion_site_symmetry_2 
 _geom_torsion_site_symmetry_3 
 _geom_torsion_site_symmetry_4 
 _geom_torsion_publ_flag 
C11 C1 C2 C3 -177.9(3) 2_666 . . . ? 
C12 C1 C2 C3 5.3(4) . . . . ? 
C11 C1 C2 C11 0.7(5) 2_666 . . . ? 
C12 C1 C2 C11 -176.1(3) . . . . ? 
C1 C2 C3 C4 179.1(3) . . . . ? 
C11 C2 C3 C4 0.4(4) . . . . ? 
C2 C3 C4 C5 -178.3(3) . . . . ? 
C2 C3 C4 C9 1.6(4) . . . . ? 
C3 C4 C5 F1 -1.0(4) . . . . ? 
C9 C4 C5 F1 179.1(3) . . . . ? 
C3 C4 C5 C6 179.4(3) . . . . ? 
C9 C4 C5 C6 -0.6(4) . . . . ? 
F1 C5 C6 F2 0.4(5) . . . . ? 
C4 C5 C6 F2 -179.9(3) . . . . ? 
F1 C5 C6 C7 -179.3(3) . . . . ? 
C4 C5 C6 C7 0.4(5) . . . . ? 
F2 C6 C7 F3 1.6(4) . . . . ? 
C5 C6 C7 F3 -178.7(3) . . . . ? 
F2 C6 C7 C8 -179.0(3) . . . . ? 
C5 C6 C7 C8 0.7(5) . . . . ? 
F3 C7 C8 F4 -1.2(5) . . . . ? 
C6 C7 C8 F4 179.4(3) . . . . ? 
F3 C7 C8 C9 177.9(3) . . . . ? 
C6 C7 C8 C9 -1.5(5) . . . . ? 
C7 C8 C9 C10 -177.4(3) . . . . ? 
F4 C8 C9 C10 1.6(4) . . . . ? 
C7 C8 C9 C4 1.2(4) . . . . ? 
F4 C8 C9 C4 -179.7(2) . . . . ? 
C3 C4 C9 C10 -1.5(4) . . . . ? 
C5 C4 C9 C10 178.5(3) . . . . ? 
C3 C4 C9 C8 179.9(3) . . . . ? 
C5 C4 C9 C8 -0.2(4) . . . . ? 
C8 C9 C10 C11 177.8(3) . . . . ? 
C4 C9 C10 C11 -0.9(4) . . . . ? 
C9 C10 C11 C1 -177.7(3) . . . 2_666 ? 
C9 C10 C11 C2 2.9(4) . . . . ? 
C3 C2 C11 C10 -2.7(4) . . . . ? 
C1 C2 C11 C10 178.6(2) . . . . ? 
C3 C2 C11 C1 178.0(3) . . . 2_666 ? 
C1 C2 C11 C1 -0.7(5) . . . 2_666 ? 
C13 Si1 C14 C15 -55.0(3) . . . . ? 
C20 Si1 C14 C15 -175.2(2) . . . . ? 
C17 Si1 C14 C15 61.4(3) . . . . ? 
Si1 C14 C15 C16 -166.3(3) . . . . ? 
C13 Si1 C17 C18 172.3(2) . . . . ? 
C20 Si1 C17 C18 -69.3(3) . . . . ? 
C14 Si1 C17 C18 55.3(3) . . . . ? 
Si1 C17 C18 C19 180.0(3) . . . . ? 
C13 Si1 C20 C21 42.8(3) . . . . ? 
C17 Si1 C20 C21 -74.7(3) . . . . ? 
C14 Si1 C20 C21 162.6(3) . . . . ? 
Si1 C20 C21 C22 174.2(3) . . . . ? 
 
_diffrn_measured_fraction_theta_max    0.939 
_diffrn_reflns_theta_full              68.87 
_diffrn_measured_fraction_theta_full   0.939 
_refine_diff_density_max    0.284 
_refine_diff_density_min   -0.332 
_refine_diff_density_rms    0.065 
