 
data_x10008 
 
_audit_creation_method            SHELXL-97 
_chemical_name_systematic 
; 
 ? 
; 
_chemical_name_common             ? 
_chemical_melting_point           ? 
_chemical_formula_moiety 
 'C44 H46 Cl8 Si2' 
_chemical_formula_sum 
 'C44 H46 Cl8 Si2' 
_chemical_formula_weight          914.59 
 
loop_ 
 _atom_type_symbol 
 _atom_type_description 
 _atom_type_scat_dispersion_real 
 _atom_type_scat_dispersion_imag 
 _atom_type_scat_source 
 'C'  'C'   0.0181   0.0091 
 'International Tables Vol C Tables 4.2.6.8 and 6.1.1.4' 
 'H'  'H'   0.0000   0.0000 
 'International Tables Vol C Tables 4.2.6.8 and 6.1.1.4' 
 'Si'  'Si'   0.2541   0.3302 
 'International Tables Vol C Tables 4.2.6.8 and 6.1.1.4' 
 'Cl'  'Cl'   0.3639   0.7018 
 'International Tables Vol C Tables 4.2.6.8 and 6.1.1.4' 
 
_symmetry_cell_setting            triclinic
_symmetry_space_group_name_H-M    'P -1'
_symmetry_space_group_name_Hall   '-P 1'
 
loop_ 
 _symmetry_equiv_pos_as_xyz 
 'x, y, z' 
 '-x, -y, -z' 
 
_cell_length_a                    8.8920(2) 
_cell_length_b                    14.3158(3) 
_cell_length_c                    17.0767(3) 
_cell_angle_alpha                 87.0210(10) 
_cell_angle_beta                  80.9000(10) 
_cell_angle_gamma                 83.5520(10) 
_cell_volume                      2131.56(8) 
_cell_formula_units_Z             2 
_cell_measurement_temperature     90.0(2) 
_cell_measurement_reflns_used     9935
_cell_measurement_theta_min       2.62
_cell_measurement_theta_max       68.25
 
_exptl_crystal_description        lath
_exptl_crystal_colour             blue
_exptl_crystal_size_max           0.20 
_exptl_crystal_size_mid           0.08 
_exptl_crystal_size_min           0.01 
_exptl_crystal_density_meas       ? 
_exptl_crystal_density_diffrn     1.425 
_exptl_crystal_density_method     'not measured' 
_exptl_crystal_F_000              948 
_exptl_absorpt_coefficient_mu     5.615 
_exptl_absorpt_correction_type    multi-scan 
_exptl_absorpt_correction_T_min   0.430 
_exptl_absorpt_correction_T_max   0.946 
_exptl_absorpt_process_details    'Sadabs in APEX2 (BrukerAXS, 2006)' 
 
_exptl_special_details 
; 
 ? 
; 
 
_diffrn_ambient_temperature       90.0(2) 
_diffrn_radiation_wavelength      1.54178 
_diffrn_radiation_type            CuK\a 
_diffrn_radiation_source          'fine-focus rotating anode' 
_diffrn_radiation_monochromator   'graded multilayer optics' 
_diffrn_measurement_device_type   'Bruker X8 Proteum diffractometer'
_diffrn_measurement_method        '\f and \w scans'            
_diffrn_detector_area_resol_mean  5.6
_diffrn_standards_number          0 
_diffrn_standards_interval_count  . 
_diffrn_standards_interval_time   . 
_diffrn_standards_decay_%         ? 
_diffrn_reflns_number             29659 
_diffrn_reflns_av_R_equivalents   0.0519 
_diffrn_reflns_av_sigmaI/netI     0.0439 
_diffrn_reflns_limit_h_min        -10 
_diffrn_reflns_limit_h_max        8 
_diffrn_reflns_limit_k_min        -17 
_diffrn_reflns_limit_k_max        17 
_diffrn_reflns_limit_l_min        -20 
_diffrn_reflns_limit_l_max        20 
_diffrn_reflns_theta_min          2.62 
_diffrn_reflns_theta_max          68.40 
_reflns_number_total              7605 
_reflns_number_gt                 6102 
_reflns_threshold_expression      >2\s(I)    
 
_computing_data_collection        'APEX2 (Bruker-AXS, 2006)'            
_computing_cell_refinement        'APEX2'
_computing_data_reduction         'APEX2'
_computing_structure_solution     'SHELXS-97 (Sheldrick, 2008)' 
_computing_structure_refinement   'SHELXL-97 (Sheldrick, 2008)' 
_computing_molecular_graphics     'XP in SHELXTL (Sheldrick, 2008)'
_computing_publication_material
; 
SHELX-97 (Sheldrick, 2008) and local procedures 
; 
 
_publ_section_exptl_refinement
;
H atoms were found in difference Fourier maps and subsequently placed in
idealized positions with constrained distances of 0.98 \%A (RCH~3~),
0.99 \%A (R~2~CH~2~), 0.95 \%A (C~Ar~H), and with U~iso~(H) values set to 
either 1.2U~eq~ or 1.5U~eq~ (RCH~3~) of the attached atom. 

A few restraints were required to ensure that the minot disorder component
retained physically reasonable parameters during refinement.  Restraints 
included the SHELXL97 commands SAME (for geometry) and SIMU (for thermal
parameters).  In addition, an EADP constraint was applied to the equalize
the displacement parameters of C27 and its minor counterpart C27'.
;

_refine_special_details 
; 
 Refinement of F^2^ against ALL reflections.  The weighted R-factor wR and 
 goodness of fit S are based on F^2^, conventional R-factors R are based 
 on F, with F set to zero for negative F^2^. The threshold expression of 
 F^2^ > 2\s(F^2^) is used only for calculating R-factors(gt) etc. and is 
 not relevant to the choice of reflections for refinement.  R-factors based 
 on F^2^ are statistically about twice as large as those based on F, and R- 
 factors based on ALL data will be even larger. 
; 
 
_refine_ls_structure_factor_coef  Fsqd  
_refine_ls_matrix_type            full 
_refine_ls_weighting_scheme       calc  
_refine_ls_weighting_details 
 'calc w=1/[\s^2^(Fo^2^)+(0.0483P)^2^+1.4444P] where P=(Fo^2^+2Fc^2^)/3' 
_atom_sites_solution_primary      direct 
_atom_sites_solution_secondary    difmap 
_atom_sites_solution_hydrogens    geom 
_refine_ls_hydrogen_treatment     constr 
_refine_ls_extinction_method      none 
_refine_ls_extinction_coef        ? 
_refine_ls_number_reflns          7605 
_refine_ls_number_parameters      505 
_refine_ls_number_restraints      58 
_refine_ls_R_factor_all           0.0507 
_refine_ls_R_factor_gt            0.0365 
_refine_ls_wR_factor_ref          0.1001 
_refine_ls_wR_factor_gt           0.0911 
_refine_ls_goodness_of_fit_ref    1.012 
_refine_ls_restrained_S_all       1.012 
_refine_ls_shift/su_max           0.001 
_refine_ls_shift/su_mean          0.000 
 
loop_ 
 _atom_site_label 
 _atom_site_type_symbol 
 _atom_site_fract_x 
 _atom_site_fract_y 
 _atom_site_fract_z 
 _atom_site_U_iso_or_equiv 
 _atom_site_adp_type 
 _atom_site_occupancy 
 _atom_site_symmetry_multiplicity 
 _atom_site_calc_flag 
 _atom_site_refinement_flags 
 _atom_site_disorder_assembly 
 _atom_site_disorder_group 
Si2 Si 0.40852(7) 0.14419(5) 0.88507(4) 0.01810(15) Uani 1 1 d . . . 
Si1 Si 0.63169(8) 0.33110(5) 0.20158(4) 0.02295(16) Uani 1 1 d . . . 
Cl1 Cl 1.09328(6) 0.14286(4) 0.36442(3) 0.01881(13) Uani 1 1 d . . . 
Cl2 Cl 1.34324(6) 0.04788(4) 0.45915(3) 0.01898(13) Uani 1 1 d . . . 
Cl3 Cl 1.26890(6) 0.01109(4) 0.64054(3) 0.02116(14) Uani 1 1 d . . . 
Cl4 Cl 0.94896(6) 0.07986(4) 0.73244(3) 0.02176(14) Uani 1 1 d . . . 
Cl5 Cl -0.12291(6) 0.34975(4) 0.72485(3) 0.02260(14) Uani 1 1 d . . . 
Cl6 Cl -0.37450(6) 0.44313(4) 0.63084(3) 0.02298(14) Uani 1 1 d . . . 
Cl7 Cl -0.30845(6) 0.46732(4) 0.44771(3) 0.01968(13) Uani 1 1 d . . . 
Cl8 Cl 0.01474(6) 0.40546(4) 0.35572(3) 0.01902(13) Uani 1 1 d . . . 
C1 C 0.5151(2) 0.25830(15) 0.46022(13) 0.0149(5) Uani 1 1 d . A . 
C2 C 0.6328(2) 0.21700(15) 0.50237(13) 0.0142(5) Uani 1 1 d . . . 
C3 C 0.7822(3) 0.19124(16) 0.46347(13) 0.0151(5) Uani 1 1 d . . . 
H3 H 0.8046 0.2019 0.4077 0.018 Uiso 1 1 calc R . . 
C4 C 0.8980(3) 0.15066(16) 0.50417(14) 0.0147(5) Uani 1 1 d . . . 
C5 C 1.0506(3) 0.12256(16) 0.46545(13) 0.0152(5) Uani 1 1 d . . . 
C6 C 1.1611(3) 0.08127(16) 0.50650(14) 0.0164(5) Uani 1 1 d . . . 
C7 C 1.1272(3) 0.06586(16) 0.59101(14) 0.0169(5) Uani 1 1 d . . . 
C8 C 0.9857(3) 0.09406(16) 0.63052(14) 0.0168(5) Uani 1 1 d . . . 
C9 C 0.8640(3) 0.13604(16) 0.58940(14) 0.0158(5) Uani 1 1 d . . . 
C10 C 0.7176(3) 0.16135(16) 0.62794(13) 0.0150(5) Uani 1 1 d . . . 
H10 H 0.6960 0.1516 0.6839 0.018 Uiso 1 1 calc R . . 
C11 C 0.5992(2) 0.20112(15) 0.58678(13) 0.0146(5) Uani 1 1 d . . . 
C12 C 0.4491(3) 0.22604(16) 0.62744(13) 0.0149(5) Uani 1 1 d . . . 
C13 C 0.3325(3) 0.26808(15) 0.58538(13) 0.0144(5) Uani 1 1 d . . . 
C14 C 0.1836(3) 0.29503(16) 0.62450(14) 0.0159(5) Uani 1 1 d . . . 
H14 H 0.1614 0.2850 0.6804 0.019 Uiso 1 1 calc R . . 
C15 C 0.0683(3) 0.33576(15) 0.58374(14) 0.0156(5) Uani 1 1 d . . . 
C16 C -0.0836(3) 0.36538(16) 0.62306(14) 0.0176(5) Uani 1 1 d . . . 
C17 C -0.1951(3) 0.40537(16) 0.58209(14) 0.0177(5) Uani 1 1 d . . . 
C18 C -0.1635(3) 0.41819(15) 0.49734(14) 0.0165(5) Uani 1 1 d . . . 
C19 C -0.0217(3) 0.39137(16) 0.45778(14) 0.0165(5) Uani 1 1 d . . . 
C20 C 0.1010(3) 0.35032(15) 0.49874(14) 0.0149(5) Uani 1 1 d . . . 
C21 C 0.2479(2) 0.32460(15) 0.45972(13) 0.0143(5) Uani 1 1 d . . . 
H21 H 0.2694 0.3346 0.4038 0.017 Uiso 1 1 calc R . . 
C22 C 0.3656(2) 0.28410(15) 0.50072(13) 0.0147(5) Uani 1 1 d . . . 
C23 C 0.5484(3) 0.27538(16) 0.37621(14) 0.0171(5) Uani 1 1 d . . . 
C24 C 0.5765(3) 0.29292(18) 0.30590(15) 0.0225(5) Uani 1 1 d . A . 
C25 C 0.4615(3) 0.3374(2) 0.14912(16) 0.0237(7) Uani 0.908(5) 1 d PDU A 1 
H25A H 0.4887 0.3663 0.0956 0.028 Uiso 0.908(5) 1 calc PR A 1 
H25B H 0.4388 0.2724 0.1422 0.028 Uiso 0.908(5) 1 calc PR A 1 
C26 C 0.3173(4) 0.3922(3) 0.1901(2) 0.0427(9) Uani 0.908(5) 1 d PDU A 1 
H26A H 0.3398 0.4567 0.1988 0.051 Uiso 0.908(5) 1 calc PR A 1 
H26B H 0.2862 0.3618 0.2427 0.051 Uiso 0.908(5) 1 calc PR A 1 
C27 C 0.1844(5) 0.3980(3) 0.1428(4) 0.0437(12) Uani 0.908(5) 1 d PDU A 1 
H27A H 0.2114 0.4323 0.0922 0.065 Uiso 0.908(5) 1 calc PR A 1 
H27B H 0.0931 0.4312 0.1732 0.065 Uiso 0.908(5) 1 calc PR A 1 
H27C H 0.1635 0.3344 0.1325 0.065 Uiso 0.908(5) 1 calc PR A 1 
C25' C 0.447(3) 0.396(2) 0.1635(18) 0.026(3) Uiso 0.092(5) 1 d PDU A 2 
H25C H 0.4050 0.4499 0.1969 0.031 Uiso 0.092(5) 1 calc PR A 2 
H25D H 0.4734 0.4195 0.1081 0.031 Uiso 0.092(5) 1 calc PR A 2 
C26' C 0.329(3) 0.328(2) 0.1674(19) 0.031(3) Uiso 0.092(5) 1 d PDU A 2 
H26C H 0.2976 0.3086 0.2235 0.038 Uiso 0.092(5) 1 calc PR A 2 
H26D H 0.3753 0.2715 0.1383 0.038 Uiso 0.092(5) 1 calc PR A 2 
C27' C 0.187(5) 0.370(4) 0.132(5) 0.0437(12) Uani 0.092(5) 1 d PDU A 2 
H27D H 0.1058 0.3279 0.1463 0.065 Uiso 0.092(5) 1 calc PR A 2 
H27E H 0.2126 0.3758 0.0746 0.065 Uiso 0.092(5) 1 calc PR A 2 
H27F H 0.1512 0.4317 0.1541 0.065 Uiso 0.092(5) 1 calc PR A 2 
C28 C 0.7831(3) 0.24193(19) 0.15309(15) 0.0254(6) Uani 1 1 d . A . 
H28A H 0.7336 0.1875 0.1398 0.031 Uiso 1 1 calc R . . 
H28B H 0.8329 0.2699 0.1027 0.031 Uiso 1 1 calc R . . 
C29 C 0.9069(3) 0.2065(2) 0.20392(15) 0.0292(6) Uani 1 1 d . . . 
H29A H 0.9476 0.2612 0.2230 0.035 Uiso 1 1 calc R A . 
H29B H 0.8597 0.1709 0.2510 0.035 Uiso 1 1 calc R . . 
C30 C 1.0394(3) 0.1435(2) 0.15933(17) 0.0383(7) Uani 1 1 d . A . 
H30A H 1.0005 0.0880 0.1417 0.057 Uiso 1 1 calc R . . 
H30B H 1.1149 0.1236 0.1945 0.057 Uiso 1 1 calc R . . 
H30C H 1.0878 0.1786 0.1131 0.057 Uiso 1 1 calc R . . 
C31 C 0.7078(3) 0.44746(18) 0.20440(15) 0.0266(6) Uani 1 1 d . A . 
H31A H 0.6242 0.4927 0.2300 0.032 Uiso 1 1 calc R . . 
H31B H 0.7894 0.4400 0.2382 0.032 Uiso 1 1 calc R . . 
C32 C 0.7730(3) 0.4898(2) 0.12344(17) 0.0319(6) Uani 1 1 d . . . 
H32A H 0.8526 0.4436 0.0961 0.038 Uiso 1 1 calc R A . 
H32B H 0.6901 0.5019 0.0906 0.038 Uiso 1 1 calc R . . 
C33 C 0.8419(4) 0.5805(2) 0.1299(2) 0.0435(8) Uani 1 1 d . A . 
H33A H 0.7632 0.6270 0.1561 0.065 Uiso 1 1 calc R . . 
H33B H 0.8810 0.6046 0.0767 0.065 Uiso 1 1 calc R . . 
H33C H 0.9261 0.5687 0.1610 0.065 Uiso 1 1 calc R . . 
C34 C 0.4185(2) 0.20591(16) 0.71086(14) 0.0161(5) Uani 1 1 d . . . 
C35 C 0.4041(3) 0.18364(17) 0.78079(14) 0.0194(5) Uani 1 1 d . . . 
C36 C 0.2191(3) 0.10188(18) 0.92631(15) 0.0222(5) Uani 1 1 d . . . 
H36A H 0.2068 0.0463 0.8967 0.027 Uiso 1 1 calc R . . 
H36B H 0.2220 0.0805 0.9822 0.027 Uiso 1 1 calc R . . 
C37 C 0.0769(3) 0.17245(18) 0.92416(16) 0.0256(6) Uani 1 1 d . . . 
H37A H 0.0798 0.2241 0.9601 0.031 Uiso 1 1 calc R . . 
H37B H 0.0785 0.2001 0.8697 0.031 Uiso 1 1 calc R . . 
C38 C -0.0707(3) 0.12694(19) 0.94899(16) 0.0282(6) Uani 1 1 d . . . 
H38A H -0.0773 0.0787 0.9114 0.042 Uiso 1 1 calc R . . 
H38B H -0.1585 0.1749 0.9493 0.042 Uiso 1 1 calc R . . 
H38C H -0.0714 0.0979 1.0023 0.042 Uiso 1 1 calc R . . 
C39 C 0.4613(3) 0.24554(18) 0.93659(15) 0.0236(5) Uani 1 1 d . . . 
H39A H 0.3686 0.2901 0.9509 0.028 Uiso 1 1 calc R . . 
H39B H 0.4985 0.2219 0.9864 0.028 Uiso 1 1 calc R . . 
C40 C 0.5855(3) 0.29815(19) 0.88538(16) 0.0267(6) Uani 1 1 d . . . 
H40A H 0.6696 0.2516 0.8624 0.032 Uiso 1 1 calc R . . 
H40B H 0.5412 0.3319 0.8409 0.032 Uiso 1 1 calc R . . 
C41 C 0.6517(3) 0.3684(2) 0.93069(17) 0.0351(7) Uani 1 1 d . . . 
H41A H 0.5700 0.4162 0.9521 0.053 Uiso 1 1 calc R . . 
H41B H 0.7305 0.3988 0.8948 0.053 Uiso 1 1 calc R . . 
H41C H 0.6974 0.3355 0.9744 0.053 Uiso 1 1 calc R . . 
C42 C 0.5649(3) 0.04496(18) 0.88940(15) 0.0218(5) Uani 1 1 d . . . 
H42A H 0.6576 0.0629 0.8543 0.026 Uiso 1 1 calc R . . 
H42B H 0.5889 0.0396 0.9442 0.026 Uiso 1 1 calc R . . 
C43 C 0.5358(3) -0.05273(18) 0.86645(15) 0.0247(5) Uani 1 1 d . . . 
H43A H 0.6192 -0.0994 0.8802 0.030 Uiso 1 1 calc R . . 
H43B H 0.4386 -0.0697 0.8978 0.030 Uiso 1 1 calc R . . 
C44 C 0.5268(3) -0.0579(2) 0.77885(16) 0.0313(6) Uani 1 1 d . . . 
H44A H 0.4392 -0.0156 0.7657 0.047 Uiso 1 1 calc R . . 
H44B H 0.5141 -0.1225 0.7669 0.047 Uiso 1 1 calc R . . 
H44C H 0.6213 -0.0391 0.7474 0.047 Uiso 1 1 calc R . . 
 
loop_ 
 _atom_site_aniso_label 
 _atom_site_aniso_U_11 
 _atom_site_aniso_U_22 
 _atom_site_aniso_U_33 
 _atom_site_aniso_U_23 
 _atom_site_aniso_U_13 
 _atom_site_aniso_U_12 
Si2 0.0174(3) 0.0215(4) 0.0144(3) 0.0026(2) -0.0003(2) -0.0026(2) 
Si1 0.0190(3) 0.0330(4) 0.0158(3) 0.0043(3) -0.0012(2) -0.0029(3) 
Cl1 0.0152(3) 0.0224(3) 0.0170(3) 0.0016(2) 0.00110(19) -0.0002(2) 
Cl2 0.0119(3) 0.0191(3) 0.0249(3) -0.0008(2) -0.0011(2) 0.0002(2) 
Cl3 0.0162(3) 0.0232(3) 0.0244(3) 0.0008(2) -0.0071(2) 0.0017(2) 
Cl4 0.0190(3) 0.0283(3) 0.0171(3) 0.0022(2) -0.0041(2) 0.0021(2) 
Cl5 0.0174(3) 0.0294(3) 0.0181(3) 0.0021(2) 0.0027(2) 0.0015(2) 
Cl6 0.0132(3) 0.0267(3) 0.0268(3) -0.0015(2) 0.0008(2) 0.0023(2) 
Cl7 0.0135(3) 0.0196(3) 0.0262(3) 0.0002(2) -0.0062(2) 0.0010(2) 
Cl8 0.0169(3) 0.0218(3) 0.0179(3) 0.0017(2) -0.0039(2) 0.0003(2) 
C1 0.0174(12) 0.0122(11) 0.0147(12) 0.0018(9) -0.0016(9) -0.0025(9) 
C2 0.0164(12) 0.0111(11) 0.0149(12) 0.0000(9) -0.0005(8) -0.0038(8) 
C3 0.0172(12) 0.0136(12) 0.0144(12) 0.0026(9) -0.0012(8) -0.0043(9) 
C4 0.0140(11) 0.0121(11) 0.0189(12) -0.0007(9) -0.0024(8) -0.0048(8) 
C5 0.0184(12) 0.0120(11) 0.0150(12) 0.0007(9) -0.0006(8) -0.0044(9) 
C6 0.0160(12) 0.0122(12) 0.0217(13) -0.0013(9) -0.0027(9) -0.0038(8) 
C7 0.0143(12) 0.0158(12) 0.0221(13) 0.0002(9) -0.0067(9) -0.0026(9) 
C8 0.0199(12) 0.0138(12) 0.0176(12) 0.0013(9) -0.0048(9) -0.0044(9) 
C9 0.0171(12) 0.0122(12) 0.0187(12) 0.0010(9) -0.0039(9) -0.0033(9) 
C10 0.0154(11) 0.0144(12) 0.0152(12) 0.0012(9) -0.0020(8) -0.0031(8) 
C11 0.0149(11) 0.0122(11) 0.0172(12) -0.0002(9) -0.0025(9) -0.0038(8) 
C12 0.0165(12) 0.0141(11) 0.0139(12) 0.0018(9) -0.0007(8) -0.0048(9) 
C13 0.0160(12) 0.0108(11) 0.0169(12) 0.0016(9) -0.0027(8) -0.0038(8) 
C14 0.0154(12) 0.0162(12) 0.0161(12) 0.0015(9) -0.0003(8) -0.0052(9) 
C15 0.0161(12) 0.0109(11) 0.0193(12) -0.0010(9) -0.0003(9) -0.0029(8) 
C16 0.0182(12) 0.0161(12) 0.0177(12) 0.0002(9) 0.0005(9) -0.0025(9) 
C17 0.0143(11) 0.0130(12) 0.0250(13) -0.0017(9) -0.0007(9) -0.0010(8) 
C18 0.0156(12) 0.0099(11) 0.0245(13) -0.0002(9) -0.0048(9) -0.0018(8) 
C19 0.0178(12) 0.0135(12) 0.0185(12) 0.0013(9) -0.0024(9) -0.0042(9) 
C20 0.0158(11) 0.0109(11) 0.0185(12) 0.0012(9) -0.0024(8) -0.0039(8) 
C21 0.0151(11) 0.0115(11) 0.0157(12) 0.0023(9) -0.0007(8) -0.0029(8) 
C22 0.0139(11) 0.0115(11) 0.0188(12) 0.0009(9) -0.0016(9) -0.0037(8) 
C23 0.0140(12) 0.0171(12) 0.0194(13) -0.0005(9) -0.0007(9) -0.0002(9) 
C24 0.0151(12) 0.0285(14) 0.0229(14) 0.0017(10) -0.0020(9) -0.0014(10) 
C25 0.0232(15) 0.0261(18) 0.0213(15) 0.0021(12) -0.0033(10) -0.0020(11) 
C26 0.0318(18) 0.061(2) 0.0320(18) -0.0032(16) -0.0070(13) 0.0147(15) 
C27 0.0250(16) 0.050(3) 0.053(3) 0.008(2) -0.0088(15) 0.0042(18) 
C27' 0.0250(16) 0.050(3) 0.053(3) 0.008(2) -0.0088(15) 0.0042(18) 
C28 0.0282(14) 0.0304(15) 0.0171(13) 0.0007(10) 0.0004(10) -0.0067(11) 
C29 0.0327(15) 0.0331(16) 0.0197(14) 0.0007(11) -0.0003(10) 0.0004(11) 
C30 0.0410(18) 0.0433(18) 0.0251(15) 0.0009(13) 0.0003(12) 0.0103(13) 
C31 0.0281(14) 0.0257(14) 0.0254(14) 0.0039(11) -0.0051(10) -0.0006(10) 
C32 0.0296(15) 0.0322(16) 0.0333(16) 0.0071(12) -0.0042(11) -0.0051(11) 
C33 0.0394(18) 0.0316(17) 0.059(2) 0.0111(15) -0.0091(14) -0.0054(13) 
C34 0.0124(11) 0.0170(12) 0.0186(13) 0.0000(9) -0.0033(8) 0.0006(8) 
C35 0.0166(12) 0.0202(13) 0.0214(14) 0.0023(10) -0.0032(9) -0.0029(9) 
C36 0.0211(13) 0.0238(14) 0.0199(13) 0.0051(10) 0.0003(9) -0.0029(10) 
C37 0.0245(14) 0.0232(14) 0.0276(14) 0.0020(11) -0.0023(10) -0.0002(10) 
C38 0.0195(13) 0.0310(15) 0.0325(15) 0.0001(11) -0.0012(10) -0.0005(10) 
C39 0.0285(14) 0.0233(14) 0.0184(13) 0.0002(10) -0.0017(10) -0.0029(10) 
C40 0.0297(14) 0.0265(14) 0.0242(14) 0.0010(11) -0.0027(10) -0.0073(11) 
C41 0.0414(17) 0.0349(17) 0.0306(16) 0.0003(12) -0.0037(12) -0.0142(13) 
C42 0.0191(12) 0.0276(14) 0.0194(13) 0.0038(10) -0.0047(9) -0.0042(10) 
C43 0.0219(13) 0.0255(14) 0.0255(14) 0.0037(10) -0.0030(10) 0.0003(10) 
C44 0.0371(16) 0.0296(15) 0.0277(15) -0.0032(11) -0.0085(11) -0.0001(12) 
 
_geom_special_details 
; 
 All esds (except the esd in the dihedral angle between two l.s. planes) 
 are estimated using the full covariance matrix.  The cell esds are taken 
 into account individually in the estimation of esds in distances, angles 
 and torsion angles; correlations between esds in cell parameters are only 
 used when they are defined by crystal symmetry.  An approximate (isotropic) 
 treatment of cell esds is used for estimating esds involving l.s. planes. 
; 
 
loop_ 
 _geom_bond_atom_site_label_1 
 _geom_bond_atom_site_label_2 
 _geom_bond_distance 
 _geom_bond_site_symmetry_2 
 _geom_bond_publ_flag 
Si2 C35 1.845(2) . ? 
Si2 C36 1.874(2) . ? 
Si2 C39 1.875(3) . ? 
Si2 C42 1.880(3) . ? 
Si1 C24 1.843(3) . ? 
Si1 C25 1.868(3) . ? 
Si1 C28 1.871(3) . ? 
Si1 C31 1.873(3) . ? 
Si1 C25' 1.98(3) . ? 
Cl1 C5 1.723(2) . ? 
Cl2 C6 1.720(2) . ? 
Cl3 C7 1.722(2) . ? 
Cl4 C8 1.725(2) . ? 
Cl5 C16 1.726(2) . ? 
Cl6 C17 1.721(2) . ? 
Cl7 C18 1.719(2) . ? 
Cl8 C19 1.727(2) . ? 
C1 C22 1.417(3) . ? 
C1 C2 1.420(3) . ? 
C1 C23 1.432(3) . ? 
C2 C3 1.406(3) . ? 
C2 C11 1.436(3) . ? 
C3 C4 1.390(3) . ? 
C3 H3 0.9500 . ? 
C4 C5 1.436(3) . ? 
C4 C9 1.448(3) . ? 
C5 C6 1.360(3) . ? 
C6 C7 1.437(3) . ? 
C7 C8 1.359(3) . ? 
C8 C9 1.441(3) . ? 
C9 C10 1.381(3) . ? 
C10 C11 1.408(3) . ? 
C10 H10 0.9500 . ? 
C11 C12 1.420(3) . ? 
C12 C13 1.415(3) . ? 
C12 C34 1.428(3) . ? 
C13 C14 1.408(3) . ? 
C13 C22 1.441(3) . ? 
C14 C15 1.387(3) . ? 
C14 H14 0.9500 . ? 
C15 C16 1.438(3) . ? 
C15 C20 1.443(3) . ? 
C16 C17 1.361(3) . ? 
C17 C18 1.436(3) . ? 
C18 C19 1.357(3) . ? 
C19 C20 1.442(3) . ? 
C20 C21 1.389(3) . ? 
C21 C22 1.406(3) . ? 
C21 H21 0.9500 . ? 
C23 C24 1.206(3) . ? 
C25 C26 1.515(4) . ? 
C25 H25A 0.9900 . ? 
C25 H25B 0.9900 . ? 
C26 C27 1.525(5) . ? 
C26 H26A 0.9900 . ? 
C26 H26B 0.9900 . ? 
C27 H27A 0.9800 . ? 
C27 H27B 0.9800 . ? 
C27 H27C 0.9800 . ? 
C25' C26' 1.492(19) . ? 
C25' H25C 0.9900 . ? 
C25' H25D 0.9900 . ? 
C26' C27' 1.529(19) . ? 
C26' H26C 0.9900 . ? 
C26' H26D 0.9900 . ? 
C27' H27D 0.9800 . ? 
C27' H27E 0.9800 . ? 
C27' H27F 0.9800 . ? 
C28 C29 1.534(4) . ? 
C28 H28A 0.9900 . ? 
C28 H28B 0.9900 . ? 
C29 C30 1.526(4) . ? 
C29 H29A 0.9900 . ? 
C29 H29B 0.9900 . ? 
C30 H30A 0.9800 . ? 
C30 H30B 0.9800 . ? 
C30 H30C 0.9800 . ? 
C31 C32 1.534(4) . ? 
C31 H31A 0.9900 . ? 
C31 H31B 0.9900 . ? 
C32 C33 1.513(4) . ? 
C32 H32A 0.9900 . ? 
C32 H32B 0.9900 . ? 
C33 H33A 0.9800 . ? 
C33 H33B 0.9800 . ? 
C33 H33C 0.9800 . ? 
C34 C35 1.210(3) . ? 
C36 C37 1.531(3) . ? 
C36 H36A 0.9900 . ? 
C36 H36B 0.9900 . ? 
C37 C38 1.522(3) . ? 
C37 H37A 0.9900 . ? 
C37 H37B 0.9900 . ? 
C38 H38A 0.9800 . ? 
C38 H38B 0.9800 . ? 
C38 H38C 0.9800 . ? 
C39 C40 1.538(3) . ? 
C39 H39A 0.9900 . ? 
C39 H39B 0.9900 . ? 
C40 C41 1.522(4) . ? 
C40 H40A 0.9900 . ? 
C40 H40B 0.9900 . ? 
C41 H41A 0.9800 . ? 
C41 H41B 0.9800 . ? 
C41 H41C 0.9800 . ? 
C42 C43 1.532(4) . ? 
C42 H42A 0.9900 . ? 
C42 H42B 0.9900 . ? 
C43 C44 1.517(4) . ? 
C43 H43A 0.9900 . ? 
C43 H43B 0.9900 . ? 
C44 H44A 0.9800 . ? 
C44 H44B 0.9800 . ? 
C44 H44C 0.9800 . ? 
 
loop_ 
 _geom_angle_atom_site_label_1 
 _geom_angle_atom_site_label_2 
 _geom_angle_atom_site_label_3 
 _geom_angle 
 _geom_angle_site_symmetry_1 
 _geom_angle_site_symmetry_3 
 _geom_angle_publ_flag 
C35 Si2 C36 108.32(11) . . ? 
C35 Si2 C39 106.61(11) . . ? 
C36 Si2 C39 115.51(12) . . ? 
C35 Si2 C42 109.42(11) . . ? 
C36 Si2 C42 109.47(11) . . ? 
C39 Si2 C42 107.38(12) . . ? 
C24 Si1 C25 109.30(12) . . ? 
C24 Si1 C28 108.63(12) . . ? 
C25 Si1 C28 108.64(13) . . ? 
C24 Si1 C31 105.98(12) . . ? 
C25 Si1 C31 113.21(13) . . ? 
C28 Si1 C31 110.97(12) . . ? 
C24 Si1 C25' 107.8(8) . . ? 
C28 Si1 C25' 130.4(9) . . ? 
C31 Si1 C25' 89.7(8) . . ? 
C22 C1 C2 120.6(2) . . ? 
C22 C1 C23 119.7(2) . . ? 
C2 C1 C23 119.7(2) . . ? 
C3 C2 C1 121.6(2) . . ? 
C3 C2 C11 118.9(2) . . ? 
C1 C2 C11 119.5(2) . . ? 
C4 C3 C2 122.0(2) . . ? 
C4 C3 H3 119.0 . . ? 
C2 C3 H3 119.0 . . ? 
C3 C4 C5 122.9(2) . . ? 
C3 C4 C9 118.8(2) . . ? 
C5 C4 C9 118.3(2) . . ? 
C6 C5 C4 121.7(2) . . ? 
C6 C5 Cl1 119.77(18) . . ? 
C4 C5 Cl1 118.53(17) . . ? 
C5 C6 C7 120.1(2) . . ? 
C5 C6 Cl2 121.09(18) . . ? 
C7 C6 Cl2 118.82(17) . . ? 
C8 C7 C6 120.3(2) . . ? 
C8 C7 Cl3 121.05(18) . . ? 
C6 C7 Cl3 118.70(17) . . ? 
C7 C8 C9 121.6(2) . . ? 
C7 C8 Cl4 119.82(18) . . ? 
C9 C8 Cl4 118.55(17) . . ? 
C10 C9 C8 122.6(2) . . ? 
C10 C9 C4 119.4(2) . . ? 
C8 C9 C4 118.0(2) . . ? 
C9 C10 C11 122.0(2) . . ? 
C9 C10 H10 119.0 . . ? 
C11 C10 H10 119.0 . . ? 
C10 C11 C12 121.1(2) . . ? 
C10 C11 C2 118.8(2) . . ? 
C12 C11 C2 120.1(2) . . ? 
C13 C12 C11 120.3(2) . . ? 
C13 C12 C34 121.2(2) . . ? 
C11 C12 C34 118.5(2) . . ? 
C14 C13 C12 121.4(2) . . ? 
C14 C13 C22 118.7(2) . . ? 
C12 C13 C22 119.8(2) . . ? 
C15 C14 C13 121.8(2) . . ? 
C15 C14 H14 119.1 . . ? 
C13 C14 H14 119.1 . . ? 
C14 C15 C16 122.5(2) . . ? 
C14 C15 C20 119.3(2) . . ? 
C16 C15 C20 118.2(2) . . ? 
C17 C16 C15 121.7(2) . . ? 
C17 C16 Cl5 119.85(18) . . ? 
C15 C16 Cl5 118.49(18) . . ? 
C16 C17 C18 120.2(2) . . ? 
C16 C17 Cl6 120.75(19) . . ? 
C18 C17 Cl6 119.05(17) . . ? 
C19 C18 C17 120.1(2) . . ? 
C19 C18 Cl7 121.15(18) . . ? 
C17 C18 Cl7 118.71(17) . . ? 
C18 C19 C20 121.7(2) . . ? 
C18 C19 Cl8 119.89(18) . . ? 
C20 C19 Cl8 118.42(17) . . ? 
C21 C20 C19 122.7(2) . . ? 
C21 C20 C15 119.2(2) . . ? 
C19 C20 C15 118.1(2) . . ? 
C20 C21 C22 121.8(2) . . ? 
C20 C21 H21 119.1 . . ? 
C22 C21 H21 119.1 . . ? 
C21 C22 C1 121.2(2) . . ? 
C21 C22 C13 119.1(2) . . ? 
C1 C22 C13 119.7(2) . . ? 
C24 C23 C1 177.8(3) . . ? 
C23 C24 Si1 173.2(2) . . ? 
C26 C25 Si1 115.5(2) . . ? 
C26 C25 H25A 108.4 . . ? 
Si1 C25 H25A 108.4 . . ? 
C26 C25 H25B 108.4 . . ? 
Si1 C25 H25B 108.4 . . ? 
H25A C25 H25B 107.5 . . ? 
C25 C26 C27 113.0(3) . . ? 
C25 C26 H26A 109.0 . . ? 
C27 C26 H26A 109.0 . . ? 
C25 C26 H26B 109.0 . . ? 
C27 C26 H26B 109.0 . . ? 
H26A C26 H26B 107.8 . . ? 
C26' C25' Si1 109(2) . . ? 
C26' C25' H25C 109.8 . . ? 
Si1 C25' H25C 109.8 . . ? 
C26' C25' H25D 109.8 . . ? 
Si1 C25' H25D 109.8 . . ? 
H25C C25' H25D 108.2 . . ? 
C25' C26' C27' 113(2) . . ? 
C25' C26' H26C 109.0 . . ? 
C27' C26' H26C 109.0 . . ? 
C25' C26' H26D 109.0 . . ? 
C27' C26' H26D 109.0 . . ? 
H26C C26' H26D 107.8 . . ? 
C26' C27' H27D 109.5 . . ? 
C26' C27' H27E 109.5 . . ? 
H27D C27' H27E 109.5 . . ? 
C26' C27' H27F 109.5 . . ? 
H27D C27' H27F 109.5 . . ? 
H27E C27' H27F 109.5 . . ? 
C29 C28 Si1 114.32(18) . . ? 
C29 C28 H28A 108.7 . . ? 
Si1 C28 H28A 108.7 . . ? 
C29 C28 H28B 108.7 . . ? 
Si1 C28 H28B 108.7 . . ? 
H28A C28 H28B 107.6 . . ? 
C30 C29 C28 113.2(2) . . ? 
C30 C29 H29A 108.9 . . ? 
C28 C29 H29A 108.9 . . ? 
C30 C29 H29B 108.9 . . ? 
C28 C29 H29B 108.9 . . ? 
H29A C29 H29B 107.7 . . ? 
C29 C30 H30A 109.5 . . ? 
C29 C30 H30B 109.5 . . ? 
H30A C30 H30B 109.5 . . ? 
C29 C30 H30C 109.5 . . ? 
H30A C30 H30C 109.5 . . ? 
H30B C30 H30C 109.5 . . ? 
C32 C31 Si1 115.32(19) . . ? 
C32 C31 H31A 108.4 . . ? 
Si1 C31 H31A 108.4 . . ? 
C32 C31 H31B 108.4 . . ? 
Si1 C31 H31B 108.4 . . ? 
H31A C31 H31B 107.5 . . ? 
C33 C32 C31 112.9(3) . . ? 
C33 C32 H32A 109.0 . . ? 
C31 C32 H32A 109.0 . . ? 
C33 C32 H32B 109.0 . . ? 
C31 C32 H32B 109.0 . . ? 
H32A C32 H32B 107.8 . . ? 
C32 C33 H33A 109.5 . . ? 
C32 C33 H33B 109.5 . . ? 
H33A C33 H33B 109.5 . . ? 
C32 C33 H33C 109.5 . . ? 
H33A C33 H33C 109.5 . . ? 
H33B C33 H33C 109.5 . . ? 
C35 C34 C12 174.4(2) . . ? 
C34 C35 Si2 172.6(2) . . ? 
C37 C36 Si2 116.80(17) . . ? 
C37 C36 H36A 108.1 . . ? 
Si2 C36 H36A 108.1 . . ? 
C37 C36 H36B 108.1 . . ? 
Si2 C36 H36B 108.1 . . ? 
H36A C36 H36B 107.3 . . ? 
C38 C37 C36 112.1(2) . . ? 
C38 C37 H37A 109.2 . . ? 
C36 C37 H37A 109.2 . . ? 
C38 C37 H37B 109.2 . . ? 
C36 C37 H37B 109.2 . . ? 
H37A C37 H37B 107.9 . . ? 
C37 C38 H38A 109.5 . . ? 
C37 C38 H38B 109.5 . . ? 
H38A C38 H38B 109.5 . . ? 
C37 C38 H38C 109.5 . . ? 
H38A C38 H38C 109.5 . . ? 
H38B C38 H38C 109.5 . . ? 
C40 C39 Si2 112.82(17) . . ? 
C40 C39 H39A 109.0 . . ? 
Si2 C39 H39A 109.0 . . ? 
C40 C39 H39B 109.0 . . ? 
Si2 C39 H39B 109.0 . . ? 
H39A C39 H39B 107.8 . . ? 
C41 C40 C39 113.8(2) . . ? 
C41 C40 H40A 108.8 . . ? 
C39 C40 H40A 108.8 . . ? 
C41 C40 H40B 108.8 . . ? 
C39 C40 H40B 108.8 . . ? 
H40A C40 H40B 107.7 . . ? 
C40 C41 H41A 109.5 . . ? 
C40 C41 H41B 109.5 . . ? 
H41A C41 H41B 109.5 . . ? 
C40 C41 H41C 109.5 . . ? 
H41A C41 H41C 109.5 . . ? 
H41B C41 H41C 109.5 . . ? 
C43 C42 Si2 118.08(17) . . ? 
C43 C42 H42A 107.8 . . ? 
Si2 C42 H42A 107.8 . . ? 
C43 C42 H42B 107.8 . . ? 
Si2 C42 H42B 107.8 . . ? 
H42A C42 H42B 107.1 . . ? 
C44 C43 C42 112.9(2) . . ? 
C44 C43 H43A 109.0 . . ? 
C42 C43 H43A 109.0 . . ? 
C44 C43 H43B 109.0 . . ? 
C42 C43 H43B 109.0 . . ? 
H43A C43 H43B 107.8 . . ? 
C43 C44 H44A 109.5 . . ? 
C43 C44 H44B 109.5 . . ? 
H44A C44 H44B 109.5 . . ? 
C43 C44 H44C 109.5 . . ? 
H44A C44 H44C 109.5 . . ? 
H44B C44 H44C 109.5 . . ? 
 
loop_ 
 _geom_torsion_atom_site_label_1 
 _geom_torsion_atom_site_label_2 
 _geom_torsion_atom_site_label_3 
 _geom_torsion_atom_site_label_4 
 _geom_torsion 
 _geom_torsion_site_symmetry_1 
 _geom_torsion_site_symmetry_2 
 _geom_torsion_site_symmetry_3 
 _geom_torsion_site_symmetry_4 
 _geom_torsion_publ_flag 
C22 C1 C2 C3 -179.7(2) . . . . ? 
C23 C1 C2 C3 -0.7(3) . . . . ? 
C22 C1 C2 C11 0.2(3) . . . . ? 
C23 C1 C2 C11 179.2(2) . . . . ? 
C1 C2 C3 C4 -179.9(2) . . . . ? 
C11 C2 C3 C4 0.2(3) . . . . ? 
C2 C3 C4 C5 179.0(2) . . . . ? 
C2 C3 C4 C9 -1.1(3) . . . . ? 
C3 C4 C5 C6 -178.7(2) . . . . ? 
C9 C4 C5 C6 1.4(3) . . . . ? 
C3 C4 C5 Cl1 1.7(3) . . . . ? 
C9 C4 C5 Cl1 -178.15(16) . . . . ? 
C4 C5 C6 C7 -0.9(3) . . . . ? 
Cl1 C5 C6 C7 178.72(17) . . . . ? 
C4 C5 C6 Cl2 179.89(17) . . . . ? 
Cl1 C5 C6 Cl2 -0.5(3) . . . . ? 
C5 C6 C7 C8 -1.3(3) . . . . ? 
Cl2 C6 C7 C8 177.99(18) . . . . ? 
C5 C6 C7 Cl3 178.61(17) . . . . ? 
Cl2 C6 C7 Cl3 -2.1(3) . . . . ? 
C6 C7 C8 C9 2.8(3) . . . . ? 
Cl3 C7 C8 C9 -177.09(17) . . . . ? 
C6 C7 C8 Cl4 -177.16(17) . . . . ? 
Cl3 C7 C8 Cl4 3.0(3) . . . . ? 
C7 C8 C9 C10 177.0(2) . . . . ? 
Cl4 C8 C9 C10 -3.0(3) . . . . ? 
C7 C8 C9 C4 -2.1(3) . . . . ? 
Cl4 C8 C9 C4 177.81(16) . . . . ? 
C3 C4 C9 C10 0.9(3) . . . . ? 
C5 C4 C9 C10 -179.2(2) . . . . ? 
C3 C4 C9 C8 -179.9(2) . . . . ? 
C5 C4 C9 C8 0.0(3) . . . . ? 
C8 C9 C10 C11 -179.1(2) . . . . ? 
C4 C9 C10 C11 0.1(3) . . . . ? 
C9 C10 C11 C12 179.5(2) . . . . ? 
C9 C10 C11 C2 -0.9(3) . . . . ? 
C3 C2 C11 C10 0.8(3) . . . . ? 
C1 C2 C11 C10 -179.1(2) . . . . ? 
C3 C2 C11 C12 -179.7(2) . . . . ? 
C1 C2 C11 C12 0.4(3) . . . . ? 
C10 C11 C12 C13 178.4(2) . . . . ? 
C2 C11 C12 C13 -1.1(3) . . . . ? 
C10 C11 C12 C34 -2.8(3) . . . . ? 
C2 C11 C12 C34 177.6(2) . . . . ? 
C11 C12 C13 C14 -178.8(2) . . . . ? 
C34 C12 C13 C14 2.5(3) . . . . ? 
C11 C12 C13 C22 1.1(3) . . . . ? 
C34 C12 C13 C22 -177.6(2) . . . . ? 
C12 C13 C14 C15 -179.6(2) . . . . ? 
C22 C13 C14 C15 0.5(3) . . . . ? 
C13 C14 C15 C16 -178.7(2) . . . . ? 
C13 C14 C15 C20 0.6(3) . . . . ? 
C14 C15 C16 C17 179.9(2) . . . . ? 
C20 C15 C16 C17 0.6(3) . . . . ? 
C14 C15 C16 Cl5 0.2(3) . . . . ? 
C20 C15 C16 Cl5 -179.10(16) . . . . ? 
C15 C16 C17 C18 0.6(3) . . . . ? 
Cl5 C16 C17 C18 -179.69(17) . . . . ? 
C15 C16 C17 Cl6 -178.22(18) . . . . ? 
Cl5 C16 C17 Cl6 1.5(3) . . . . ? 
C16 C17 C18 C19 -0.7(3) . . . . ? 
Cl6 C17 C18 C19 178.17(18) . . . . ? 
C16 C17 C18 Cl7 179.01(18) . . . . ? 
Cl6 C17 C18 Cl7 -2.1(3) . . . . ? 
C17 C18 C19 C20 -0.5(3) . . . . ? 
Cl7 C18 C19 C20 179.82(17) . . . . ? 
C17 C18 C19 Cl8 179.08(17) . . . . ? 
Cl7 C18 C19 Cl8 -0.6(3) . . . . ? 
C18 C19 C20 C21 -178.3(2) . . . . ? 
Cl8 C19 C20 C21 2.1(3) . . . . ? 
C18 C19 C20 C15 1.7(3) . . . . ? 
Cl8 C19 C20 C15 -177.89(16) . . . . ? 
C14 C15 C20 C21 -1.0(3) . . . . ? 
C16 C15 C20 C21 178.3(2) . . . . ? 
C14 C15 C20 C19 179.0(2) . . . . ? 
C16 C15 C20 C19 -1.7(3) . . . . ? 
C19 C20 C21 C22 -179.6(2) . . . . ? 
C15 C20 C21 C22 0.4(3) . . . . ? 
C20 C21 C22 C1 -179.9(2) . . . . ? 
C20 C21 C22 C13 0.6(3) . . . . ? 
C2 C1 C22 C21 -179.7(2) . . . . ? 
C23 C1 C22 C21 1.3(3) . . . . ? 
C2 C1 C22 C13 -0.2(3) . . . . ? 
C23 C1 C22 C13 -179.2(2) . . . . ? 
C14 C13 C22 C21 -1.0(3) . . . . ? 
C12 C13 C22 C21 179.0(2) . . . . ? 
C14 C13 C22 C1 179.4(2) . . . . ? 
C12 C13 C22 C1 -0.5(3) . . . . ? 
C24 Si1 C25 C26 50.4(3) . . . . ? 
C28 Si1 C25 C26 168.8(2) . . . . ? 
C31 Si1 C25 C26 -67.5(3) . . . . ? 
C25' Si1 C25 C26 -40.8(19) . . . . ? 
Si1 C25 C26 C27 177.7(3) . . . . ? 
C24 Si1 C25' C26' -62(2) . . . . ? 
C25 Si1 C25' C26' 35.8(17) . . . . ? 
C28 Si1 C25' C26' 74(2) . . . . ? 
C31 Si1 C25' C26' -169(2) . . . . ? 
Si1 C25' C26' C27' -175(4) . . . . ? 
C24 Si1 C28 C29 -42.9(2) . . . . ? 
C25 Si1 C28 C29 -161.73(19) . . . . ? 
C31 Si1 C28 C29 73.2(2) . . . . ? 
C25' Si1 C28 C29 -178.2(10) . . . . ? 
Si1 C28 C29 C30 -172.7(2) . . . . ? 
C24 Si1 C31 C32 175.46(19) . . . . ? 
C25 Si1 C31 C32 -64.7(2) . . . . ? 
C28 Si1 C31 C32 57.7(2) . . . . ? 
C25' Si1 C31 C32 -76.1(9) . . . . ? 
Si1 C31 C32 C33 -176.3(2) . . . . ? 
C35 Si2 C36 C37 -58.1(2) . . . . ? 
C39 Si2 C36 C37 61.3(2) . . . . ? 
C42 Si2 C36 C37 -177.38(19) . . . . ? 
Si2 C36 C37 C38 172.53(19) . . . . ? 
C35 Si2 C39 C40 -40.0(2) . . . . ? 
C36 Si2 C39 C40 -160.39(18) . . . . ? 
C42 Si2 C39 C40 77.2(2) . . . . ? 
Si2 C39 C40 C41 -169.1(2) . . . . ? 
C35 Si2 C42 C43 -76.6(2) . . . . ? 
C36 Si2 C42 C43 41.9(2) . . . . ? 
C39 Si2 C42 C43 168.04(18) . . . . ? 
Si2 C42 C43 C44 68.3(3) . . . . ? 
 
_diffrn_measured_fraction_theta_max    0.969 
_diffrn_reflns_theta_full              68.40 
_diffrn_measured_fraction_theta_full   0.969 
_refine_diff_density_max    0.497 
_refine_diff_density_min   -0.326 
_refine_diff_density_rms    0.068 
