 
data_x09128 
 
_audit_creation_method            SHELXL-97 
_chemical_name_systematic 
; 
 ? 
; 
_chemical_name_common             ? 
_chemical_melting_point           ? 
_chemical_formula_moiety 
 'C24 H22 F4 Si2' 
_chemical_formula_sum 
 'C24 H22 F4 Si2' 
_chemical_formula_weight          442.60 
 
loop_ 
 _atom_type_symbol 
 _atom_type_description 
 _atom_type_scat_dispersion_real 
 _atom_type_scat_dispersion_imag 
 _atom_type_scat_source 
 'C'  'C'   0.0181   0.0091 
 'International Tables Vol C Tables 4.2.6.8 and 6.1.1.4' 
 'H'  'H'   0.0000   0.0000 
 'International Tables Vol C Tables 4.2.6.8 and 6.1.1.4' 
 'F'  'F'   0.0727   0.0534 
 'International Tables Vol C Tables 4.2.6.8 and 6.1.1.4' 
 'Si'  'Si'   0.2541   0.3302 
 'International Tables Vol C Tables 4.2.6.8 and 6.1.1.4' 
 
_symmetry_cell_setting            monoclinic
_symmetry_space_group_name_H-M    'P 21/c'
_symmetry_space_group_name_Hall   '-P 2ybc'
 
loop_ 
 _symmetry_equiv_pos_as_xyz 
 'x, y, z' 
 '-x, y+1/2, -z+1/2' 
 '-x, -y, -z' 
 'x, -y-1/2, z-1/2' 
 
_cell_length_a                    6.7352(4) 
_cell_length_b                    14.8514(8) 
_cell_length_c                    23.3648(13) 
_cell_angle_alpha                 90.00 
_cell_angle_beta                  94.735(4) 
_cell_angle_gamma                 90.00 
_cell_volume                      2329.1(2) 
_cell_formula_units_Z             4 
_cell_measurement_temperature     90.0(2) 
_cell_measurement_reflns_used     5565 
_cell_measurement_theta_min       3.53
_cell_measurement_theta_max       68.30
 
_exptl_crystal_description        needle
_exptl_crystal_colour             yellow
_exptl_crystal_size_max           0.23 
_exptl_crystal_size_mid           0.05 
_exptl_crystal_size_min           0.05 
_exptl_crystal_density_meas       ? 
_exptl_crystal_density_diffrn     1.262 
_exptl_crystal_density_method     'not measured' 
_exptl_crystal_F_000              920 
_exptl_absorpt_coefficient_mu     1.735 
_exptl_absorpt_correction_type    multi-scan 
_exptl_absorpt_correction_T_min   0.691
_exptl_absorpt_correction_T_max   0.918 
_exptl_absorpt_process_details    'Twinabs (Sheldrick, 2006)' 
 
_exptl_special_details 
; 
 All crystals were twinned by a 2-fold rotation about the a axis.
; 
 
_diffrn_ambient_temperature       90.0(2) 
_diffrn_radiation_wavelength      1.54178 
_diffrn_radiation_type            CuK\a 
_diffrn_radiation_source          'fine-focus rotating anode' 
_diffrn_radiation_monochromator   'graded multilayer optics' 
_diffrn_measurement_device_type   'Bruker X8 Proteum diffractometer'
_diffrn_measurement_method        '\f and \w scans'            
_diffrn_detector_area_resol_mean  5.6
_diffrn_standards_number          0 
_diffrn_standards_interval_count  . 
_diffrn_standards_interval_time   . 
_diffrn_standards_decay_%         ? 
_diffrn_reflns_number             16068 
_diffrn_reflns_av_R_equivalents   0.0613 
_diffrn_reflns_av_sigmaI/netI     0.0291 
_diffrn_reflns_limit_h_min        -7 
_diffrn_reflns_limit_h_max        7 
_diffrn_reflns_limit_k_min        0 
_diffrn_reflns_limit_k_max        17 
_diffrn_reflns_limit_l_min        0 
_diffrn_reflns_limit_l_max        28 
_diffrn_reflns_theta_min          3.53 
_diffrn_reflns_theta_max          68.30 
_reflns_number_total              4199 
_reflns_number_gt                 4042 
_reflns_threshold_expression      >2\s(I)    
 
_computing_data_collection        'APEX2 (Bruker-AXS, 2006)'            
_computing_cell_refinement        'APEX2'
_computing_data_reduction         'APEX2'
_computing_structure_solution     'SHELXS-97 (Sheldrick, 2008)' 
_computing_structure_refinement   'SHELXL-97 (Sheldrick, 2008)' 
_computing_molecular_graphics     'XP in SHELXTL (Sheldrick, 2008)'
_computing_publication_material
; 
SHELX-97 (Sheldrick, 2008) and local procedures 
; 
 
_publ_section_exptl_refinement
;
H atoms were found in difference Fourier maps and subsequently placed in
idealized positions with constrained distances of 
0.98 \%A (RCH~3~),
0.95 \%A (C~Ar~H),
and with U~iso~(H) values set to either 1.2U~eq~ or 1.5U~eq~ (RCH~3~) 
of the attached atom. 
;

_refine_special_details 
; 
 Refinement of F^2^ against ALL reflections.  The weighted R-factor wR and 
 goodness of fit S are based on F^2^, conventional R-factors R are based 
 on F, with F set to zero for negative F^2^. The threshold expression of 
 F^2^ > 2\s(F^2^) is used only for calculating R-factors(gt) etc. and is 
 not relevant to the choice of reflections for refinement.  R-factors based 
 on F^2^ are statistically about twice as large as those based on F, and R- 
 factors based on ALL data will be even larger. 

 Crystals were twinned by a 180\% rotation about the a axis.  The model was
 refined against a 2-component composite dataset.
; 
 
_refine_ls_structure_factor_coef  Fsqd  
_refine_ls_matrix_type            full 
_refine_ls_weighting_scheme       calc  
_refine_ls_weighting_details 
 'calc w=1/[\s^2^(Fo^2^)+(0.0846P)^2^+10.8453P] where P=(Fo^2^+2Fc^2^)/3' 
_atom_sites_solution_primary      direct 
_atom_sites_solution_secondary    difmap 
_atom_sites_solution_hydrogens    geom 
_refine_ls_hydrogen_treatment     constr 
_refine_ls_extinction_method      SHELXL 
_refine_ls_extinction_coef        0.0015(3) 
_refine_ls_extinction_expression 
 'Fc^*^=kFc[1+0.001xFc^2^\l^3^/sin(2\q)]^-1/4^' 
_refine_ls_number_reflns          4199 
_refine_ls_number_parameters      279 
_refine_ls_number_restraints      0 
_refine_ls_R_factor_all           0.0697 
_refine_ls_R_factor_gt            0.0679 
_refine_ls_wR_factor_ref          0.2050 
_refine_ls_wR_factor_gt           0.2036 
_refine_ls_goodness_of_fit_ref    1.075 
_refine_ls_restrained_S_all       1.075 
_refine_ls_shift/su_max           0.000 
_refine_ls_shift/su_mean          0.000 
 
loop_ 
 _atom_site_label 
 _atom_site_type_symbol 
 _atom_site_fract_x 
 _atom_site_fract_y 
 _atom_site_fract_z 
 _atom_site_U_iso_or_equiv 
 _atom_site_adp_type 
 _atom_site_occupancy 
 _atom_site_symmetry_multiplicity 
 _atom_site_calc_flag 
 _atom_site_refinement_flags 
 _atom_site_disorder_assembly 
 _atom_site_disorder_group 
Si1 Si 0.2898(2) 0.65128(10) 0.72960(6) 0.0247(3) Uani 1 1 d . . . 
F1 F 0.2874(5) 0.69697(18) 0.49369(12) 0.0245(6) Uani 1 1 d . . . 
C1 C 0.2284(7) 0.4114(3) 0.6140(2) 0.0187(10) Uani 1 1 d . . . 
Si2 Si 0.1023(2) 0.04717(10) 0.40397(6) 0.0281(4) Uani 1 1 d . . . 
F2 F 0.3006(5) 0.7296(2) 0.37946(13) 0.0304(7) Uani 1 1 d . . . 
C2 C 0.2334(7) 0.4317(3) 0.5540(2) 0.0173(9) Uani 1 1 d . . . 
F3 F 0.2820(5) 0.5946(2) 0.30326(12) 0.0326(7) Uani 1 1 d . . . 
C3 C 0.2534(7) 0.5203(3) 0.5346(2) 0.0181(9) Uani 1 1 d . . . 
H3 H 0.2636 0.5683 0.5616 0.022 Uiso 1 1 calc R . . 
F4 F 0.2526(4) 0.4207(2) 0.33823(11) 0.0254(7) Uani 1 1 d . . . 
C4 C 0.2585(7) 0.5386(3) 0.4766(2) 0.0171(9) Uani 1 1 d . . . 
C5 C 0.2772(7) 0.6277(3) 0.4557(2) 0.0190(10) Uani 1 1 d . . . 
C6 C 0.2844(8) 0.6448(3) 0.3994(2) 0.0233(10) Uani 1 1 d . . . 
C7 C 0.2754(7) 0.5738(4) 0.3593(2) 0.0228(11) Uani 1 1 d . . . 
C8 C 0.2590(7) 0.4882(3) 0.3770(2) 0.0224(10) Uani 1 1 d . . . 
C9 C 0.2496(7) 0.4663(3) 0.4361(2) 0.0184(10) Uani 1 1 d . . . 
C10 C 0.2298(7) 0.3786(3) 0.4552(2) 0.0195(10) Uani 1 1 d . . . 
H10 H 0.2217 0.3307 0.4281 0.023 Uiso 1 1 calc R . . 
C11 C 0.2216(7) 0.3594(3) 0.51330(19) 0.0172(9) Uani 1 1 d . . . 
C12 C 0.1987(7) 0.2685(3) 0.5337(2) 0.0200(10) Uani 1 1 d . . . 
C13 C 0.1958(8) 0.2524(3) 0.5913(2) 0.0231(10) Uani 1 1 d . . . 
H13 H 0.1828 0.1924 0.6045 0.028 Uiso 1 1 calc R . . 
C14 C 0.2119(7) 0.3241(3) 0.6316(2) 0.0221(10) Uani 1 1 d . . . 
H14 H 0.2112 0.3112 0.6714 0.026 Uiso 1 1 calc R . . 
C15 C 0.2406(7) 0.4841(3) 0.65442(19) 0.0190(10) Uani 1 1 d . . . 
C16 C 0.2545(7) 0.5488(3) 0.6860(2) 0.0218(10) Uani 1 1 d . . . 
C17 C 0.4937(9) 0.6286(5) 0.7851(2) 0.0380(14) Uani 1 1 d . . . 
H17A H 0.4567 0.5782 0.8091 0.057 Uiso 1 1 calc R . . 
H17B H 0.5181 0.6823 0.8090 0.057 Uiso 1 1 calc R . . 
H17C H 0.6147 0.6132 0.7667 0.057 Uiso 1 1 calc R . . 
C18 C 0.0538(8) 0.6773(4) 0.7624(2) 0.0326(13) Uani 1 1 d . . . 
H18A H -0.0536 0.6859 0.7319 0.049 Uiso 1 1 calc R . . 
H18B H 0.0708 0.7324 0.7853 0.049 Uiso 1 1 calc R . . 
H18C H 0.0200 0.6272 0.7871 0.049 Uiso 1 1 calc R . . 
C19 C 0.3537(11) 0.7440(4) 0.6811(3) 0.0457(16) Uani 1 1 d . . . 
H19A H 0.4848 0.7326 0.6673 0.069 Uiso 1 1 calc R . . 
H19B H 0.3567 0.8012 0.7022 0.069 Uiso 1 1 calc R . . 
H19C H 0.2532 0.7473 0.6484 0.069 Uiso 1 1 calc R . . 
C20 C 0.1747(8) 0.1961(3) 0.4929(2) 0.0232(11) Uani 1 1 d . . . 
C21 C 0.1504(8) 0.1360(4) 0.4580(2) 0.0279(11) Uani 1 1 d . . . 
C22 C -0.1689(9) 0.0216(4) 0.3989(3) 0.0375(14) Uani 1 1 d . . . 
H22A H -0.2024 -0.0084 0.4342 0.056 Uiso 1 1 calc R . . 
H22B H -0.2023 -0.0181 0.3660 0.056 Uiso 1 1 calc R . . 
H22C H -0.2447 0.0777 0.3939 0.056 Uiso 1 1 calc R . . 
C23 C 0.2478(10) -0.0538(4) 0.4276(3) 0.0378(14) Uani 1 1 d . . . 
H23A H 0.3896 -0.0383 0.4328 0.057 Uiso 1 1 calc R . . 
H23B H 0.2275 -0.1011 0.3984 0.057 Uiso 1 1 calc R . . 
H23C H 0.2034 -0.0755 0.4640 0.057 Uiso 1 1 calc R . . 
C24 C 0.1756(12) 0.0921(4) 0.3340(3) 0.0457(16) Uani 1 1 d . . . 
H24A H 0.1060 0.1490 0.3253 0.069 Uiso 1 1 calc R . . 
H24B H 0.1393 0.0484 0.3035 0.069 Uiso 1 1 calc R . . 
H24C H 0.3198 0.1023 0.3366 0.069 Uiso 1 1 calc R . . 
 
loop_ 
 _atom_site_aniso_label 
 _atom_site_aniso_U_11 
 _atom_site_aniso_U_22 
 _atom_site_aniso_U_33 
 _atom_site_aniso_U_23 
 _atom_site_aniso_U_13 
 _atom_site_aniso_U_12 
Si1 0.0210(7) 0.0238(7) 0.0298(7) -0.0074(5) 0.0051(6) -0.0017(6) 
F1 0.0276(16) 0.0159(14) 0.0304(14) -0.0029(11) 0.0046(12) 0.0003(12) 
C1 0.011(2) 0.019(2) 0.027(2) -0.0026(18) 0.0068(18) -0.0013(18) 
Si2 0.0336(8) 0.0195(7) 0.0316(7) -0.0040(6) 0.0061(6) -0.0045(6) 
F2 0.0327(18) 0.0218(15) 0.0368(16) 0.0090(12) 0.0040(14) 0.0017(13) 
C2 0.008(2) 0.018(2) 0.026(2) -0.0027(18) 0.0046(18) 0.0012(18) 
F3 0.0356(18) 0.0348(17) 0.0277(15) 0.0071(13) 0.0055(13) 0.0018(15) 
C3 0.008(2) 0.021(2) 0.024(2) -0.0053(18) 0.0007(17) 0.0007(18) 
F4 0.0255(15) 0.0261(15) 0.0246(14) -0.0055(12) 0.0017(12) 0.0006(13) 
C4 0.007(2) 0.016(2) 0.028(2) -0.0029(18) -0.0007(17) 0.0006(18) 
C5 0.010(2) 0.017(2) 0.030(2) -0.0003(19) 0.0027(18) 0.0000(18) 
C6 0.021(2) 0.018(2) 0.032(3) 0.004(2) 0.006(2) -0.001(2) 
C7 0.016(2) 0.031(3) 0.022(2) 0.002(2) -0.0006(18) -0.001(2) 
C8 0.017(2) 0.024(3) 0.026(2) -0.0049(19) 0.0006(19) 0.003(2) 
C9 0.007(2) 0.024(2) 0.024(2) 0.0026(19) 0.0017(17) 0.0033(18) 
C10 0.012(2) 0.022(2) 0.025(2) -0.0061(19) 0.0018(18) 0.0017(19) 
C11 0.008(2) 0.019(2) 0.024(2) -0.0029(18) 0.0019(17) 0.0010(19) 
C12 0.013(2) 0.017(2) 0.030(2) -0.0027(19) 0.0027(19) -0.0002(19) 
C13 0.021(3) 0.020(2) 0.029(3) 0.0026(19) 0.0025(19) -0.002(2) 
C14 0.015(2) 0.026(3) 0.025(2) 0.000(2) 0.0001(18) -0.002(2) 
C15 0.012(2) 0.024(2) 0.020(2) 0.0019(19) -0.0018(17) 0.0006(19) 
C16 0.017(2) 0.024(2) 0.025(2) 0.001(2) 0.0031(19) 0.000(2) 
C17 0.027(3) 0.052(4) 0.037(3) -0.016(3) 0.009(2) -0.006(3) 
C18 0.024(3) 0.040(3) 0.035(3) -0.012(2) 0.007(2) 0.000(2) 
C19 0.054(4) 0.022(3) 0.064(4) -0.001(3) 0.020(3) -0.005(3) 
C20 0.021(3) 0.017(2) 0.032(3) 0.004(2) 0.003(2) -0.001(2) 
C21 0.024(3) 0.025(3) 0.036(3) 0.003(2) 0.009(2) -0.004(2) 
C22 0.036(3) 0.032(3) 0.043(3) -0.003(2) 0.000(3) -0.007(3) 
C23 0.043(4) 0.027(3) 0.044(3) -0.005(2) 0.010(3) 0.001(3) 
C24 0.065(5) 0.032(3) 0.040(3) -0.002(3) 0.005(3) -0.001(3) 
 
_geom_special_details 
; 
 All esds (except the esd in the dihedral angle between two l.s. planes) 
 are estimated using the full covariance matrix.  The cell esds are taken 
 into account individually in the estimation of esds in distances, angles 
 and torsion angles; correlations between esds in cell parameters are only 
 used when they are defined by crystal symmetry.  An approximate (isotropic) 
 treatment of cell esds is used for estimating esds involving l.s. planes. 
; 
 
loop_ 
 _geom_bond_atom_site_label_1 
 _geom_bond_atom_site_label_2 
 _geom_bond_distance 
 _geom_bond_site_symmetry_2 
 _geom_bond_publ_flag 
Si1 C16 1.837(5) . ? 
Si1 C17 1.840(6) . ? 
Si1 C19 1.856(6) . ? 
Si1 C18 1.860(6) . ? 
F1 C5 1.356(5) . ? 
C1 C14 1.367(7) . ? 
C1 C15 1.432(7) . ? 
C1 C2 1.438(6) . ? 
Si2 C21 1.836(6) . ? 
Si2 C23 1.850(6) . ? 
Si2 C22 1.860(6) . ? 
Si2 C24 1.868(6) . ? 
F2 C6 1.351(6) . ? 
C2 C3 1.402(7) . ? 
C2 C11 1.431(6) . ? 
F3 C7 1.350(6) . ? 
C3 C4 1.386(7) . ? 
C3 H3 0.9500 . ? 
F4 C8 1.349(6) . ? 
C4 C5 1.420(7) . ? 
C4 C9 1.429(6) . ? 
C5 C6 1.344(7) . ? 
C6 C7 1.408(7) . ? 
C7 C8 1.344(7) . ? 
C8 C9 1.426(7) . ? 
C9 C10 1.387(7) . ? 
C10 C11 1.393(7) . ? 
C10 H10 0.9500 . ? 
C11 C12 1.445(7) . ? 
C12 C13 1.368(7) . ? 
C12 C20 1.438(7) . ? 
C13 C14 1.418(7) . ? 
C13 H13 0.9500 . ? 
C14 H14 0.9500 . ? 
C15 C16 1.210(7) . ? 
C17 H17A 0.9800 . ? 
C17 H17B 0.9800 . ? 
C17 H17C 0.9800 . ? 
C18 H18A 0.9800 . ? 
C18 H18B 0.9800 . ? 
C18 H18C 0.9800 . ? 
C19 H19A 0.9800 . ? 
C19 H19B 0.9800 . ? 
C19 H19C 0.9800 . ? 
C20 C21 1.211(7) . ? 
C22 H22A 0.9800 . ? 
C22 H22B 0.9800 . ? 
C22 H22C 0.9800 . ? 
C23 H23A 0.9800 . ? 
C23 H23B 0.9800 . ? 
C23 H23C 0.9800 . ? 
C24 H24A 0.9800 . ? 
C24 H24B 0.9800 . ? 
C24 H24C 0.9800 . ? 
 
loop_ 
 _geom_angle_atom_site_label_1 
 _geom_angle_atom_site_label_2 
 _geom_angle_atom_site_label_3 
 _geom_angle 
 _geom_angle_site_symmetry_1 
 _geom_angle_site_symmetry_3 
 _geom_angle_publ_flag 
C16 Si1 C17 107.1(3) . . ? 
C16 Si1 C19 107.6(3) . . ? 
C17 Si1 C19 111.6(3) . . ? 
C16 Si1 C18 109.0(2) . . ? 
C17 Si1 C18 111.2(3) . . ? 
C19 Si1 C18 110.2(3) . . ? 
C14 C1 C15 121.3(4) . . ? 
C14 C1 C2 120.0(4) . . ? 
C15 C1 C2 118.7(4) . . ? 
C21 Si2 C23 108.6(3) . . ? 
C21 Si2 C22 107.9(3) . . ? 
C23 Si2 C22 110.3(3) . . ? 
C21 Si2 C24 107.5(3) . . ? 
C23 Si2 C24 112.2(3) . . ? 
C22 Si2 C24 110.3(3) . . ? 
C3 C2 C11 119.4(4) . . ? 
C3 C2 C1 121.4(4) . . ? 
C11 C2 C1 119.1(4) . . ? 
C4 C3 C2 120.7(4) . . ? 
C4 C3 H3 119.6 . . ? 
C2 C3 H3 119.6 . . ? 
C3 C4 C5 122.0(4) . . ? 
C3 C4 C9 119.8(4) . . ? 
C5 C4 C9 118.1(4) . . ? 
C6 C5 F1 119.6(4) . . ? 
C6 C5 C4 121.6(4) . . ? 
F1 C5 C4 118.8(4) . . ? 
C5 C6 F2 121.6(5) . . ? 
C5 C6 C7 120.5(5) . . ? 
F2 C6 C7 118.0(4) . . ? 
C8 C7 F3 121.6(5) . . ? 
C8 C7 C6 120.3(4) . . ? 
F3 C7 C6 118.2(4) . . ? 
C7 C8 F4 119.8(4) . . ? 
C7 C8 C9 121.6(5) . . ? 
F4 C8 C9 118.6(4) . . ? 
C10 C9 C8 122.6(4) . . ? 
C10 C9 C4 119.5(4) . . ? 
C8 C9 C4 117.9(4) . . ? 
C9 C10 C11 121.2(4) . . ? 
C9 C10 H10 119.4 . . ? 
C11 C10 H10 119.4 . . ? 
C10 C11 C2 119.4(4) . . ? 
C10 C11 C12 121.8(4) . . ? 
C2 C11 C12 118.9(4) . . ? 
C13 C12 C20 120.8(5) . . ? 
C13 C12 C11 119.9(4) . . ? 
C20 C12 C11 119.2(4) . . ? 
C12 C13 C14 120.9(5) . . ? 
C12 C13 H13 119.5 . . ? 
C14 C13 H13 119.5 . . ? 
C1 C14 C13 121.1(4) . . ? 
C1 C14 H14 119.4 . . ? 
C13 C14 H14 119.4 . . ? 
C16 C15 C1 176.1(5) . . ? 
C15 C16 Si1 175.1(4) . . ? 
Si1 C17 H17A 109.5 . . ? 
Si1 C17 H17B 109.5 . . ? 
H17A C17 H17B 109.5 . . ? 
Si1 C17 H17C 109.5 . . ? 
H17A C17 H17C 109.5 . . ? 
H17B C17 H17C 109.5 . . ? 
Si1 C18 H18A 109.5 . . ? 
Si1 C18 H18B 109.5 . . ? 
H18A C18 H18B 109.5 . . ? 
Si1 C18 H18C 109.5 . . ? 
H18A C18 H18C 109.5 . . ? 
H18B C18 H18C 109.5 . . ? 
Si1 C19 H19A 109.5 . . ? 
Si1 C19 H19B 109.5 . . ? 
H19A C19 H19B 109.5 . . ? 
Si1 C19 H19C 109.5 . . ? 
H19A C19 H19C 109.5 . . ? 
H19B C19 H19C 109.5 . . ? 
C21 C20 C12 178.5(6) . . ? 
C20 C21 Si2 177.3(5) . . ? 
Si2 C22 H22A 109.5 . . ? 
Si2 C22 H22B 109.5 . . ? 
H22A C22 H22B 109.5 . . ? 
Si2 C22 H22C 109.5 . . ? 
H22A C22 H22C 109.5 . . ? 
H22B C22 H22C 109.5 . . ? 
Si2 C23 H23A 109.5 . . ? 
Si2 C23 H23B 109.5 . . ? 
H23A C23 H23B 109.5 . . ? 
Si2 C23 H23C 109.5 . . ? 
H23A C23 H23C 109.5 . . ? 
H23B C23 H23C 109.5 . . ? 
Si2 C24 H24A 109.5 . . ? 
Si2 C24 H24B 109.5 . . ? 
H24A C24 H24B 109.5 . . ? 
Si2 C24 H24C 109.5 . . ? 
H24A C24 H24C 109.5 . . ? 
H24B C24 H24C 109.5 . . ? 
 
loop_ 
 _geom_torsion_atom_site_label_1 
 _geom_torsion_atom_site_label_2 
 _geom_torsion_atom_site_label_3 
 _geom_torsion_atom_site_label_4 
 _geom_torsion 
 _geom_torsion_site_symmetry_1 
 _geom_torsion_site_symmetry_2 
 _geom_torsion_site_symmetry_3 
 _geom_torsion_site_symmetry_4 
 _geom_torsion_publ_flag 
C14 C1 C2 C3 -179.0(4) . . . . ? 
C15 C1 C2 C3 1.2(7) . . . . ? 
C14 C1 C2 C11 -0.2(7) . . . . ? 
C15 C1 C2 C11 179.9(4) . . . . ? 
C11 C2 C3 C4 1.1(7) . . . . ? 
C1 C2 C3 C4 179.8(4) . . . . ? 
C2 C3 C4 C5 179.6(4) . . . . ? 
C2 C3 C4 C9 -2.0(7) . . . . ? 
C3 C4 C5 C6 179.2(5) . . . . ? 
C9 C4 C5 C6 0.8(7) . . . . ? 
C3 C4 C5 F1 -1.0(7) . . . . ? 
C9 C4 C5 F1 -179.5(4) . . . . ? 
F1 C5 C6 F2 -0.3(7) . . . . ? 
C4 C5 C6 F2 179.5(4) . . . . ? 
F1 C5 C6 C7 179.6(4) . . . . ? 
C4 C5 C6 C7 -0.7(8) . . . . ? 
C5 C6 C7 C8 0.2(8) . . . . ? 
F2 C6 C7 C8 -179.9(5) . . . . ? 
C5 C6 C7 F3 179.6(5) . . . . ? 
F2 C6 C7 F3 -0.5(7) . . . . ? 
F3 C7 C8 F4 1.3(7) . . . . ? 
C6 C7 C8 F4 -179.3(4) . . . . ? 
F3 C7 C8 C9 -179.3(4) . . . . ? 
C6 C7 C8 C9 0.1(8) . . . . ? 
C7 C8 C9 C10 179.1(5) . . . . ? 
F4 C8 C9 C10 -1.5(7) . . . . ? 
C7 C8 C9 C4 0.0(7) . . . . ? 
F4 C8 C9 C4 179.4(4) . . . . ? 
C3 C4 C9 C10 2.0(6) . . . . ? 
C5 C4 C9 C10 -179.5(4) . . . . ? 
C3 C4 C9 C8 -178.9(4) . . . . ? 
C5 C4 C9 C8 -0.4(6) . . . . ? 
C8 C9 C10 C11 179.9(4) . . . . ? 
C4 C9 C10 C11 -1.1(7) . . . . ? 
C9 C10 C11 C2 0.1(7) . . . . ? 
C9 C10 C11 C12 179.3(4) . . . . ? 
C3 C2 C11 C10 -0.2(6) . . . . ? 
C1 C2 C11 C10 -178.9(4) . . . . ? 
C3 C2 C11 C12 -179.3(4) . . . . ? 
C1 C2 C11 C12 2.0(6) . . . . ? 
C10 C11 C12 C13 178.5(5) . . . . ? 
C2 C11 C12 C13 -2.4(7) . . . . ? 
C10 C11 C12 C20 -2.8(7) . . . . ? 
C2 C11 C12 C20 176.3(4) . . . . ? 
C20 C12 C13 C14 -177.6(5) . . . . ? 
C11 C12 C13 C14 1.0(7) . . . . ? 
C15 C1 C14 C13 178.7(5) . . . . ? 
C2 C1 C14 C13 -1.1(7) . . . . ? 
C12 C13 C14 C1 0.8(8) . . . . ? 
 
_diffrn_measured_fraction_theta_max    0.962 
_diffrn_reflns_theta_full              68.30 
_diffrn_measured_fraction_theta_full   0.962 
_refine_diff_density_max    0.529 
_refine_diff_density_min   -0.494 
_refine_diff_density_rms    0.113 
