 data_k01135  _audit_creation_method            SHELXL-97 _chemical_name_systematic ;  ? ; _chemical_name_common             ? _chemical_melting_point           ? _chemical_formula_moiety          ? _chemical_formula_sum  'C36 H50 Si2' _chemical_formula_weight          538.94  loop_  _atom_type_symbol  _atom_type_description  _atom_type_scat_dispersion_real  _atom_type_scat_dispersion_imag  _atom_type_scat_source  'C'  'C'    .0033    .0016  'International Tables Vol C Tables 4.2.6.8 and 6.1.1.4'  'H'  'H'    .0000    .0000  'International Tables Vol C Tables 4.2.6.8 and 6.1.1.4'  'Si'  'Si'    .0817    .0704  'International Tables Vol C Tables 4.2.6.8 and 6.1.1.4'  _symmetry_cell_setting            orthorhombic_symmetry_space_group_name_H-M    'P b c a' loop_  _symmetry_equiv_pos_as_xyz  'x, y, z'  '-x+1/2, -y, z+1/2'  'x+1/2, -y+1/2, -z'  '-x, y+1/2, -z+1/2'  '-x, -y, -z'  'x-1/2, y, -z-1/2'  '-x-1/2, y-1/2, z'  'x, -y-1/2, z-1/2'  _cell_length_a                    14.88(2) _cell_length_b                    14.26(2) _cell_length_c                    30.73(4) _cell_angle_alpha                 90.00(3) _cell_angle_beta                  90.00(3) _cell_angle_gamma                 90.00(3) _cell_volume                      6518(15) _cell_formula_units_Z             8 _cell_measurement_temperature     173(2) _cell_measurement_reflns_used     297783 _cell_measurement_theta_min       1.00_cell_measurement_theta_max       25.35 _exptl_crystal_description        'thin plate'_exptl_crystal_colour             yellow_exptl_crystal_size_max           0.44_exptl_crystal_size_mid           0.32_exptl_crystal_size_min           0.02_exptl_crystal_density_meas       ? _exptl_crystal_density_diffrn     1.098 _exptl_crystal_density_method     'not measured' _exptl_crystal_F_000              2352 _exptl_absorpt_coefficient_mu     0.131 _exptl_absorpt_correction_type    none _exptl_absorpt_correction_T_min   ? _exptl_absorpt_correction_T_max   ? _exptl_absorpt_process_details    ?  _exptl_special_details ; Crystals were extremely thin plates that appeared to be moderately poorly aligned stacks of even thinner plates.  Diffraction strength was poor (hence the limited 2\q range) and weak (hence the poor agreement statistics.Nevertheless, solution was straightforward in Pbca and the moleculargeometry is largely unremarkable.  Data collection was long for a small-molecule ccd dataset (about 40 hours), which is testimony in itself to howpoorly the crystals diffracted.;  _diffrn_ambient_temperature       173(1) _diffrn_radiation_wavelength      0.71073 _diffrn_radiation_type            MoK\a _diffrn_radiation_source          'fine-focus sealed tube' _diffrn_radiation_monochromator   graphite _diffrn_measurement_device_type   'Nonius KappaCCD diffractometer' _diffrn_measurement_method        '\w scans at fixed \c = 55\%'_diffrn_detector_area_resol_mean  18 _diffrn_standards_number          ?_diffrn_standards_interval_count  ? _diffrn_standards_interval_time   ? _diffrn_standards_decay_%         <1_diffrn_reflns_number             23956 _diffrn_reflns_av_R_equivalents   0.1694 _diffrn_reflns_av_sigmaI/netI     0.0922 _diffrn_reflns_limit_h_min        -14 _diffrn_reflns_limit_h_max        14 _diffrn_reflns_limit_k_min        -14 _diffrn_reflns_limit_k_max        14 _diffrn_reflns_limit_l_min        -30 _diffrn_reflns_limit_l_max        30 _diffrn_reflns_theta_min          1.33 _diffrn_reflns_theta_max          20.99 _reflns_number_total              3503 _reflns_number_gt                 3126 _reflns_threshold_expression      >2sigma(I)  _computing_data_collection        'COLLECT (Nonius, 1998)' _computing_cell_refinement        'SCALEPACK (Otwinowski & Minor, 1997)'_computing_data_reduction         'DENZO-SMN (Otwinowski & Minor, 1997)'_computing_structure_solution     'SHELXS-97 (Sheldrick, 1990)' _computing_structure_refinement   'SHELXL-97 (Sheldrick, 1997)' _computing_molecular_graphics     'XP in Siemens SHELXTL (Sheldrick, 1994)'_computing_publication_material   'SHELX97-2 (Sheldrick, 1997) and local procedures'_refine_special_details ;  Refinement of F^2^ against ALL reflections.  The weighted R-factor wR and  goodness of fit S are based on F^2^, conventional R-factors R are based  on F, with F set to zero for negative F^2^. The threshold expression of  F^2^ > 2sigma(F^2^) is used only for calculating R-factors(gt) etc. and is  not relevant to the choice of reflections for refinement.  R-factors based  on F^2^ are statistically about twice as large as those based on F, and R-  factors based on ALL data will be even larger. ;  _refine_ls_structure_factor_coef  Fsqd  _refine_ls_matrix_type            full _refine_ls_weighting_scheme       calc  _refine_ls_weighting_details  'calc w=1/[\s^2^(Fo^2^)+(0.0001P)^2^+30.5050P] where P=(Fo^2^+2Fc^2^)/3' _atom_sites_solution_primary      direct _atom_sites_solution_secondary    difmap _atom_sites_solution_hydrogens    geom _refine_ls_hydrogen_treatment     mixed _refine_ls_extinction_method      none _refine_ls_extinction_coef        ? _refine_ls_number_reflns          3503 _refine_ls_number_parameters      343 _refine_ls_number_restraints      328 _refine_ls_R_factor_all           0.1633 _refine_ls_R_factor_gt            0.1431 _refine_ls_wR_factor_ref          0.2214 _refine_ls_wR_factor_gt           0.2158 _refine_ls_goodness_of_fit_ref    1.515 _refine_ls_restrained_S_all       1.465 _refine_ls_shift/su_max           0.000 _refine_ls_shift/su_mean          0.000  loop_  _atom_site_label  _atom_site_type_symbol  _atom_site_fract_x  _atom_site_fract_y  _atom_site_fract_z  _atom_site_U_iso_or_equiv  _atom_site_adp_type  _atom_site_occupancy  _atom_site_symmetry_multiplicity  _atom_site_calc_flag  _atom_site_refinement_flags  _atom_site_disorder_assembly  _atom_site_disorder_group Si1 Si -0.25387(16) 0.25743(18) 0.23057(7) 0.0253(7) Uani 1 1 d U . . Si2 Si 0.37540(15) 0.30038(17) 0.00221(7) 0.0208(6) Uani 1 1 d U . . C1 C 0.0027(5) 0.2588(6) 0.1539(3) 0.022(2) Uani 1 1 d U . . C2 C 0.0348(5) 0.3445(6) 0.1369(3) 0.020(2) Uani 1 1 d U . . C3 C -0.0051(5) 0.4325(6) 0.1464(2) 0.020(2) Uani 1 1 d U . . H3 H -0.0562 0.4338 0.1649 0.024 Uiso 1 1 calc R . . C4 C 0.0260(6) 0.5146(6) 0.1303(3) 0.026(2) Uani 1 1 d U . . H4 H -0.0016 0.5723 0.1381 0.031 Uiso 1 1 calc R . . C5 C 0.1007(6) 0.5127(6) 0.1017(3) 0.027(2) Uani 1 1 d U . . H5 H 0.1223 0.5698 0.0896 0.032 Uiso 1 1 calc R . . C6 C 0.1415(5) 0.4315(6) 0.0913(2) 0.023(2) Uani 1 1 d U . . H6 H 0.1917 0.4324 0.0722 0.028 Uiso 1 1 calc R . . C7 C 0.1109(6) 0.3440(6) 0.1084(2) 0.021(2) Uani 1 1 d U . . C8 C 0.1513(5) 0.2582(6) 0.0965(2) 0.019(2) Uani 1 1 d U . . C9 C 0.1186(5) 0.1731(6) 0.1132(2) 0.019(2) Uani 1 1 d U . . C10 C 0.1573(5) 0.0846(6) 0.1019(3) 0.021(2) Uani 1 1 d U . . H10 H 0.2070 0.0831 0.0825 0.026 Uiso 1 1 calc R . . C11 C 0.1254(5) 0.0034(6) 0.1178(3) 0.024(2) Uani 1 1 d U . . H11 H 0.1520 -0.0542 0.1092 0.029 Uiso 1 1 calc R . . C12 C 0.0518(6) 0.0031(6) 0.1475(3) 0.026(2) Uani 1 1 d U . . H12 H 0.0299 -0.0545 0.1588 0.032 Uiso 1 1 calc R . . C13 C 0.0132(6) 0.0855(6) 0.1596(3) 0.023(2) Uani 1 1 d U . . H13 H -0.0354 0.0847 0.1796 0.028 Uiso 1 1 calc R . . C14 C 0.0438(5) 0.1730(6) 0.1428(2) 0.017(2) Uani 1 1 d U . . C15 C -0.0761(6) 0.2583(6) 0.1816(3) 0.022(2) Uani 1 1 d U . . C16 C -0.1439(6) 0.2578(6) 0.2028(3) 0.025(2) Uani 1 1 d U . . C17 C -0.3162(7) 0.1556(8) 0.2066(3) 0.053(3) Uani 1 1 d U . . H17 H -0.2811 0.1011 0.2180 0.063 Uiso 1 1 calc R . . C18 C -0.3117(8) 0.1404(8) 0.1603(3) 0.079(4) Uani 1 1 d U . . H18A H -0.2496 0.1481 0.1504 0.118 Uiso 1 1 calc R . . H18B H -0.3503 0.1860 0.1455 0.118 Uiso 1 1 calc R . . H18C H -0.3324 0.0768 0.1536 0.118 Uiso 1 1 calc R . . C19 C -0.4092(7) 0.1395(8) 0.2274(3) 0.064(3) Uani 1 1 d U . . H19A H -0.4049 0.1478 0.2590 0.095 Uiso 1 1 calc R . . H19B H -0.4297 0.0757 0.2209 0.095 Uiso 1 1 calc R . . H19C H -0.4522 0.1848 0.2155 0.095 Uiso 1 1 calc R . . C20 C -0.2364(6) 0.2375(6) 0.2900(3) 0.032(2) Uani 1 1 d U . . H20 H -0.2970 0.2397 0.3041 0.039 Uiso 1 1 calc R . . C21 C -0.1959(7) 0.1420(7) 0.3005(3) 0.060(3) Uani 1 1 d U . . H21A H -0.2328 0.0926 0.2873 0.090 Uiso 1 1 calc R . . H21B H -0.1941 0.1332 0.3321 0.090 Uiso 1 1 calc R . . H21C H -0.1347 0.1386 0.2888 0.090 Uiso 1 1 calc R . . C22 C -0.1798(7) 0.3152(7) 0.3107(3) 0.050(3) Uani 1 1 d U . . H22A H -0.2075 0.3762 0.3046 0.075 Uiso 1 1 calc R . . H22B H -0.1190 0.3137 0.2984 0.075 Uiso 1 1 calc R . . H22C H -0.1768 0.3054 0.3422 0.075 Uiso 1 1 calc R . . C23 C -0.3017(6) 0.3779(6) 0.2212(3) 0.034(2) Uani 1 1 d U . . H23 H -0.2562 0.4235 0.2325 0.040 Uiso 1 1 calc R . . C24 C -0.3891(7) 0.3971(7) 0.2460(3) 0.063(3) Uani 1 1 d U . . H24A H -0.3799 0.3847 0.2770 0.094 Uiso 1 1 calc R . . H24B H -0.4367 0.3561 0.2348 0.094 Uiso 1 1 calc R . . H24C H -0.4066 0.4628 0.2419 0.094 Uiso 1 1 calc R . . C25 C -0.3142(7) 0.4001(8) 0.1728(3) 0.064(3) Uani 1 1 d U . . H25A H -0.2575 0.3896 0.1574 0.096 Uiso 1 1 calc R . . H25B H -0.3325 0.4657 0.1694 0.096 Uiso 1 1 calc R . . H25C H -0.3608 0.3591 0.1606 0.096 Uiso 1 1 calc R . . C26 C 0.2273(6) 0.2585(6) 0.0672(3) 0.023(2) Uani 1 1 d U . . C27 C 0.2892(6) 0.2654(6) 0.0424(3) 0.021(2) Uani 1 1 d U . . C28 C 0.4028(5) 0.2018(6) -0.0358(2) 0.023(2) Uani 1 1 d U . . H28 H 0.4511 0.2257 -0.0555 0.027 Uiso 1 1 calc R . . C29 C 0.3242(6) 0.1724(6) -0.0654(3) 0.035(2) Uani 1 1 d U . . H29A H 0.2993 0.2280 -0.0798 0.052 Uiso 1 1 calc R . . H29B H 0.2774 0.1423 -0.0478 0.052 Uiso 1 1 calc R . . H29C H 0.3459 0.1282 -0.0874 0.052 Uiso 1 1 calc R . . C30 C 0.4418(6) 0.1154(6) -0.0133(3) 0.036(3) Uani 1 1 d U . . H30A H 0.4925 0.1341 0.0052 0.054 Uiso 1 1 calc R . . H30B H 0.4625 0.0706 -0.0352 0.054 Uiso 1 1 calc R . . H30C H 0.3953 0.0860 0.0048 0.054 Uiso 1 1 calc R . . C31 C 0.4775(5) 0.3390(6) 0.0343(3) 0.026(2) Uani 1 1 d U . . H31 H 0.4645 0.4042 0.0446 0.031 Uiso 1 1 calc R . . C32 C 0.4969(6) 0.2808(6) 0.0755(3) 0.034(2) Uani 1 1 d U . . H32A H 0.4423 0.2768 0.0932 0.051 Uiso 1 1 calc R . . H32B H 0.5448 0.3110 0.0923 0.051 Uiso 1 1 calc R . . H32C H 0.5160 0.2176 0.0671 0.051 Uiso 1 1 calc R . . C33 C 0.5618(6) 0.3456(7) 0.0064(3) 0.040(3) Uani 1 1 d U . . H33A H 0.5492 0.3834 -0.0195 0.060 Uiso 1 1 calc R . . H33B H 0.5804 0.2825 -0.0025 0.060 Uiso 1 1 calc R . . H33C H 0.6101 0.3750 0.0233 0.060 Uiso 1 1 calc R . . C34 C 0.3235(6) 0.4047(6) -0.0267(3) 0.028(2) Uani 1 1 d U . . H34 H 0.3284 0.4587 -0.0061 0.034 Uiso 1 1 calc R . . C35 C 0.3755(6) 0.4334(6) -0.0675(3) 0.040(3) Uani 1 1 d U . . H35A H 0.4393 0.4411 -0.0602 0.060 Uiso 1 1 calc R . . H35B H 0.3516 0.4928 -0.0786 0.060 Uiso 1 1 calc R . . H35C H 0.3691 0.3847 -0.0897 0.060 Uiso 1 1 calc R . . C36 C 0.2231(6) 0.3939(7) -0.0370(3) 0.040(3) Uani 1 1 d U . . H36A H 0.1906 0.3776 -0.0103 0.059 Uiso 1 1 calc R . . H36B H 0.2149 0.3441 -0.0586 0.059 Uiso 1 1 calc R . . H36C H 0.1997 0.4531 -0.0486 0.059 Uiso 1 1 calc R . .  loop_  _atom_site_aniso_label  _atom_site_aniso_U_11  _atom_site_aniso_U_22  _atom_site_aniso_U_33  _atom_site_aniso_U_23  _atom_site_aniso_U_13  _atom_site_aniso_U_12 Si1 0.0158(14) 0.0386(16) 0.0215(14) -0.0036(13) 0.0075(12) -0.0020(13) Si2 0.0159(14) 0.0290(14) 0.0175(13) -0.0010(12) 0.0063(12) -0.0034(12) C1 0.020(5) 0.029(5) 0.017(5) 0.004(4) 0.000(4) 0.001(4) C2 0.015(5) 0.024(5) 0.021(5) 0.000(4) 0.000(4) 0.004(4) C3 0.011(5) 0.032(5) 0.016(5) 0.006(4) 0.003(4) 0.002(4) C4 0.024(5) 0.026(5) 0.028(5) 0.002(4) 0.005(4) 0.005(4) C5 0.023(5) 0.031(5) 0.025(5) 0.000(4) -0.005(4) -0.006(4) C6 0.015(5) 0.037(5) 0.018(5) 0.004(4) -0.002(4) -0.001(4) C7 0.018(5) 0.028(5) 0.016(5) 0.000(4) 0.001(4) -0.005(4) C8 0.021(5) 0.029(5) 0.007(4) -0.005(4) -0.002(4) -0.005(4) C9 0.018(5) 0.027(5) 0.013(4) -0.005(4) -0.005(4) -0.005(4) C10 0.015(5) 0.025(5) 0.024(5) 0.004(4) 0.004(4) -0.003(4) C11 0.021(5) 0.022(5) 0.028(5) -0.001(4) -0.001(4) 0.004(4) C12 0.020(5) 0.029(5) 0.030(5) -0.001(4) -0.006(4) -0.010(4) C13 0.027(5) 0.026(5) 0.015(5) 0.000(4) 0.001(4) -0.007(4) C14 0.007(5) 0.025(5) 0.019(5) 0.008(4) -0.005(4) -0.005(4) C15 0.021(5) 0.018(5) 0.028(5) -0.002(4) 0.000(4) 0.003(4) C16 0.021(5) 0.034(5) 0.022(5) -0.011(4) 0.000(4) -0.003(4) C17 0.037(6) 0.083(7) 0.038(6) -0.018(6) 0.007(5) -0.031(6) C18 0.064(8) 0.104(9) 0.069(7) -0.045(7) 0.016(6) -0.045(7) C19 0.045(7) 0.089(8) 0.057(7) -0.023(6) 0.012(5) -0.036(6) C20 0.021(5) 0.049(6) 0.027(5) -0.001(4) 0.003(4) 0.000(5) C21 0.053(7) 0.069(7) 0.059(7) 0.019(6) -0.006(6) 0.005(6) C22 0.052(7) 0.072(7) 0.027(5) -0.012(5) -0.011(5) -0.008(6) C23 0.025(5) 0.052(6) 0.024(5) 0.007(5) 0.009(4) 0.006(5) C24 0.053(7) 0.072(7) 0.062(7) 0.015(6) 0.030(6) 0.031(6) C25 0.067(8) 0.079(8) 0.047(6) 0.020(6) 0.013(6) 0.031(6) C26 0.027(5) 0.022(5) 0.019(5) 0.004(4) 0.000(4) -0.003(4) C27 0.019(5) 0.022(5) 0.022(5) -0.001(4) -0.003(4) -0.001(4) C28 0.015(5) 0.033(5) 0.020(5) 0.003(4) 0.004(4) -0.004(4) C29 0.032(6) 0.034(6) 0.038(5) -0.004(5) 0.001(4) -0.002(5) C30 0.044(6) 0.030(5) 0.033(6) -0.011(4) -0.007(4) 0.003(5) C31 0.025(5) 0.025(5) 0.028(5) -0.008(4) 0.010(4) -0.006(4) C32 0.027(5) 0.047(6) 0.029(5) -0.013(5) 0.005(4) -0.001(5) C33 0.025(5) 0.055(6) 0.041(6) -0.010(5) 0.007(5) -0.010(5) C34 0.033(5) 0.026(5) 0.025(5) 0.003(4) 0.002(4) -0.005(4) C35 0.042(6) 0.038(6) 0.040(6) 0.008(5) -0.002(5) -0.003(5) C36 0.035(6) 0.048(6) 0.035(5) 0.003(5) 0.002(5) 0.018(5)  _geom_special_details ;  All esds (except the esd in the dihedral angle between two l.s. planes)  are estimated using the full covariance matrix.  The cell esds are taken  into account individually in the estimation of esds in distances, angles  and torsion angles; correlations between esds in cell parameters are only  used when they are defined by crystal symmetry.  An approximate (isotropic)  treatment of cell esds is used for estimating esds involving l.s. planes. ;  loop_  _geom_bond_atom_site_label_1  _geom_bond_atom_site_label_2  _geom_bond_distance  _geom_bond_site_symmetry_2  _geom_bond_publ_flag Si1 C16 1.846(9) . ? Si1 C20 1.867(9) . ? Si1 C17 1.873(10) . ? Si1 C23 1.882(9) . ? Si2 C27 1.848(9) . ? Si2 C28 1.872(8) . ? Si2 C31 1.893(8) . ? Si2 C34 1.897(9) . ? C1 C14 1.409(11) . ? C1 C2 1.412(11) . ? C1 C15 1.450(11) . ? C2 C3 1.418(11) . ? C2 C7 1.432(11) . ? C3 C4 1.352(11) . ? C3 H3 0.9500 . ? C4 C5 1.418(11) . ? C4 H4 0.9500 . ? C5 C6 1.348(11) . ? C5 H5 0.9500 . ? C6 C7 1.428(11) . ? C6 H6 0.9500 . ? C7 C8 1.411(11) . ? C8 C9 1.404(11) . ? C8 C26 1.445(11) . ? C9 C10 1.430(11) . ? C9 C14 1.437(11) . ? C10 C11 1.343(10) . ? C10 H10 0.9500 . ? C11 C12 1.425(11) . ? C11 H11 0.9500 . ? C12 C13 1.360(11) . ? C12 H12 0.9500 . ? C13 C14 1.425(11) . ? C13 H13 0.9500 . ? C15 C16 1.199(10) . ? C17 C18 1.440(12) . ? C17 C19 1.542(12) . ? C17 H17 1.0000 . ? C18 H18A 0.9800 . ? C18 H18B 0.9800 . ? C18 H18C 0.9800 . ? C19 H19A 0.9800 . ? C19 H19B 0.9800 . ? C19 H19C 0.9800 . ? C20 C21 1.525(12) . ? C20 C22 1.529(12) . ? C20 H20 1.0000 . ? C21 H21A 0.9800 . ? C21 H21B 0.9800 . ? C21 H21C 0.9800 . ? C22 H22A 0.9800 . ? C22 H22B 0.9800 . ? C22 H22C 0.9800 . ? C23 C25 1.531(12) . ? C23 C24 1.532(12) . ? C23 H23 1.0000 . ? C24 H24A 0.9800 . ? C24 H24B 0.9800 . ? C24 H24C 0.9800 . ? C25 H25A 0.9800 . ? C25 H25B 0.9800 . ? C25 H25C 0.9800 . ? C26 C27 1.201(10) . ? C28 C30 1.527(11) . ? C28 C29 1.541(11) . ? C28 H28 1.0000 . ? C29 H29A 0.9800 . ? C29 H29B 0.9800 . ? C29 H29C 0.9800 . ? C30 H30A 0.9800 . ? C30 H30B 0.9800 . ? C30 H30C 0.9800 . ? C31 C33 1.522(11) . ? C31 C32 1.540(11) . ? C31 H31 1.0000 . ? C32 H32A 0.9800 . ? C32 H32B 0.9800 . ? C32 H32C 0.9800 . ? C33 H33A 0.9800 . ? C33 H33B 0.9800 . ? C33 H33C 0.9800 . ? C34 C35 1.527(11) . ? C34 C36 1.534(11) . ? C34 H34 1.0000 . ? C35 H35A 0.9800 . ? C35 H35B 0.9800 . ? C35 H35C 0.9800 . ? C36 H36A 0.9800 . ? C36 H36B 0.9800 . ? C36 H36C 0.9800 . ?  loop_  _geom_angle_atom_site_label_1  _geom_angle_atom_site_label_2  _geom_angle_atom_site_label_3  _geom_angle  _geom_angle_site_symmetry_1  _geom_angle_site_symmetry_3  _geom_angle_publ_flag C16 Si1 C20 109.3(4) . . ? C16 Si1 C17 105.0(4) . . ? C20 Si1 C17 109.6(4) . . ? C16 Si1 C23 105.1(4) . . ? C20 Si1 C23 110.0(4) . . ? C17 Si1 C23 117.4(5) . . ? C27 Si2 C28 111.4(4) . . ? C27 Si2 C31 106.6(4) . . ? C28 Si2 C31 111.6(4) . . ? C27 Si2 C34 104.0(4) . . ? C28 Si2 C34 112.7(4) . . ? C31 Si2 C34 110.0(4) . . ? C14 C1 C2 121.1(7) . . ? C14 C1 C15 119.2(8) . . ? C2 C1 C15 119.6(8) . . ? C1 C2 C3 123.3(8) . . ? C1 C2 C7 119.2(8) . . ? C3 C2 C7 117.5(8) . . ? C4 C3 C2 123.2(8) . . ? C4 C3 H3 118.4 . . ? C2 C3 H3 118.4 . . ? C3 C4 C5 118.6(8) . . ? C3 C4 H4 120.7 . . ? C5 C4 H4 120.7 . . ? C6 C5 C4 121.1(8) . . ? C6 C5 H5 119.4 . . ? C4 C5 H5 119.4 . . ? C5 C6 C7 121.3(8) . . ? C5 C6 H6 119.3 . . ? C7 C6 H6 119.3 . . ? C8 C7 C6 121.8(8) . . ? C8 C7 C2 119.9(8) . . ? C6 C7 C2 118.2(8) . . ? C9 C8 C7 120.5(7) . . ? C9 C8 C26 120.1(8) . . ? C7 C8 C26 119.3(8) . . ? C8 C9 C10 122.3(8) . . ? C8 C9 C14 120.0(8) . . ? C10 C9 C14 117.7(8) . . ? C11 C10 C9 122.0(8) . . ? C11 C10 H10 119.0 . . ? C9 C10 H10 119.0 . . ? C10 C11 C12 120.4(8) . . ? C10 C11 H11 119.8 . . ? C12 C11 H11 119.8 . . ? C13 C12 C11 119.8(8) . . ? C13 C12 H12 120.1 . . ? C11 C12 H12 120.1 . . ? C12 C13 C14 121.5(8) . . ? C12 C13 H13 119.2 . . ? C14 C13 H13 119.2 . . ? C1 C14 C13 122.3(7) . . ? C1 C14 C9 119.2(7) . . ? C13 C14 C9 118.5(8) . . ? C16 C15 C1 176.7(9) . . ? C15 C16 Si1 174.8(7) . . ? C18 C17 C19 115.3(8) . . ? C18 C17 Si1 118.9(7) . . ? C19 C17 Si1 113.4(7) . . ? C18 C17 H17 101.9 . . ? C19 C17 H17 101.9 . . ? Si1 C17 H17 101.9 . . ? C17 C18 H18A 109.5 . . ? C17 C18 H18B 109.5 . . ? H18A C18 H18B 109.5 . . ? C17 C18 H18C 109.5 . . ? H18A C18 H18C 109.5 . . ? H18B C18 H18C 109.5 . . ? C17 C19 H19A 109.5 . . ? C17 C19 H19B 109.5 . . ? H19A C19 H19B 109.5 . . ? C17 C19 H19C 109.5 . . ? H19A C19 H19C 109.5 . . ? H19B C19 H19C 109.5 . . ? C21 C20 C22 110.0(8) . . ? C21 C20 Si1 113.4(6) . . ? C22 C20 Si1 111.9(6) . . ? C21 C20 H20 107.1 . . ? C22 C20 H20 107.1 . . ? Si1 C20 H20 107.1 . . ? C20 C21 H21A 109.5 . . ? C20 C21 H21B 109.5 . . ? H21A C21 H21B 109.5 . . ? C20 C21 H21C 109.5 . . ? H21A C21 H21C 109.5 . . ? H21B C21 H21C 109.5 . . ? C20 C22 H22A 109.5 . . ? C20 C22 H22B 109.5 . . ? H22A C22 H22B 109.5 . . ? C20 C22 H22C 109.5 . . ? H22A C22 H22C 109.5 . . ? H22B C22 H22C 109.5 . . ? C25 C23 C24 110.0(8) . . ? C25 C23 Si1 112.5(6) . . ? C24 C23 Si1 114.1(6) . . ? C25 C23 H23 106.6 . . ? C24 C23 H23 106.6 . . ? Si1 C23 H23 106.6 . . ? C23 C24 H24A 109.5 . . ? C23 C24 H24B 109.5 . . ? H24A C24 H24B 109.5 . . ? C23 C24 H24C 109.5 . . ? H24A C24 H24C 109.5 . . ? H24B C24 H24C 109.5 . . ? C23 C25 H25A 109.5 . . ? C23 C25 H25B 109.5 . . ? H25A C25 H25B 109.5 . . ? C23 C25 H25C 109.5 . . ? H25A C25 H25C 109.5 . . ? H25B C25 H25C 109.5 . . ? C27 C26 C8 175.4(9) . . ? C26 C27 Si2 168.3(8) . . ? C30 C28 C29 109.6(7) . . ? C30 C28 Si2 114.0(6) . . ? C29 C28 Si2 114.0(6) . . ? C30 C28 H28 106.2 . . ? C29 C28 H28 106.2 . . ? Si2 C28 H28 106.2 . . ? C28 C29 H29A 109.5 . . ? C28 C29 H29B 109.5 . . ? H29A C29 H29B 109.5 . . ? C28 C29 H29C 109.5 . . ? H29A C29 H29C 109.5 . . ? H29B C29 H29C 109.5 . . ? C28 C30 H30A 109.5 . . ? C28 C30 H30B 109.5 . . ? H30A C30 H30B 109.5 . . ? C28 C30 H30C 109.5 . . ? H30A C30 H30C 109.5 . . ? H30B C30 H30C 109.5 . . ? C33 C31 C32 109.9(7) . . ? C33 C31 Si2 112.7(6) . . ? C32 C31 Si2 115.0(6) . . ? C33 C31 H31 106.2 . . ? C32 C31 H31 106.2 . . ? Si2 C31 H31 106.2 . . ? C31 C32 H32A 109.5 . . ? C31 C32 H32B 109.5 . . ? H32A C32 H32B 109.5 . . ? C31 C32 H32C 109.5 . . ? H32A C32 H32C 109.5 . . ? H32B C32 H32C 109.5 . . ? C31 C33 H33A 109.5 . . ? C31 C33 H33B 109.5 . . ? H33A C33 H33B 109.5 . . ? C31 C33 H33C 109.5 . . ? H33A C33 H33C 109.5 . . ? H33B C33 H33C 109.5 . . ? C35 C34 C36 110.6(7) . . ? C35 C34 Si2 112.8(6) . . ? C36 C34 Si2 114.4(6) . . ? C35 C34 H34 106.1 . . ? C36 C34 H34 106.1 . . ? Si2 C34 H34 106.1 . . ? C34 C35 H35A 109.5 . . ? C34 C35 H35B 109.5 . . ? H35A C35 H35B 109.5 . . ? C34 C35 H35C 109.5 . . ? H35A C35 H35C 109.5 . . ? H35B C35 H35C 109.5 . . ? C34 C36 H36A 109.5 . . ? C34 C36 H36B 109.5 . . ? H36A C36 H36B 109.5 . . ? C34 C36 H36C 109.5 . . ? H36A C36 H36C 109.5 . . ? H36B C36 H36C 109.5 . . ?  loop_  _geom_torsion_atom_site_label_1  _geom_torsion_atom_site_label_2  _geom_torsion_atom_site_label_3  _geom_torsion_atom_site_label_4  _geom_torsion  _geom_torsion_site_symmetry_1  _geom_torsion_site_symmetry_2  _geom_torsion_site_symmetry_3  _geom_torsion_site_symmetry_4  _geom_torsion_publ_flag C14 C1 C2 C3 178.9(8) . . . . ? C15 C1 C2 C3 1.4(12) . . . . ? C14 C1 C2 C7 -0.5(12) . . . . ? C15 C1 C2 C7 -178.0(7) . . . . ? C1 C2 C3 C4 179.7(8) . . . . ? C7 C2 C3 C4 -0.9(12) . . . . ? C2 C3 C4 C5 1.7(12) . . . . ? C3 C4 C5 C6 -1.5(12) . . . . ? C4 C5 C6 C7 0.5(12) . . . . ? C5 C6 C7 C8 177.8(8) . . . . ? C5 C6 C7 C2 0.3(12) . . . . ? C1 C2 C7 C8 1.7(12) . . . . ? C3 C2 C7 C8 -177.7(7) . . . . ? C1 C2 C7 C6 179.3(7) . . . . ? C3 C2 C7 C6 -0.1(11) . . . . ? C6 C7 C8 C9 -178.8(7) . . . . ? C2 C7 C8 C9 -1.3(11) . . . . ? C6 C7 C8 C26 1.7(12) . . . . ? C2 C7 C8 C26 179.2(7) . . . . ? C7 C8 C9 C10 179.6(7) . . . . ? C26 C8 C9 C10 -0.9(12) . . . . ? C7 C8 C9 C14 -0.3(11) . . . . ? C26 C8 C9 C14 179.1(7) . . . . ? C8 C9 C10 C11 -179.6(8) . . . . ? C14 C9 C10 C11 0.4(12) . . . . ? C9 C10 C11 C12 -1.1(12) . . . . ? C10 C11 C12 C13 0.5(12) . . . . ? C11 C12 C13 C14 0.7(12) . . . . ? C2 C1 C14 C13 179.7(8) . . . . ? C15 C1 C14 C13 -2.8(12) . . . . ? C2 C1 C14 C9 -1.1(11) . . . . ? C15 C1 C14 C9 176.3(7) . . . . ? C12 C13 C14 C1 177.8(8) . . . . ? C12 C13 C14 C9 -1.3(12) . . . . ? C8 C9 C14 C1 1.6(11) . . . . ? C10 C9 C14 C1 -178.4(7) . . . . ? C8 C9 C14 C13 -179.2(7) . . . . ? C10 C9 C14 C13 0.8(11) . . . . ? C14 C1 C15 C16 -93(16) . . . . ? C2 C1 C15 C16 85(16) . . . . ? C1 C15 C16 Si1 -3(25) . . . . ? C20 Si1 C16 C15 172(9) . . . . ? C17 Si1 C16 C15 55(9) . . . . ? C23 Si1 C16 C15 -70(9) . . . . ? C16 Si1 C17 C18 -42.7(11) . . . . ? C20 Si1 C17 C18 -160.0(9) . . . . ? C23 Si1 C17 C18 73.7(10) . . . . ? C16 Si1 C17 C19 177.0(8) . . . . ? C20 Si1 C17 C19 59.6(9) . . . . ? C23 Si1 C17 C19 -66.7(9) . . . . ? C16 Si1 C20 C21 -63.9(8) . . . . ? C17 Si1 C20 C21 50.7(8) . . . . ? C23 Si1 C20 C21 -178.8(7) . . . . ? C16 Si1 C20 C22 61.2(7) . . . . ? C17 Si1 C20 C22 175.8(7) . . . . ? C23 Si1 C20 C22 -53.7(7) . . . . ? C16 Si1 C23 C25 60.3(8) . . . . ? C20 Si1 C23 C25 177.8(7) . . . . ? C17 Si1 C23 C25 -56.0(8) . . . . ? C16 Si1 C23 C24 -173.5(7) . . . . ? C20 Si1 C23 C24 -55.9(8) . . . . ? C17 Si1 C23 C24 70.3(8) . . . . ? C9 C8 C26 C27 171(10) . . . . ? C7 C8 C26 C27 -10(11) . . . . ? C8 C26 C27 Si2 -7(13) . . . . ? C28 Si2 C27 C26 -140(4) . . . . ? C31 Si2 C27 C26 98(4) . . . . ? C34 Si2 C27 C26 -18(4) . . . . ? C27 Si2 C28 C30 -61.5(7) . . . . ? C31 Si2 C28 C30 57.6(7) . . . . ? C34 Si2 C28 C30 -178.0(6) . . . . ? C27 Si2 C28 C29 65.4(7) . . . . ? C31 Si2 C28 C29 -175.5(6) . . . . ? C34 Si2 C28 C29 -51.1(7) . . . . ? C27 Si2 C31 C33 165.0(6) . . . . ? C28 Si2 C31 C33 43.1(7) . . . . ? C34 Si2 C31 C33 -82.8(7) . . . . ? C27 Si2 C31 C32 38.0(7) . . . . ? C28 Si2 C31 C32 -83.9(7) . . . . ? C34 Si2 C31 C32 150.2(6) . . . . ? C27 Si2 C34 C35 -168.7(6) . . . . ? C28 Si2 C34 C35 -47.9(7) . . . . ? C31 Si2 C34 C35 77.4(7) . . . . ? C27 Si2 C34 C36 -41.2(7) . . . . ? C28 Si2 C34 C36 79.7(7) . . . . ? C31 Si2 C34 C36 -155.0(6) . . . . ?  _diffrn_measured_fraction_theta_max    1.000 _diffrn_reflns_theta_full              20.99 _diffrn_measured_fraction_theta_full   1.000 _refine_diff_density_max     .317 _refine_diff_density_min    -.262 _refine_diff_density_rms     .062 