 
data_k07264 
 
_audit_creation_method            SHELXL-97 
_chemical_name_systematic 
; 
 ? 
; 
_chemical_name_common             ? 
_chemical_melting_point           ? 
_chemical_formula_moiety 
 'C40 H48 F2 S2 Si2' 
_chemical_formula_sum 
 'C40 H48 F2 S2 Si2' 
_chemical_formula_weight          687.10
 
loop_ 
 _atom_type_symbol 
 _atom_type_description 
 _atom_type_scat_dispersion_real 
 _atom_type_scat_dispersion_imag 
 _atom_type_scat_source 
 'C'  'C'   0.0033   0.0016 
 'International Tables Vol C Tables 4.2.6.8 and 6.1.1.4' 
 'H'  'H'   0.0000   0.0000 
 'International Tables Vol C Tables 4.2.6.8 and 6.1.1.4' 
 'F'  'F'   0.0171   0.0103 
 'International Tables Vol C Tables 4.2.6.8 and 6.1.1.4' 
 'Si'  'Si'   0.0817   0.0704 
 'International Tables Vol C Tables 4.2.6.8 and 6.1.1.4' 
 'S'  'S'   0.1246   0.1234 
 'International Tables Vol C Tables 4.2.6.8 and 6.1.1.4' 
 
_symmetry_cell_setting            monoclinic
_symmetry_space_group_name_H-M    'I 2/a'
_symmetry_space_group_name_Hall   '-I 2ya'
 
loop_ 
 _symmetry_equiv_pos_as_xyz 
 'x, y, z' 
 '-x+1/2, y, -z' 
 'x+1/2, y+1/2, z+1/2' 
 '-x+1, y+1/2, -z+1/2' 
 '-x, -y, -z' 
 'x-1/2, -y, z' 
 '-x+1/2, -y+1/2, -z+1/2' 
 'x, -y+1/2, z+1/2' 
 
_cell_length_a                    15.0998(2) 
_cell_length_b                    15.2827(2) 
_cell_length_c                    17.0280(2) 
_cell_angle_alpha                 90.00 
_cell_angle_beta                  103.863(6) 
_cell_angle_gamma                 90.00 
_cell_volume                      3815.02(13) 
_cell_formula_units_Z             4 
_cell_measurement_temperature     120.0(2) 
_cell_measurement_reflns_used     8664
_cell_measurement_theta_min       1.00
_cell_measurement_theta_max       27.48
 
_exptl_crystal_description        block
_exptl_crystal_colour             red
_exptl_crystal_size_max           0.30 
_exptl_crystal_size_mid           0.28 
_exptl_crystal_size_min           0.22 
_exptl_crystal_density_meas       ? 
_exptl_crystal_density_diffrn     1.196 
_exptl_crystal_density_method     'not measured' 
_exptl_crystal_F_000              1464 
_exptl_absorpt_coefficient_mu     0.239 
_exptl_absorpt_correction_type    multi-scan 
_exptl_absorpt_correction_T_min   0.9318 
_exptl_absorpt_correction_T_max   0.9494 
_exptl_absorpt_process_details    'Scalepack (Otwinowski & Minor, 1997)' 
 
_exptl_special_details 
; 
 ? 
; 
 
_diffrn_ambient_temperature       120.0(2) 
_diffrn_radiation_wavelength      0.71073 
_diffrn_radiation_type            MoK\a 
_diffrn_radiation_source          'fine-focus sealed tube'    
_diffrn_radiation_monochromator   'graphite'                 
_diffrn_measurement_device_type   'Nonius KappaCCD diffractometer'  
_diffrn_measurement_method        '\w scans at fixed \c = 55\%'
_diffrn_detector_area_resol_mean  18
_diffrn_standards_number          0 
_diffrn_standards_interval_count  . 
_diffrn_standards_interval_time   . 
_diffrn_standards_decay_%         ? 
_diffrn_reflns_number             16983 
_diffrn_reflns_av_R_equivalents   0.0430 
_diffrn_reflns_av_sigmaI/netI     0.0313 
_diffrn_reflns_limit_h_min        -19 
_diffrn_reflns_limit_h_max        19 
_diffrn_reflns_limit_k_min        -19 
_diffrn_reflns_limit_k_max        19 
_diffrn_reflns_limit_l_min        -22 
_diffrn_reflns_limit_l_max        22 
_diffrn_reflns_theta_min          1.92 
_diffrn_reflns_theta_max          27.52 
_reflns_number_total              4380 
_reflns_number_gt                 3382 
_reflns_threshold_expression      >2\s(I)    
 
_computing_data_collection        'COLLECT (Nonius, 1998)'
_computing_cell_refinement        'SCALEPACK (Otwinowski & Minor, 1997)'
_computing_data_reduction         'DENZO-SMN (Otwinowski & Minor, 1997)'
_computing_structure_solution     'SHELXS-97 (Sheldrick, 1997)' 
_computing_structure_refinement   'SHELXL-97 (Sheldrick, 1997)' 
_computing_molecular_graphics     'XP in SHELXTL (Sheldrick, 1994)'
_computing_publication_material
; 
SHELX97-2 (Sheldrick, 1997) and local procedures 
; 
 
_refine_special_details 
; 
 Refinement of F^2^ against ALL reflections.  The weighted R-factor wR and 
 goodness of fit S are based on F^2^, conventional R-factors R are based 
 on F, with F set to zero for negative F^2^. The threshold expression of 
 F^2^ > 2\s(F^2^) is used only for calculating R-factors(gt) etc. and is 
 not relevant to the choice of reflections for refinement.  R-factors based 
 on F^2^ are statistically about twice as large as those based on F, and R- 
 factors based on ALL data will be even larger. 
; 

_publ_section_exptl_refinement
;
H atoms were found in difference Fourier maps and subsequently placed in
idealized positions with constrained C-H distances of 0.95 \%A (C~Ar~H), 
0.99 \%A (CH~2~) and 0.98 \%A (C~Me~H) with U~iso~(H) values set to either 
1.2U~eq~ or 1.5U~eq~ (C~Me~ only) of the attached C atom.
;

 
_refine_ls_structure_factor_coef  Fsqd  
_refine_ls_matrix_type            full 
_refine_ls_weighting_scheme       calc  
_refine_ls_weighting_details 
 'calc w=1/[\s^2^(Fo^2^)+(0.0622P)^2^+2.5889P] where P=(Fo^2^+2Fc^2^)/3' 
_atom_sites_solution_primary      direct 
_atom_sites_solution_secondary    difmap 
_atom_sites_solution_hydrogens    geom 
_refine_ls_hydrogen_treatment     constr 
_refine_ls_extinction_method      none 
_refine_ls_extinction_coef        ? 
_refine_ls_number_reflns          4380 
_refine_ls_number_parameters      276 
_refine_ls_number_restraints      327 
_refine_ls_R_factor_all           0.0616 
_refine_ls_R_factor_gt            0.0448 
_refine_ls_wR_factor_ref          0.1276 
_refine_ls_wR_factor_gt           0.1164 
_refine_ls_goodness_of_fit_ref    1.050 
_refine_ls_restrained_S_all       1.037 
_refine_ls_shift/su_max           0.000 
_refine_ls_shift/su_mean          0.000 
 
loop_ 
 _atom_site_label 
 _atom_site_type_symbol 
 _atom_site_fract_x 
 _atom_site_fract_y 
 _atom_site_fract_z 
 _atom_site_U_iso_or_equiv 
 _atom_site_adp_type 
 _atom_site_occupancy 
 _atom_site_symmetry_multiplicity 
 _atom_site_calc_flag 
 _atom_site_refinement_flags 
 _atom_site_disorder_assembly 
 _atom_site_disorder_group 
Si1 Si 0.26937(3) 0.60155(3) 0.15868(3) 0.03295(14) Uani 1 1 d . . . 
C1 C 0.25072(10) 0.60577(9) 0.41726(9) 0.0271(3) Uani 1 1 d . . . 
C2 C 0.16632(10) 0.60485(9) 0.43936(9) 0.0273(3) Uani 1 1 d . B . 
C3 C 0.08232(10) 0.60145(9) 0.38022(10) 0.0313(3) Uani 1 1 d . . . 
H3 H 0.0820 0.5975 0.3245 0.038 Uiso 1 1 calc R A 1 
C4 C 0.00175(10) 0.60380(9) 0.40359(10) 0.0324(3) Uani 0.540(2) 1 d PDU B 1 
S5 S -0.10407(13) 0.59904(19) 0.33682(10) 0.0378(4) Uani 0.540(2) 1 d PDU B 1 
C6 C -0.1508(5) 0.6068(12) 0.4222(5) 0.0365(11) Uani 0.540(2) 1 d PDU B 1 
F1 F -0.2427(4) 0.6071(6) 0.4064(3) 0.0477(10) Uani 0.540(2) 1 d PDU B 1 
C7 C -0.0915(5) 0.6117(6) 0.4920(5) 0.0398(14) Uani 0.540(2) 1 d PDU B 1 
H7 H -0.1090 0.6163 0.5419 0.048 Uiso 0.540(2) 1 calc PR B 1 
C8 C 0.00084(10) 0.60965(9) 0.48737(10) 0.0312(3) Uani 0.540(2) 1 d PDU B 1 
C4' C 0.00175(10) 0.60380(9) 0.40359(10) 0.0324(3) Uani 0.460(2) 1 d PDU B 2 
C5' C -0.0937(6) 0.6034(8) 0.3591(5) 0.0383(16) Uani 0.460(2) 1 d PDU B 2 
H5' H -0.1113 0.6008 0.3017 0.046 Uiso 0.460(2) 1 calc PR B 2 
F1' F -0.2456(5) 0.6070(8) 0.3780(3) 0.0477(10) Uani 0.460(2) 1 d PDU B 2 
C6' C -0.1530(6) 0.6069(14) 0.4031(6) 0.0365(11) Uani 0.460(2) 1 d PDU B 2 
S7' S -0.10887(14) 0.61561(19) 0.50822(14) 0.0378(4) Uani 0.460(2) 1 d PDU B 2 
C8' C 0.00084(10) 0.60965(9) 0.48737(10) 0.0312(3) Uani 0.460(2) 1 d PDU B 2 
C9 C 0.08088(10) 0.61083(9) 0.54564(10) 0.0305(3) Uani 1 1 d . . . 
H9 H 0.0797 0.6138 0.6011 0.037 Uiso 1 1 calc R B 1 
C10 C 0.16589(10) 0.60766(9) 0.52360(9) 0.0267(3) Uani 1 1 d . . . 
C11 C 0.25236(10) 0.60445(9) 0.33345(9) 0.0309(3) Uani 1 1 d . . . 
C12 C 0.25606(11) 0.60232(10) 0.26341(10) 0.0346(4) Uani 1 1 d . C . 
C13 C 0.16381(13) 0.64857(13) 0.09242(11) 0.0480(4) Uani 0.532(15) 1 d PDU C 1 
H13A H 0.1587 0.7094 0.1108 0.058 Uiso 0.532(15) 1 calc PR C 1 
H13B H 0.1741 0.6523 0.0372 0.058 Uiso 0.532(15) 1 calc PR C 1 
C14 C 0.0711(4) 0.6057(5) 0.0846(6) 0.0542(15) Uani 0.532(15) 1 d PDU C 1 
H14A H 0.0728 0.5480 0.0586 0.065 Uiso 0.532(15) 1 calc PR C 1 
H14B H 0.0640 0.5944 0.1400 0.065 Uiso 0.532(15) 1 calc PR C 1 
C15 C -0.0132(7) 0.6518(12) 0.0394(11) 0.082(3) Uani 0.532(15) 1 d PDU C 1 
H15A H -0.0266 0.7007 0.0720 0.123 Uiso 0.532(15) 1 calc PR C 1 
H15B H -0.0646 0.6108 0.0285 0.123 Uiso 0.532(15) 1 calc PR C 1 
H15C H -0.0037 0.6742 -0.0119 0.123 Uiso 0.532(15) 1 calc PR C 1 
C13' C 0.16381(13) 0.64857(13) 0.09242(11) 0.0480(4) Uani 0.468(15) 1 d PDU C 2 
H13C H 0.1683 0.7132 0.0946 0.058 Uiso 0.468(15) 1 calc PR C 2 
H13D H 0.1601 0.6304 0.0359 0.058 Uiso 0.468(15) 1 calc PR C 2 
C14' C 0.0772(5) 0.6213(6) 0.1151(6) 0.0547(16) Uani 0.468(15) 1 d PDU C 2 
H14C H 0.0770 0.5569 0.1217 0.066 Uiso 0.468(15) 1 calc PR C 2 
H14D H 0.0753 0.6482 0.1676 0.066 Uiso 0.468(15) 1 calc PR C 2 
C15' C -0.0058(7) 0.6485(12) 0.0521(11) 0.065(3) Uani 0.468(15) 1 d PDU C 2 
H15D H -0.0041 0.7119 0.0435 0.097 Uiso 0.468(15) 1 calc PR C 2 
H15E H -0.0607 0.6334 0.0703 0.097 Uiso 0.468(15) 1 calc PR C 2 
H15F H -0.0067 0.6181 0.0012 0.097 Uiso 0.468(15) 1 calc PR C 2 
C16 C 0.28854(13) 0.48556(11) 0.13146(10) 0.0438(4) Uani 1 1 d . C . 
H16A H 0.2873 0.4835 0.0731 0.053 Uiso 1 1 calc R . . 
H16B H 0.3505 0.4680 0.1615 0.053 Uiso 1 1 calc R . . 
C17 C 0.22077(14) 0.41800(12) 0.14811(14) 0.0523(5) Uani 1 1 d . . . 
H17A H 0.2182 0.4225 0.2055 0.063 Uiso 1 1 calc R C . 
H17B H 0.1593 0.4320 0.1144 0.063 Uiso 1 1 calc R . . 
C18 C 0.24459(18) 0.32418(14) 0.13086(16) 0.0691(6) Uani 1 1 d . C . 
H18A H 0.2432 0.3181 0.0733 0.104 Uiso 1 1 calc R . . 
H18B H 0.2001 0.2841 0.1449 0.104 Uiso 1 1 calc R . . 
H18C H 0.3058 0.3100 0.1633 0.104 Uiso 1 1 calc R . . 
C19 C 0.37119(12) 0.67033(13) 0.15741(12) 0.0487(4) Uani 0.618(5) 1 d PDU C 1 
H19A H 0.3790 0.6752 0.1015 0.058 Uiso 0.618(5) 1 calc PR C 1 
H19B H 0.3630 0.7299 0.1774 0.058 Uiso 0.618(5) 1 calc PR C 1 
C20 C 0.4596(2) 0.6250(2) 0.2146(3) 0.0479(8) Uani 0.618(5) 1 d PDU C 1 
H20A H 0.4442 0.6043 0.2649 0.058 Uiso 0.618(5) 1 calc PR C 1 
H20B H 0.4771 0.5734 0.1866 0.058 Uiso 0.618(5) 1 calc PR C 1 
C21 C 0.5392(2) 0.6872(3) 0.2362(3) 0.0671(12) Uani 0.618(5) 1 d PDU C 1 
H21A H 0.5542 0.7083 0.1866 0.101 Uiso 0.618(5) 1 calc PR C 1 
H21B H 0.5921 0.6568 0.2697 0.101 Uiso 0.618(5) 1 calc PR C 1 
H21C H 0.5231 0.7370 0.2663 0.101 Uiso 0.618(5) 1 calc PR C 1 
C19' C 0.37119(12) 0.67033(13) 0.15741(12) 0.0487(4) Uani 0.382(5) 1 d PDU C 2 
H19C H 0.3558 0.7014 0.1049 0.058 Uiso 0.382(5) 1 calc PR C 2 
H19D H 0.3729 0.7156 0.1993 0.058 Uiso 0.382(5) 1 calc PR C 2 
C20' C 0.4658(4) 0.6416(4) 0.1680(4) 0.0561(14) Uani 0.382(5) 1 d PDU C 2 
H20C H 0.5029 0.6894 0.1530 0.067 Uiso 0.382(5) 1 calc PR C 2 
H20D H 0.4685 0.5907 0.1327 0.067 Uiso 0.382(5) 1 calc PR C 2 
C21' C 0.5029(4) 0.6166(5) 0.2562(4) 0.0605(17) Uani 0.382(5) 1 d PDU C 2 
H21D H 0.4996 0.6672 0.2907 0.091 Uiso 0.382(5) 1 calc PR C 2 
H21E H 0.5665 0.5977 0.2646 0.091 Uiso 0.382(5) 1 calc PR C 2 
H21F H 0.4664 0.5686 0.2702 0.091 Uiso 0.382(5) 1 calc PR C 2 
 
loop_ 
 _atom_site_aniso_label 
 _atom_site_aniso_U_11 
 _atom_site_aniso_U_22 
 _atom_site_aniso_U_33 
 _atom_site_aniso_U_23 
 _atom_site_aniso_U_13 
 _atom_site_aniso_U_12 
Si1 0.0365(3) 0.0354(3) 0.0269(2) 0.00119(17) 0.00766(18) -0.00094(18) 
C1 0.0292(8) 0.0239(7) 0.0285(7) -0.0001(5) 0.0075(6) 0.0000(5) 
C2 0.0284(7) 0.0224(7) 0.0308(7) 0.0008(6) 0.0066(6) -0.0010(5) 
C3 0.0312(8) 0.0288(8) 0.0322(8) 0.0018(6) 0.0045(6) -0.0013(6) 
C4 0.0286(7) 0.0246(7) 0.0412(8) 0.0027(6) 0.0031(6) -0.0016(6) 
S5 0.0230(5) 0.0400(6) 0.0465(8) 0.0000(6) 0.0007(5) -0.0018(4) 
C6 0.0238(8) 0.0313(8) 0.055(3) 0.003(3) 0.0108(14) -0.0008(7) 
F1 0.0230(6) 0.0459(7) 0.077(3) -0.001(3) 0.017(2) -0.0016(5) 
C7 0.034(3) 0.035(2) 0.052(3) 0.001(2) 0.0140(19) -0.002(2) 
C8 0.0266(7) 0.0247(7) 0.0437(8) 0.0021(6) 0.0112(6) -0.0004(6) 
C4' 0.0286(7) 0.0246(7) 0.0412(8) 0.0027(6) 0.0031(6) -0.0016(6) 
C5' 0.029(3) 0.032(2) 0.050(3) 0.001(3) 0.001(2) -0.005(2) 
F1' 0.0230(6) 0.0459(7) 0.077(3) -0.001(3) 0.017(2) -0.0016(5) 
C6' 0.0238(8) 0.0313(8) 0.055(3) 0.003(3) 0.0108(14) -0.0008(7) 
S7' 0.0289(7) 0.0352(6) 0.0531(9) 0.0022(6) 0.0176(5) -0.0009(5) 
C8' 0.0266(7) 0.0247(7) 0.0437(8) 0.0021(6) 0.0112(6) -0.0004(6) 
C9 0.0295(8) 0.0282(7) 0.0358(8) 0.0006(6) 0.0119(6) -0.0007(6) 
C10 0.0269(7) 0.0225(7) 0.0309(7) 0.0001(6) 0.0076(6) -0.0012(5) 
C11 0.0285(7) 0.0292(8) 0.0339(8) 0.0016(6) 0.0056(6) 0.0024(6) 
C12 0.0345(8) 0.0349(8) 0.0343(8) 0.0018(6) 0.0081(7) 0.0031(6) 
C13 0.0430(10) 0.0570(11) 0.0396(9) 0.0093(8) 0.0011(8) -0.0033(8) 
C14 0.041(2) 0.054(3) 0.059(4) 0.005(2) -0.006(3) -0.0019(18) 
C15 0.049(4) 0.082(6) 0.095(6) 0.008(5) -0.020(4) 0.005(4) 
C13' 0.0430(10) 0.0570(11) 0.0396(9) 0.0093(8) 0.0011(8) -0.0033(8) 
C14' 0.041(3) 0.070(4) 0.050(4) 0.012(3) 0.004(3) 0.006(2) 
C15' 0.034(4) 0.067(5) 0.089(6) 0.019(4) 0.005(4) -0.012(4) 
C16 0.0594(11) 0.0402(9) 0.0333(9) -0.0029(7) 0.0142(8) 0.0000(8) 
C17 0.0462(11) 0.0410(10) 0.0651(13) -0.0069(9) 0.0044(9) -0.0061(8) 
C18 0.0808(16) 0.0395(11) 0.0851(17) -0.0104(11) 0.0159(13) -0.0069(10) 
C19 0.0422(10) 0.0480(10) 0.0574(11) -0.0068(9) 0.0152(8) -0.0047(8) 
C20 0.0368(17) 0.066(2) 0.045(2) 0.0064(17) 0.0171(16) -0.0040(15) 
C21 0.0413(18) 0.068(2) 0.089(3) -0.008(2) 0.0101(17) -0.0097(16) 
C19' 0.0422(10) 0.0480(10) 0.0574(11) -0.0068(9) 0.0152(8) -0.0047(8) 
C20' 0.049(3) 0.059(3) 0.066(3) -0.002(3) 0.025(3) -0.007(2) 
C21' 0.040(3) 0.094(4) 0.050(3) 0.002(3) 0.016(3) -0.005(3) 
 
_geom_special_details 
; 
 All esds (except the esd in the dihedral angle between two l.s. planes) 
 are estimated using the full covariance matrix.  The cell esds are taken 
 into account individually in the estimation of esds in distances, angles 
 and torsion angles; correlations between esds in cell parameters are only 
 used when they are defined by crystal symmetry.  An approximate (isotropic) 
 treatment of cell esds is used for estimating esds involving l.s. planes. 
; 
 
loop_ 
 _geom_bond_atom_site_label_1 
 _geom_bond_atom_site_label_2 
 _geom_bond_distance 
 _geom_bond_site_symmetry_2 
 _geom_bond_publ_flag 
Si1 C12 1.8419(17) . ? 
Si1 C13 1.8623(19) . ? 
Si1 C19 1.8669(19) . ? 
Si1 C16 1.8722(18) . ? 
C1 C10 1.412(2) 2_556 ? 
C1 C2 1.413(2) . ? 
C1 C11 1.433(2) . ? 
C2 C3 1.419(2) . ? 
C2 C10 1.437(2) . ? 
C3 C4 1.368(2) . ? 
C3 H3 0.9500 . ? 
C4 C8 1.433(2) . ? 
C4 S5 1.726(2) . ? 
S5 C6 1.765(9) . ? 
C6 C7 1.308(11) . ? 
C6 F1 1.349(7) . ? 
C7 C8 1.415(6) . ? 
C7 H7 0.9500 . ? 
C8 C9 1.368(2) . ? 
C5' C6' 1.300(14) . ? 
C5' H5' 0.9500 . ? 
F1' C6' 1.361(8) . ? 
C6' S7' 1.759(10) . ? 
C9 C10 1.422(2) . ? 
C9 H9 0.9500 . ? 
C10 C1 1.412(2) 2_556 ? 
C11 C12 1.208(2) . ? 
C13 C14 1.523(6) . ? 
C13 H13A 0.9900 . ? 
C13 H13B 0.9900 . ? 
C14 C15 1.497(10) . ? 
C14 H14A 0.9900 . ? 
C14 H14B 0.9900 . ? 
C15 H15A 0.9800 . ? 
C15 H15B 0.9800 . ? 
C15 H15C 0.9800 . ? 
C14' C15' 1.501(10) . ? 
C14' H14C 0.9900 . ? 
C14' H14D 0.9900 . ? 
C15' H15D 0.9800 . ? 
C15' H15E 0.9800 . ? 
C15' H15F 0.9800 . ? 
C16 C17 1.527(3) . ? 
C16 H16A 0.9900 . ? 
C16 H16B 0.9900 . ? 
C17 C18 1.524(3) . ? 
C17 H17A 0.9900 . ? 
C17 H17B 0.9900 . ? 
C18 H18A 0.9800 . ? 
C18 H18B 0.9800 . ? 
C18 H18C 0.9800 . ? 
C19 C20 1.608(4) . ? 
C19 H19A 0.9900 . ? 
C19 H19B 0.9900 . ? 
C20 C21 1.508(5) . ? 
C20 H20A 0.9900 . ? 
C20 H20B 0.9900 . ? 
C21 H21A 0.9800 . ? 
C21 H21B 0.9800 . ? 
C21 H21C 0.9800 . ? 
C20' C21' 1.522(8) . ? 
C20' H20C 0.9900 . ? 
C20' H20D 0.9900 . ? 
C21' H21D 0.9800 . ? 
C21' H21E 0.9800 . ? 
C21' H21F 0.9800 . ? 
 
loop_ 
 _geom_angle_atom_site_label_1 
 _geom_angle_atom_site_label_2 
 _geom_angle_atom_site_label_3 
 _geom_angle 
 _geom_angle_site_symmetry_1 
 _geom_angle_site_symmetry_3 
 _geom_angle_publ_flag 
C12 Si1 C13 107.94(8) . . ? 
C12 Si1 C19 106.79(8) . . ? 
C13 Si1 C19 111.31(9) . . ? 
C12 Si1 C16 107.76(7) . . ? 
C13 Si1 C16 112.09(9) . . ? 
C19 Si1 C16 110.71(9) . . ? 
C10 C1 C2 121.17(13) 2_556 . ? 
C10 C1 C11 119.03(13) 2_556 . ? 
C2 C1 C11 119.80(14) . . ? 
C1 C2 C3 121.42(14) . . ? 
C1 C2 C10 119.07(13) . . ? 
C3 C2 C10 119.51(13) . . ? 
C4 C3 C2 119.90(15) . . ? 
C4 C3 H3 120.0 . . ? 
C2 C3 H3 120.0 . . ? 
C3 C4 C8 120.83(14) . . ? 
C3 C4 S5 123.68(15) . . ? 
C8 C4 S5 115.48(13) . . ? 
C4 S5 C6 86.8(2) . . ? 
C7 C6 F1 128.9(7) . . ? 
C7 C6 S5 115.5(5) . . ? 
F1 C6 S5 115.5(5) . . ? 
C6 C7 C8 114.6(6) . . ? 
C6 C7 H7 122.7 . . ? 
C8 C7 H7 122.7 . . ? 
C9 C8 C7 132.1(3) . . ? 
C9 C8 C4 120.37(14) . . ? 
C7 C8 C4 107.5(3) . . ? 
C6' C5' H5' 122.2 . . ? 
C5' C6' F1' 128.1(8) . . ? 
C5' C6' S7' 116.4(6) . . ? 
F1' C6' S7' 115.5(7) . . ? 
C8 C9 C10 120.31(14) . . ? 
C8 C9 H9 119.8 . . ? 
C10 C9 H9 119.8 . . ? 
C1 C10 C9 121.32(14) 2_556 . ? 
C1 C10 C2 119.66(13) 2_556 . ? 
C9 C10 C2 119.01(14) . . ? 
C12 C11 C1 178.22(17) . . ? 
C11 C12 Si1 176.31(15) . . ? 
C14 C13 Si1 121.5(3) . . ? 
C14 C13 H13A 107.0 . . ? 
Si1 C13 H13A 107.0 . . ? 
C14 C13 H13B 107.0 . . ? 
Si1 C13 H13B 107.0 . . ? 
H13A C13 H13B 106.7 . . ? 
C15 C14 C13 119.6(7) . . ? 
C15 C14 H14A 107.4 . . ? 
C13 C14 H14A 107.4 . . ? 
C15 C14 H14B 107.4 . . ? 
C13 C14 H14B 107.4 . . ? 
H14A C14 H14B 107.0 . . ? 
C15' C14' H14C 109.3 . . ? 
C15' C14' H14D 109.3 . . ? 
H14C C14' H14D 108.0 . . ? 
C14' C15' H15D 109.5 . . ? 
C14' C15' H15E 109.5 . . ? 
H15D C15' H15E 109.5 . . ? 
C14' C15' H15F 109.5 . . ? 
H15D C15' H15F 109.5 . . ? 
H15E C15' H15F 109.5 . . ? 
C17 C16 Si1 116.35(13) . . ? 
C17 C16 H16A 108.2 . . ? 
Si1 C16 H16A 108.2 . . ? 
C17 C16 H16B 108.2 . . ? 
Si1 C16 H16B 108.2 . . ? 
H16A C16 H16B 107.4 . . ? 
C18 C17 C16 113.63(18) . . ? 
C18 C17 H17A 108.8 . . ? 
C16 C17 H17A 108.8 . . ? 
C18 C17 H17B 108.8 . . ? 
C16 C17 H17B 108.8 . . ? 
H17A C17 H17B 107.7 . . ? 
C17 C18 H18A 109.5 . . ? 
C17 C18 H18B 109.5 . . ? 
H18A C18 H18B 109.5 . . ? 
C17 C18 H18C 109.5 . . ? 
H18A C18 H18C 109.5 . . ? 
H18B C18 H18C 109.5 . . ? 
C20 C19 Si1 108.45(16) . . ? 
C20 C19 H19A 110.0 . . ? 
Si1 C19 H19A 110.0 . . ? 
C20 C19 H19B 110.0 . . ? 
Si1 C19 H19B 110.0 . . ? 
H19A C19 H19B 108.4 . . ? 
C21 C20 C19 111.9(3) . . ? 
C21 C20 H20A 109.2 . . ? 
C19 C20 H20A 109.2 . . ? 
C21 C20 H20B 109.2 . . ? 
C19 C20 H20B 109.2 . . ? 
H20A C20 H20B 107.9 . . ? 
C21' C20' H20C 110.0 . . ? 
C21' C20' H20D 110.0 . . ? 
H20C C20' H20D 108.4 . . ? 
C20' C21' H21D 109.5 . . ? 
C20' C21' H21E 109.5 . . ? 
H21D C21' H21E 109.5 . . ? 
C20' C21' H21F 109.5 . . ? 
H21D C21' H21F 109.5 . . ? 
H21E C21' H21F 109.5 . . ? 
 
loop_ 
 _geom_torsion_atom_site_label_1 
 _geom_torsion_atom_site_label_2 
 _geom_torsion_atom_site_label_3 
 _geom_torsion_atom_site_label_4 
 _geom_torsion 
 _geom_torsion_site_symmetry_1 
 _geom_torsion_site_symmetry_2 
 _geom_torsion_site_symmetry_3 
 _geom_torsion_site_symmetry_4 
 _geom_torsion_publ_flag 
C10 C1 C2 C3 -178.91(13) 2_556 . . . ? 
C11 C1 C2 C3 0.9(2) . . . . ? 
C10 C1 C2 C10 1.24(18) 2_556 . . . ? 
C11 C1 C2 C10 -178.98(13) . . . . ? 
C1 C2 C3 C4 -177.67(13) . . . . ? 
C10 C2 C3 C4 2.2(2) . . . . ? 
C2 C3 C4 C8 0.0(2) . . . . ? 
C2 C3 C4 S5 -179.39(16) . . . . ? 
C3 C4 S5 C6 -179.7(6) . . . . ? 
C8 C4 S5 C6 0.9(6) . . . . ? 
C4 S5 C6 C7 -0.4(12) . . . . ? 
C4 S5 C6 F1 179.4(12) . . . . ? 
F1 C6 C7 C8 -180.0(13) . . . . ? 
S5 C6 C7 C8 -0.2(16) . . . . ? 
C6 C7 C8 C9 -177.9(9) . . . . ? 
C6 C7 C8 C4 0.9(12) . . . . ? 
C3 C4 C8 C9 -1.6(2) . . . . ? 
S5 C4 C8 C9 177.80(16) . . . . ? 
C3 C4 C8 C7 179.4(4) . . . . ? 
S5 C4 C8 C7 -1.2(4) . . . . ? 
C7 C8 C9 C10 179.7(5) . . . . ? 
C4 C8 C9 C10 1.0(2) . . . . ? 
C8 C9 C10 C1 -177.80(13) . . . 2_556 ? 
C8 C9 C10 C2 1.1(2) . . . . ? 
C1 C2 C10 C1 -3.93(17) . . . 2_556 ? 
C3 C2 C10 C1 176.23(13) . . . 2_556 ? 
C1 C2 C10 C9 177.11(13) . . . . ? 
C3 C2 C10 C9 -2.7(2) . . . . ? 
C12 Si1 C13 C14 -61.6(5) . . . . ? 
C19 Si1 C13 C14 -178.5(5) . . . . ? 
C16 Si1 C13 C14 56.9(5) . . . . ? 
Si1 C13 C14 C15 172.1(10) . . . . ? 
C12 Si1 C16 C17 50.38(16) . . . . ? 
C13 Si1 C16 C17 -68.24(16) . . . . ? 
C19 Si1 C16 C17 166.82(14) . . . . ? 
Si1 C16 C17 C18 -175.42(15) . . . . ? 
C12 Si1 C19 C20 63.29(19) . . . . ? 
C13 Si1 C19 C20 -179.12(18) . . . . ? 
C16 Si1 C19 C20 -53.75(19) . . . . ? 
Si1 C19 C20 C21 -163.8(3) . . . . ? 
 
_diffrn_measured_fraction_theta_max    0.997 
_diffrn_reflns_theta_full              27.52 
_diffrn_measured_fraction_theta_full   0.997 
_refine_diff_density_max    0.513 
_refine_diff_density_min   -0.266 
_refine_diff_density_rms    0.044 
