 
data_k06057 
 
_audit_creation_method            SHELXL-97 
_chemical_name_systematic 
; 
 ? 
; 
_chemical_name_common             ? 
_chemical_melting_point           ? 
_chemical_formula_moiety           
 'C56 H66 Si2' 
_chemical_formula_sum 
 'C56 H66 Si2' 
_chemical_formula_weight          795.27 
 
loop_ 
 _atom_type_symbol 
 _atom_type_description 
 _atom_type_scat_dispersion_real 
 _atom_type_scat_dispersion_imag 
 _atom_type_scat_source 
 'C'  'C'    .0033    .0016 
 'International Tables Vol C Tables 4.2.6.8 and 6.1.1.4' 
 'H'  'H'    .0000    .0000 
 'International Tables Vol C Tables 4.2.6.8 and 6.1.1.4' 
 'Si'  'Si'    .0817    .0704 
 'International Tables Vol C Tables 4.2.6.8 and 6.1.1.4' 
 
_symmetry_cell_setting            triclinic
_symmetry_space_group_name_H-M    'P -1'
 
loop_ 
 _symmetry_equiv_pos_as_xyz 
 'x, y, z' 
 '-x, -y, -z' 
 
_cell_length_a                    14.1150(2) 
_cell_length_b                    16.5530(2) 
_cell_length_c                    20.2750(3) 
_cell_angle_alpha                 95.4690(5) 
_cell_angle_beta                  94.2900(5) 
_cell_angle_gamma                 106.4480(5) 
_cell_volume                      4496.84(11) 
_cell_formula_units_Z             4 
_cell_measurement_temperature     90.0(2) 
_cell_measurement_reflns_used     20509
_cell_measurement_theta_min       1.00
_cell_measurement_theta_max       27.48
 
_exptl_crystal_description        block
_exptl_crystal_colour             'dark blue'
_exptl_crystal_size_max           0.28 
_exptl_crystal_size_mid           0.15 
_exptl_crystal_size_min           0.14 
_exptl_crystal_density_meas       ? 
_exptl_crystal_density_diffrn     1.175 
_exptl_crystal_density_method     'not measured' 
_exptl_crystal_F_000              1720 
_exptl_absorpt_coefficient_mu     0.116 
_exptl_absorpt_correction_type    multi-scan
_exptl_absorpt_correction_T_min   0.9682 
_exptl_absorpt_correction_T_max   0.9839 
_exptl_absorpt_process_details    'Scalepack (Otwinowski & Minor, 1997)'
 
_exptl_special_details 
; 
 ? 
; 
 
_diffrn_ambient_temperature       90.0(2) 
_diffrn_radiation_wavelength      0.71073 
_diffrn_radiation_type            MoK\a 
_diffrn_radiation_source          'fine-focus sealed tube' 
_diffrn_radiation_monochromator   graphite 
_diffrn_measurement_device_type   'Nonius KappaCCD diffractometer'
_diffrn_measurement_method        '\w scans at fixed \c = 55\%'
_diffrn_detector_area_resol_mean  18
_diffrn_standards_number          ? 
_diffrn_standards_interval_count  ? 
_diffrn_standards_interval_time   ? 
_diffrn_standards_decay_%         ? 
_diffrn_reflns_number             31640 
_diffrn_reflns_av_R_equivalents   0.0365 
_diffrn_reflns_av_sigmaI/netI     0.0520 
_diffrn_reflns_limit_h_min        -16 
_diffrn_reflns_limit_h_max        16 
_diffrn_reflns_limit_k_min        -19 
_diffrn_reflns_limit_k_max        19 
_diffrn_reflns_limit_l_min        -24 
_diffrn_reflns_limit_l_max        24 
_diffrn_reflns_theta_min          1.01 
_diffrn_reflns_theta_max          25.00 
_reflns_number_total              15827 
_reflns_number_gt                 11226 
_reflns_threshold_expression      >2\s(I)    
 
_computing_data_collection        'COLLECT (Nonius, 1998)'
_computing_cell_refinement        'SCALEPACK (Otwinowski & Minor, 1997)'
_computing_data_reduction         'DENZO-SMN (Otwinowski & Minor, 1997)'
_computing_structure_solution     'SHELXS-97 (Sheldrick, 1990)' 
_computing_structure_refinement   'SHELXL-97 (Sheldrick, 1997)' 
_computing_molecular_graphics     'XP in SHELXTL (Sheldrick, 1994)'
_computing_publication_material
; 
SHELX97-2 (Sheldrick, 1997) and local procedures 
; 
 
_refine_special_details 
; 
 Refinement of F^2^ against ALL reflections.  The weighted R-factor wR and 
 goodness of fit S are based on F^2^, conventional R-factors R are based 
 on F, with F set to zero for negative F^2^. The threshold expression of 
 F^2^ > 2sigma(F^2^) is used only for calculating R-factors(gt) etc. and is 
 not relevant to the choice of reflections for refinement.  R-factors based 
 on F^2^ are statistically about twice as large as those based on F, and R- 
 factors based on ALL data will be even larger. 
 
 Several of the cyclopentane rings were disordered with minor components
 of around 20 to 25%. 
; 
 
_refine_ls_structure_factor_coef  Fsqd  
_refine_ls_matrix_type            full 
_refine_ls_weighting_scheme       calc  
_refine_ls_weighting_details 
 'calc w=1/[\s^2^(Fo^2^)+(0.0799P)^2^+9.4840P] where P=(Fo^2^+2Fc^2^)/3' 
_atom_sites_solution_primary      direct 
_atom_sites_solution_secondary    difmap 
_atom_sites_solution_hydrogens    geom 
_refine_ls_hydrogen_treatment     constr 
_refine_ls_extinction_method      none 
_refine_ls_extinction_coef        ? 
_refine_ls_number_reflns          15827 
_refine_ls_number_parameters      1115 
_refine_ls_number_restraints      666 
_refine_ls_R_factor_all           0.1039 
_refine_ls_R_factor_gt            0.0747 
_refine_ls_wR_factor_ref          0.2087 
_refine_ls_wR_factor_gt           0.1894 
_refine_ls_goodness_of_fit_ref    1.041 
_refine_ls_restrained_S_all       1.038 
_refine_ls_shift/su_max           0.008 
_refine_ls_shift/su_mean          0.001 
 
loop_ 
 _atom_site_label 
 _atom_site_type_symbol 
 _atom_site_fract_x 
 _atom_site_fract_y 
 _atom_site_fract_z 
 _atom_site_U_iso_or_equiv 
 _atom_site_adp_type 
 _atom_site_occupancy 
 _atom_site_symmetry_multiplicity 
 _atom_site_calc_flag 
 _atom_site_refinement_flags 
 _atom_site_disorder_assembly 
 _atom_site_disorder_group 
Si1B Si 0.69201(6) 0.96599(5) 0.42661(4) 0.0188(2) Uani 1 1 d . . . 
C1B C 0.4197(2) 0.75016(18) 0.43950(15) 0.0157(6) Uani 1 1 d . A . 
Si2B Si 0.00664(6) 0.35899(6) 0.40132(5) 0.0228(2) Uani 1 1 d . . . 
C2B C 0.4223(2) 0.68314(18) 0.47738(14) 0.0160(6) Uani 1 1 d . . . 
C3B C 0.5074(2) 0.68434(19) 0.51870(14) 0.0172(6) Uani 1 1 d . . . 
H3B H 0.5644 0.7324 0.5220 0.021 Uiso 1 1 calc R . . 
C4B C 0.5112(2) 0.61790(19) 0.55482(14) 0.0167(6) Uani 1 1 d . . . 
C5B C 0.5980(2) 0.6170(2) 0.59494(15) 0.0216(7) Uani 1 1 d . . . 
H5B H 0.6561 0.6640 0.5985 0.026 Uiso 1 1 calc R . . 
C6B C 0.5989(2) 0.5497(2) 0.62825(16) 0.0247(7) Uani 1 1 d . . . 
H6B H 0.6578 0.5500 0.6543 0.030 Uiso 1 1 calc R . . 
C7B C 0.5123(3) 0.4786(2) 0.62463(16) 0.0243(7) Uani 1 1 d . . . 
H7B H 0.5140 0.4323 0.6486 0.029 Uiso 1 1 calc R . . 
C8B C 0.4281(2) 0.4766(2) 0.58730(15) 0.0219(7) Uani 1 1 d . . . 
H8B H 0.3712 0.4288 0.5855 0.026 Uiso 1 1 calc R . . 
C9B C 0.4233(2) 0.54517(18) 0.55046(14) 0.0173(6) Uani 1 1 d . . . 
C10B C 0.3392(2) 0.54341(18) 0.51012(14) 0.0171(6) Uani 1 1 d . . . 
H10B H 0.2821 0.4956 0.5075 0.021 Uiso 1 1 calc R . . 
C11B C 0.3351(2) 0.61015(19) 0.47276(14) 0.0163(6) Uani 1 1 d . . . 
C12B C 0.2490(2) 0.60633(19) 0.43047(14) 0.0166(6) Uani 1 1 d . B . 
C13B C 0.2450(2) 0.67600(19) 0.39580(15) 0.0172(6) Uani 1 1 d . . . 
C14B C 0.1583(2) 0.6754(2) 0.35548(15) 0.0194(7) Uani 1 1 d . . . 
H14B H 0.1014 0.6273 0.3518 0.023 Uiso 1 1 calc R . . 
C15B C 0.1546(2) 0.7429(2) 0.32146(15) 0.0210(7) Uani 1 1 d . . . 
C16B C 0.0673(2) 0.7428(2) 0.27994(16) 0.0263(8) Uani 1 1 d . . . 
H16B H 0.0095 0.6955 0.2764 0.032 Uiso 1 1 calc R . . 
C17B C 0.0660(3) 0.8090(2) 0.24578(16) 0.0302(8) Uani 1 1 d . . . 
H17B H 0.0076 0.8075 0.2185 0.036 Uiso 1 1 calc R . . 
C18B C 0.1518(3) 0.8811(2) 0.25050(17) 0.0325(8) Uani 1 1 d . . . 
H18B H 0.1500 0.9271 0.2262 0.039 Uiso 1 1 calc R . . 
C19B C 0.2359(3) 0.8847(2) 0.28930(17) 0.0267(8) Uani 1 1 d . . . 
H19B H 0.2922 0.9332 0.2919 0.032 Uiso 1 1 calc R . . 
C20B C 0.2411(2) 0.8161(2) 0.32648(15) 0.0215(7) Uani 1 1 d . . . 
C21B C 0.3259(2) 0.81665(19) 0.36507(15) 0.0191(7) Uani 1 1 d . . . 
H21B H 0.3829 0.8646 0.3676 0.023 Uiso 1 1 calc R . . 
C22B C 0.3317(2) 0.74947(19) 0.40075(15) 0.0159(6) Uani 1 1 d . . . 
C23B C 0.5081(2) 0.81894(19) 0.43820(15) 0.0176(6) Uani 1 1 d . . . 
C24B C 0.5828(2) 0.87613(19) 0.43490(15) 0.0201(7) Uani 1 1 d . A . 
C25B C 0.6419(2) 1.04402(19) 0.38509(15) 0.0209(7) Uani 1 1 d . A . 
H25B H 0.6995 1.0914 0.3761 0.025 Uiso 1 1 calc R . . 
C26B C 0.5756(3) 1.0828(2) 0.42846(17) 0.0288(8) Uani 1 1 d . . . 
H26A H 0.5527 1.0473 0.4642 0.035 Uiso 1 1 calc R A . 
H26B H 0.6128 1.1408 0.4492 0.035 Uiso 1 1 calc R . . 
C27B C 0.4869(3) 1.0844(3) 0.3802(2) 0.0510(12) Uani 1 1 d . A . 
H27A H 0.4257 1.0416 0.3889 0.061 Uiso 1 1 calc R . . 
H27B H 0.4760 1.1411 0.3856 0.061 Uiso 1 1 calc R . . 
C28B C 0.5130(3) 1.0644(2) 0.3108(2) 0.0394(9) Uani 1 1 d . . . 
H28A H 0.4524 1.0356 0.2801 0.047 Uiso 1 1 calc R A . 
H28B H 0.5496 1.1169 0.2932 0.047 Uiso 1 1 calc R . . 
C29B C 0.5771(3) 1.0071(2) 0.31876(17) 0.0310(8) Uani 1 1 d . A . 
H29A H 0.6186 1.0077 0.2815 0.037 Uiso 1 1 calc R . . 
H29B H 0.5361 0.9481 0.3206 0.037 Uiso 1 1 calc R . . 
C30B C 0.7783(2) 0.9256(2) 0.37466(16) 0.0236(7) Uani 0.882(5) 1 d PDU A 1 
H30B H 0.8240 0.9074 0.4062 0.028 Uiso 0.882(5) 1 calc PR A 1 
C31B C 0.7305(3) 0.8499(2) 0.32199(19) 0.0235(8) Uani 0.882(5) 1 d PDU A 1 
H31A H 0.6734 0.8588 0.2953 0.028 Uiso 0.882(5) 1 calc PR A 1 
H31B H 0.7074 0.7971 0.3429 0.028 Uiso 0.882(5) 1 calc PR A 1 
C32B C 0.8140(3) 0.8457(3) 0.2783(2) 0.0338(10) Uani 0.882(5) 1 d PDU A 1 
H32A H 0.8547 0.8117 0.2970 0.041 Uiso 0.882(5) 1 calc PR A 1 
H32B H 0.7861 0.8199 0.2324 0.041 Uiso 0.882(5) 1 calc PR A 1 
C33B C 0.8759(3) 0.9370(3) 0.2788(2) 0.0374(10) Uani 0.882(5) 1 d PDU A 1 
H33A H 0.8640 0.9570 0.2354 0.045 Uiso 0.882(5) 1 calc PR A 1 
H33B H 0.9474 0.9420 0.2872 0.045 Uiso 0.882(5) 1 calc PR A 1 
C34B C 0.8444(3) 0.9901(2) 0.3349(2) 0.0235(8) Uani 0.882(5) 1 d PDU A 1 
H34A H 0.8069 1.0264 0.3161 0.028 Uiso 0.882(5) 1 calc PR A 1 
H34B H 0.9034 1.0269 0.3639 0.028 Uiso 0.882(5) 1 calc PR A 1 
C30D C 0.7783(2) 0.9256(2) 0.37466(16) 0.0236(7) Uani 0.118(5) 1 d PDU A 2 
H30D H 0.7956 0.8773 0.3935 0.028 Uiso 0.118(5) 1 calc PR A 2 
C31D C 0.7248(12) 0.8977(17) 0.3023(6) 0.0235(8) Uani 0.118(5) 1 d PDU A 2 
H31C H 0.6806 0.8388 0.2985 0.028 Uiso 0.118(5) 1 calc PR A 2 
H31D H 0.6839 0.9354 0.2914 0.028 Uiso 0.118(5) 1 calc PR A 2 
C32D C 0.8054(17) 0.904(2) 0.2543(8) 0.0338(10) Uani 0.118(5) 1 d PDU A 2 
H32C H 0.8072 0.8464 0.2365 0.041 Uiso 0.118(5) 1 calc PR A 2 
H32D H 0.7926 0.9343 0.2165 0.041 Uiso 0.118(5) 1 calc PR A 2 
C33D C 0.9023(15) 0.952(3) 0.2958(13) 0.0374(10) Uani 0.118(5) 1 d PDU A 2 
H33C H 0.9425 0.9965 0.2713 0.045 Uiso 0.118(5) 1 calc PR A 2 
H33D H 0.9415 0.9135 0.3069 0.045 Uiso 0.118(5) 1 calc PR A 2 
C34D C 0.8724(14) 0.9929(14) 0.3595(11) 0.0235(8) Uani 0.118(5) 1 d PDU A 2 
H34C H 0.8578 1.0466 0.3519 0.028 Uiso 0.118(5) 1 calc PR A 2 
H34D H 0.9260 1.0047 0.3967 0.028 Uiso 0.118(5) 1 calc PR A 2 
C35B C 0.7540(2) 1.0096(2) 0.51236(16) 0.0241(7) Uani 1 1 d . A . 
H35B H 0.7060 1.0311 0.5375 0.029 Uiso 1 1 calc R . . 
C36B C 0.8507(3) 1.0844(2) 0.51537(18) 0.0419(10) Uani 1 1 d . . . 
H36A H 0.8811 1.0826 0.4730 0.050 Uiso 1 1 calc R A . 
H36B H 0.8368 1.1395 0.5239 0.050 Uiso 1 1 calc R . . 
C37B C 0.9190(3) 1.0719(3) 0.5724(2) 0.0408(10) Uani 1 1 d . A . 
H37A H 0.9060 1.0985 0.6154 0.049 Uiso 1 1 calc R . . 
H37B H 0.9895 1.0970 0.5656 0.049 Uiso 1 1 calc R . . 
C38B C 0.8944(3) 0.9757(3) 0.5715(2) 0.0530(12) Uani 1 1 d . . . 
H38A H 0.9308 0.9518 0.5386 0.064 Uiso 1 1 calc R A . 
H38B H 0.9122 0.9608 0.6160 0.064 Uiso 1 1 calc R . . 
C39B C 0.7834(2) 0.9424(2) 0.55202(18) 0.0307(8) Uani 1 1 d . A . 
H39A H 0.7476 0.9350 0.5922 0.037 Uiso 1 1 calc R . . 
H39B H 0.7664 0.8870 0.5239 0.037 Uiso 1 1 calc R . . 
C40B C 0.1672(2) 0.5302(2) 0.42184(15) 0.0196(7) Uani 1 1 d . . . 
C41B C 0.1006(2) 0.4646(2) 0.41385(16) 0.0233(7) Uani 1 1 d . B . 
C42B C 0.0146(2) 0.3082(2) 0.31551(17) 0.0271(7) Uani 0.712(9) 1 d PDU B 1 
H42B H -0.0224 0.3323 0.2824 0.033 Uiso 0.712(9) 1 calc PR B 1 
C43B C 0.1213(5) 0.3223(5) 0.2965(8) 0.0263(8) Uani 0.712(9) 1 d PDU B 1 
H43A H 0.1651 0.3114 0.3328 0.032 Uiso 0.712(9) 1 calc PR B 1 
H43B H 0.1497 0.3808 0.2856 0.032 Uiso 0.712(9) 1 calc PR B 1 
C44B C 0.1068(4) 0.2565(3) 0.2343(3) 0.0306(13) Uani 0.712(9) 1 d PDU B 1 
H44A H 0.0846 0.2781 0.1939 0.037 Uiso 0.712(9) 1 calc PR B 1 
H44B H 0.1693 0.2425 0.2275 0.037 Uiso 0.712(9) 1 calc PR B 1 
C45B C 0.0271(5) 0.1791(5) 0.2500(6) 0.0442(14) Uani 0.712(9) 1 d PDU B 1 
H45A H 0.0578 0.1367 0.2659 0.053 Uiso 0.712(9) 1 calc PR B 1 
H45B H -0.0193 0.1524 0.2096 0.053 Uiso 0.712(9) 1 calc PR B 1 
C46B C -0.0284(5) 0.2106(3) 0.3044(6) 0.0370(14) Uani 0.712(9) 1 d PDU B 1 
H46A H -0.0180 0.1862 0.3461 0.044 Uiso 0.712(9) 1 calc PR B 1 
H46B H -0.1006 0.1940 0.2899 0.044 Uiso 0.712(9) 1 calc PR B 1 
C42D C 0.0146(2) 0.3082(2) 0.31551(17) 0.0271(7) Uani 0.288(9) 1 d PDU B 2 
H42D H -0.0153 0.3388 0.2835 0.033 Uiso 0.288(9) 1 calc PR B 2 
C43D C 0.1186(11) 0.3133(12) 0.295(2) 0.0263(8) Uani 0.288(9) 1 d PDU B 2 
H43C H 0.1694 0.3361 0.3338 0.032 Uiso 0.288(9) 1 calc PR B 2 
H43D H 0.1344 0.3509 0.2597 0.032 Uiso 0.288(9) 1 calc PR B 2 
C44D C 0.1163(8) 0.2220(8) 0.2691(8) 0.035(2) Uani 0.288(9) 1 d PDU B 2 
H44C H 0.1585 0.2218 0.2322 0.042 Uiso 0.288(9) 1 calc PR B 2 
H44D H 0.1391 0.1935 0.3051 0.042 Uiso 0.288(9) 1 calc PR B 2 
C45D C 0.0066(10) 0.1789(13) 0.2445(15) 0.0442(14) Uani 0.288(9) 1 d PDU B 2 
H45C H -0.0095 0.1163 0.2411 0.053 Uiso 0.288(9) 1 calc PR B 2 
H45D H -0.0117 0.1954 0.2007 0.053 Uiso 0.288(9) 1 calc PR B 2 
C46D C -0.0456(14) 0.2139(7) 0.2999(16) 0.0370(14) Uani 0.288(9) 1 d PDU B 2 
H46C H -0.1157 0.2077 0.2842 0.044 Uiso 0.288(9) 1 calc PR B 2 
H46D H -0.0437 0.1840 0.3398 0.044 Uiso 0.288(9) 1 calc PR B 2 
C47B C -0.1187(2) 0.3748(2) 0.41043(17) 0.0270(8) Uani 1 1 d . B . 
H47B H -0.1167 0.4040 0.4562 0.032 Uiso 1 1 calc R . . 
C48B C -0.1488(3) 0.4293(2) 0.35978(18) 0.0323(8) Uani 1 1 d . . . 
H48A H -0.1735 0.4737 0.3824 0.039 Uiso 1 1 calc R B . 
H48B H -0.0915 0.4569 0.3363 0.039 Uiso 1 1 calc R . . 
C49B C -0.2306(3) 0.3678(3) 0.3112(2) 0.0404(10) Uani 1 1 d . B . 
H49A H -0.2024 0.3388 0.2761 0.048 Uiso 1 1 calc R . . 
H49B H -0.2744 0.3974 0.2900 0.048 Uiso 1 1 calc R . . 
C50B C -0.2871(3) 0.3047(2) 0.35549(19) 0.0346(9) Uani 1 1 d . . . 
H50A H -0.3317 0.3290 0.3811 0.042 Uiso 1 1 calc R B . 
H50B H -0.3268 0.2511 0.3286 0.042 Uiso 1 1 calc R . . 
C51B C -0.2048(2) 0.2903(2) 0.40171(19) 0.0330(9) Uani 1 1 d . B . 
H51A H -0.1824 0.2428 0.3818 0.040 Uiso 1 1 calc R . . 
H51B H -0.2284 0.2768 0.4453 0.040 Uiso 1 1 calc R . . 
C52B C 0.0415(2) 0.2985(2) 0.46796(17) 0.0260(8) Uani 1 1 d . B . 
H52B H -0.0079 0.2408 0.4619 0.031 Uiso 1 1 calc R . . 
C53B C 0.1460(3) 0.2866(2) 0.46974(17) 0.0283(8) Uani 1 1 d . . . 
H53A H 0.1470 0.2393 0.4363 0.034 Uiso 1 1 calc R B . 
H53B H 0.1955 0.3391 0.4608 0.034 Uiso 1 1 calc R . . 
C54B C 0.1678(3) 0.2666(2) 0.54048(18) 0.0349(9) Uani 1 1 d . B . 
H54A H 0.1385 0.2054 0.5439 0.042 Uiso 1 1 calc R . . 
H54B H 0.2402 0.2823 0.5536 0.042 Uiso 1 1 calc R . . 
C55B C 0.1196(4) 0.3200(3) 0.58386(19) 0.0553(13) Uani 1 1 d . . . 
H55A H 0.1697 0.3732 0.6042 0.066 Uiso 1 1 calc R B . 
H55B H 0.0898 0.2885 0.6200 0.066 Uiso 1 1 calc R . . 
C56B C 0.0396(3) 0.3398(3) 0.53934(18) 0.0372(9) Uani 1 1 d . B . 
H56A H 0.0531 0.4020 0.5401 0.045 Uiso 1 1 calc R . . 
H56B H -0.0263 0.3165 0.5550 0.045 Uiso 1 1 calc R . . 
Si1A Si -0.17624(7) 0.53803(5) 0.08255(5) 0.0209(2) Uani 1 1 d . . . 
C1A C 0.0893(2) 0.75837(19) 0.06614(15) 0.0176(6) Uani 1 1 d . C . 
Si2A Si 0.49135(6) 1.15256(5) 0.08980(4) 0.0203(2) Uani 1 1 d . . . 
C2A C 0.1792(2) 0.76360(19) 0.10435(14) 0.0164(6) Uani 1 1 d . . . 
C3A C 0.1889(2) 0.6997(2) 0.14263(16) 0.0211(7) Uani 1 1 d . . . 
H3A H 0.1334 0.6511 0.1426 0.025 Uiso 1 1 calc R . . 
C4A C 0.2772(2) 0.7051(2) 0.18068(15) 0.0212(7) Uani 1 1 d . . . 
C5A C 0.2862(3) 0.6395(2) 0.22022(17) 0.0284(8) Uani 1 1 d . . . 
H5A H 0.2309 0.5911 0.2211 0.034 Uiso 1 1 calc R . . 
C6A C 0.3741(3) 0.6468(2) 0.25636(17) 0.0310(8) Uani 1 1 d . . . 
H6A H 0.3796 0.6028 0.2819 0.037 Uiso 1 1 calc R . . 
C7A C 0.4571(3) 0.7185(2) 0.25669(17) 0.0291(8) Uani 1 1 d . . . 
H7A H 0.5175 0.7222 0.2825 0.035 Uiso 1 1 calc R . . 
C8A C 0.4514(2) 0.7817(2) 0.22075(16) 0.0255(7) Uani 1 1 d . . . 
H8A H 0.5082 0.8293 0.2213 0.031 Uiso 1 1 calc R . . 
C9A C 0.3609(2) 0.7783(2) 0.18156(15) 0.0210(7) Uani 1 1 d . . . 
C10A C 0.3517(2) 0.8427(2) 0.14498(15) 0.0193(7) Uani 1 1 d . . . 
H10A H 0.4070 0.8918 0.1465 0.023 Uiso 1 1 calc R . . 
C11A C 0.2634(2) 0.83790(19) 0.10570(15) 0.0169(6) Uani 1 1 d . . . 
C12A C 0.2543(2) 0.90343(18) 0.06847(14) 0.0156(6) Uani 1 1 d . . . 
C13A C 0.1659(2) 0.89596(18) 0.02724(14) 0.0142(6) Uani 1 1 d . . . 
C14A C 0.1571(2) 0.95931(18) -0.01182(14) 0.0167(6) Uani 1 1 d . . . 
H14A H 0.2125 1.0082 -0.0110 0.020 Uiso 1 1 calc R . . 
C15A C 0.0710(2) 0.95350(18) -0.05161(14) 0.0159(6) Uani 1 1 d . . . 
C16A C 0.0613(2) 1.01901(19) -0.09026(15) 0.0194(7) Uani 1 1 d . . . 
H16A H 0.1165 1.0677 -0.0903 0.023 Uiso 1 1 calc R . . 
C17A C -0.0256(2) 1.0130(2) -0.12709(15) 0.0223(7) Uani 1 1 d . . . 
H17A H -0.0305 1.0576 -0.1521 0.027 Uiso 1 1 calc R . . 
C18A C -0.1089(2) 0.9406(2) -0.12849(15) 0.0223(7) Uani 1 1 d . . . 
H18A H -0.1693 0.9371 -0.1543 0.027 Uiso 1 1 calc R . . 
C19A C -0.1032(2) 0.8760(2) -0.09317(15) 0.0197(7) Uani 1 1 d . . . 
H19A H -0.1594 0.8276 -0.0950 0.024 Uiso 1 1 calc R . . 
C20A C -0.0137(2) 0.87978(18) -0.05322(14) 0.0157(6) Uani 1 1 d . . . 
C21A C -0.0063(2) 0.81635(18) -0.01455(15) 0.0167(6) Uani 1 1 d . . . 
H21A H -0.0623 0.7680 -0.0153 0.020 Uiso 1 1 calc R . . 
C22A C 0.0817(2) 0.82158(18) 0.02579(14) 0.0150(6) Uani 1 1 d . . . 
C23A C 0.0033(2) 0.68820(19) 0.07012(15) 0.0199(7) Uani 1 1 d . . . 
C24A C -0.0684(2) 0.62918(19) 0.07508(16) 0.0214(7) Uani 1 1 d . C . 
C25A C -0.2581(3) 0.5780(2) 0.13868(18) 0.0292(7) Uani 0.769(6) 1 d PDU C 1 
H25A H -0.2695 0.6296 0.1216 0.035 Uiso 0.769(6) 1 calc PR C 1 
C26A C -0.2156(3) 0.6026(3) 0.2143(2) 0.0273(11) Uani 0.769(6) 1 d PDU C 1 
H26C H -0.1826 0.5612 0.2293 0.033 Uiso 0.769(6) 1 calc PR C 1 
H26D H -0.1671 0.6599 0.2215 0.033 Uiso 0.769(6) 1 calc PR C 1 
C27A C -0.3066(3) 0.6008(4) 0.2517(2) 0.0383(13) Uani 0.769(6) 1 d PDU C 1 
H27C H -0.3067 0.5678 0.2900 0.046 Uiso 0.769(6) 1 calc PR C 1 
H27D H -0.3053 0.6592 0.2688 0.046 Uiso 0.769(6) 1 calc PR C 1 
C28A C -0.3937(3) 0.5617(3) 0.2056(2) 0.0509(10) Uani 0.769(6) 1 d PDU C 1 
H28C H -0.4242 0.6049 0.1910 0.061 Uiso 0.769(6) 1 calc PR C 1 
H28D H -0.4434 0.5195 0.2263 0.061 Uiso 0.769(6) 1 calc PR C 1 
C29A C -0.3572(3) 0.5183(3) 0.1463(2) 0.0434(9) Uani 0.769(6) 1 d PDU C 1 
H29C H -0.3508 0.4624 0.1557 0.052 Uiso 0.769(6) 1 calc PR C 1 
H29D H -0.4035 0.5103 0.1054 0.052 Uiso 0.769(6) 1 calc PR C 1 
C25C C -0.2581(3) 0.5780(2) 0.13868(18) 0.0292(7) Uani 0.231(6) 1 d PDU C 2 
H25C H -0.2867 0.6030 0.1018 0.035 Uiso 0.231(6) 1 calc PR C 2 
C26C C -0.2332(10) 0.6587(7) 0.1839(7) 0.042(3) Uani 0.231(6) 1 d PDU C 2 
H26E H -0.2277 0.7077 0.1585 0.050 Uiso 0.231(6) 1 calc PR C 2 
H26F H -0.1704 0.6678 0.2126 0.050 Uiso 0.231(6) 1 calc PR C 2 
C27C C -0.3217(10) 0.6447(8) 0.2248(9) 0.049(3) Uani 0.231(6) 1 d PDU C 2 
H27E H -0.2976 0.6501 0.2726 0.058 Uiso 0.231(6) 1 calc PR C 2 
H27F H -0.3547 0.6893 0.2187 0.058 Uiso 0.231(6) 1 calc PR C 2 
C28C C -0.3937(3) 0.5617(3) 0.2056(2) 0.0509(10) Uani 0.231(6) 1 d PDU C 2 
H28E H -0.4601 0.5680 0.1926 0.061 Uiso 0.231(6) 1 calc PR C 2 
H28F H -0.3987 0.5274 0.2433 0.061 Uiso 0.231(6) 1 calc PR C 2 
C29C C -0.3572(3) 0.5183(3) 0.1463(2) 0.0434(9) Uani 0.231(6) 1 d PDU C 2 
H29E H -0.3508 0.4624 0.1557 0.052 Uiso 0.231(6) 1 calc PR C 2 
H29F H -0.4035 0.5103 0.1054 0.052 Uiso 0.231(6) 1 calc PR C 2 
C30A C -0.2389(2) 0.4987(2) -0.00393(17) 0.0259(8) Uani 1 1 d . C . 
H30A H -0.1871 0.4889 -0.0321 0.031 Uiso 1 1 calc R . . 
C31A C -0.2849(3) 0.5610(2) -0.0365(2) 0.0357(9) Uani 1 1 d . . . 
H31C H -0.3156 0.5907 -0.0035 0.043 Uiso 1 1 calc R C . 
H31D H -0.2337 0.6037 -0.0558 0.043 Uiso 1 1 calc R . . 
C32A C -0.3603(3) 0.5084(3) -0.0890(2) 0.0547(12) Uani 1 1 d . C . 
H32C H -0.3295 0.4989 -0.1302 0.066 Uiso 1 1 calc R . . 
H32D H -0.4118 0.5367 -0.0992 0.066 Uiso 1 1 calc R . . 
C33A C -0.4059(3) 0.4252(2) -0.0632(2) 0.0411(10) Uani 1 1 d . . . 
H33C H -0.4242 0.3779 -0.1000 0.049 Uiso 1 1 calc R C . 
H33D H -0.4662 0.4266 -0.0417 0.049 Uiso 1 1 calc R . . 
C34A C -0.3244(3) 0.4145(2) -0.01189(18) 0.0331(9) Uani 1 1 d . C . 
H34C H -0.3510 0.4039 0.0313 0.040 Uiso 1 1 calc R . . 
H34D H -0.3005 0.3663 -0.0282 0.040 Uiso 1 1 calc R . . 
C35A C -0.1262(2) 0.45672(19) 0.11852(16) 0.0234(7) Uani 0.779(6) 1 d PDU C 1 
H35A H -0.1825 0.4140 0.1345 0.028 Uiso 0.779(6) 1 calc PR C 1 
C36A C -0.0800(3) 0.4097(4) 0.0662(2) 0.0233(9) Uani 0.779(6) 1 d PDU C 1 
H36C H -0.1309 0.3592 0.0422 0.028 Uiso 0.779(6) 1 calc PR C 1 
H36D H -0.0508 0.4476 0.0334 0.028 Uiso 0.779(6) 1 calc PR C 1 
C37A C 0.0011(3) 0.3831(3) 0.1061(2) 0.0239(9) Uani 0.779(6) 1 d PDU C 1 
H37C H -0.0280 0.3317 0.1275 0.029 Uiso 0.779(6) 1 calc PR C 1 
H37D H 0.0507 0.3722 0.0772 0.029 Uiso 0.779(6) 1 calc PR C 1 
C38A C 0.0474(3) 0.4603(3) 0.1581(2) 0.0249(11) Uani 0.779(6) 1 d PDU C 1 
H38C H 0.0815 0.4444 0.1971 0.030 Uiso 0.779(6) 1 calc PR C 1 
H38D H 0.0958 0.5053 0.1389 0.030 Uiso 0.779(6) 1 calc PR C 1 
C39A C -0.0399(3) 0.4899(3) 0.1778(2) 0.0258(10) Uani 0.779(6) 1 d PDU C 1 
H39C H -0.0202 0.5526 0.1860 0.031 Uiso 0.779(6) 1 calc PR C 1 
H39D H -0.0626 0.4669 0.2191 0.031 Uiso 0.779(6) 1 calc PR C 1 
C35C C -0.1262(2) 0.45672(19) 0.11852(16) 0.0234(7) Uani 0.221(6) 1 d PDU C 2 
H35C H -0.1836 0.4081 0.1260 0.028 Uiso 0.221(6) 1 calc PR C 2 
C36C C -0.0590(12) 0.4221(16) 0.0755(6) 0.0233(9) Uani 0.221(6) 1 d PDU C 2 
H36E H -0.0339 0.4602 0.0419 0.028 Uiso 0.221(6) 1 calc PR C 2 
H36F H -0.0946 0.3648 0.0525 0.028 Uiso 0.221(6) 1 calc PR C 2 
C37C C 0.0257(10) 0.4189(12) 0.1259(7) 0.0239(9) Uani 0.221(6) 1 d PDU C 2 
H37E H 0.0880 0.4622 0.1196 0.029 Uiso 0.221(6) 1 calc PR C 2 
H37F H 0.0368 0.3623 0.1202 0.029 Uiso 0.221(6) 1 calc PR C 2 
C38C C -0.0056(10) 0.4367(9) 0.1952(6) 0.029(2) Uani 0.221(6) 1 d PDU C 2 
H38E H -0.0451 0.3836 0.2104 0.034 Uiso 0.221(6) 1 calc PR C 2 
H38F H 0.0534 0.4630 0.2279 0.034 Uiso 0.221(6) 1 calc PR C 2 
C39C C -0.0675(13) 0.4971(12) 0.1872(6) 0.0258(10) Uani 0.221(6) 1 d PDU C 2 
H39E H -0.0257 0.5559 0.1859 0.031 Uiso 0.221(6) 1 calc PR C 2 
H39F H -0.1119 0.4961 0.2228 0.031 Uiso 0.221(6) 1 calc PR C 2 
C40A C 0.3341(2) 0.98025(19) 0.07389(15) 0.0182(7) Uani 1 1 d . . . 
C41A C 0.3989(2) 1.0473(2) 0.07904(15) 0.0206(7) Uani 1 1 d . . . 
C42A C 0.4548(2) 1.2115(2) 0.02256(17) 0.0249(7) Uani 1 1 d . . . 
H42A H 0.5032 1.2696 0.0280 0.030 Uiso 1 1 calc R . . 
C43A C 0.4563(3) 1.1691(2) -0.04890(17) 0.0300(8) Uani 1 1 d . . . 
H43C H 0.5153 1.2010 -0.0690 0.036 Uiso 1 1 calc R . . 
H43D H 0.4585 1.1100 -0.0478 0.036 Uiso 1 1 calc R . . 
C44A C 0.3606(3) 1.1706(2) -0.08937(18) 0.0352(9) Uani 1 1 d . . . 
H44C H 0.3747 1.1885 -0.1337 0.042 Uiso 1 1 calc R . . 
H44D H 0.3113 1.1137 -0.0956 0.042 Uiso 1 1 calc R . . 
C45A C 0.3223(3) 1.2341(2) -0.04887(18) 0.0312(8) Uani 1 1 d . . . 
H45C H 0.2496 1.2219 -0.0589 0.037 Uiso 1 1 calc R . . 
H45D H 0.3553 1.2928 -0.0576 0.037 Uiso 1 1 calc R . . 
C46A C 0.3492(2) 1.2215(2) 0.02258(17) 0.0268(8) Uani 1 1 d . . . 
H46C H 0.3021 1.1701 0.0353 0.032 Uiso 1 1 calc R . . 
H46D H 0.3491 1.2712 0.0538 0.032 Uiso 1 1 calc R . . 
C47A C 0.4856(2) 1.2044(2) 0.17525(17) 0.0253(7) Uani 1 1 d . . . 
H47A H 0.5291 1.1841 0.2069 0.030 Uiso 1 1 calc R . . 
C48A C 0.3823(2) 1.1844(2) 0.20119(17) 0.0280(8) Uani 1 1 d . . . 
H48C H 0.3318 1.1917 0.1675 0.034 Uiso 1 1 calc R . . 
H48D H 0.3609 1.1257 0.2129 0.034 Uiso 1 1 calc R . . 
C49A C 0.3981(3) 1.2491(3) 0.2630(2) 0.0425(10) Uani 1 1 d . . . 
H49C H 0.4277 1.2297 0.3020 0.051 Uiso 1 1 calc R . . 
H49D H 0.3345 1.2588 0.2735 0.051 Uiso 1 1 calc R . . 
C50A C 0.4694(4) 1.3299(3) 0.2441(2) 0.0522(12) Uani 1 1 d . . . 
H50C H 0.5183 1.3593 0.2826 0.063 Uiso 1 1 calc R . . 
H50D H 0.4322 1.3691 0.2303 0.063 Uiso 1 1 calc R . . 
C51A C 0.5226(3) 1.3027(2) 0.1859(2) 0.0390(9) Uani 1 1 d . . . 
H51C H 0.5956 1.3228 0.1973 0.047 Uiso 1 1 calc R . . 
H51D H 0.5055 1.3262 0.1451 0.047 Uiso 1 1 calc R . . 
C52A C 0.6160(2) 1.1359(2) 0.08218(17) 0.0243(7) Uani 1 1 d . . . 
H52A H 0.6163 1.1093 0.0358 0.029 Uiso 1 1 calc R . . 
C53A C 0.6412(2) 1.0767(2) 0.13181(18) 0.0283(8) Uani 1 1 d . . . 
H53C H 0.5832 1.0523 0.1558 0.034 Uiso 1 1 calc R . . 
H53D H 0.6603 1.0298 0.1078 0.034 Uiso 1 1 calc R . . 
C54A C 0.7279(3) 1.1326(3) 0.18044(19) 0.0375(9) Uani 1 1 d . . . 
H54C H 0.7036 1.1597 0.2187 0.045 Uiso 1 1 calc R . . 
H54D H 0.7703 1.0990 0.1974 0.045 Uiso 1 1 calc R . . 
C55A C 0.7845(3) 1.1986(2) 0.13971(18) 0.0325(8) Uani 1 1 d . . . 
H55C H 0.8285 1.1757 0.1123 0.039 Uiso 1 1 calc R . . 
H55D H 0.8253 1.2500 0.1689 0.039 Uiso 1 1 calc R . . 
C56A C 0.7039(2) 1.2186(2) 0.0958(2) 0.0344(9) Uani 1 1 d . . . 
H56C H 0.7287 1.2363 0.0534 0.041 Uiso 1 1 calc R . . 
H56D H 0.6826 1.2650 0.1188 0.041 Uiso 1 1 calc R . . 
 
loop_ 
 _atom_site_aniso_label 
 _atom_site_aniso_U_11 
 _atom_site_aniso_U_22 
 _atom_site_aniso_U_33 
 _atom_site_aniso_U_23 
 _atom_site_aniso_U_13 
 _atom_site_aniso_U_12 
Si1B 0.0168(4) 0.0146(4) 0.0235(5) 0.0029(3) 0.0064(4) 0.0010(3) 
C1B 0.0142(15) 0.0136(15) 0.0184(15) 0.0002(12) 0.0050(12) 0.0025(12) 
Si2B 0.0172(5) 0.0209(5) 0.0258(5) -0.0058(4) 0.0036(4) 0.0008(4) 
C2B 0.0159(15) 0.0157(15) 0.0163(15) -0.0020(12) 0.0053(12) 0.0050(12) 
C3B 0.0157(15) 0.0162(15) 0.0185(15) -0.0008(12) 0.0041(12) 0.0029(12) 
C4B 0.0207(16) 0.0169(16) 0.0142(15) -0.0002(12) 0.0051(12) 0.0079(13) 
C5B 0.0212(17) 0.0269(18) 0.0167(16) -0.0027(13) 0.0019(13) 0.0090(14) 
C6B 0.0273(18) 0.0328(19) 0.0189(16) 0.0028(14) 0.0014(14) 0.0171(15) 
C7B 0.036(2) 0.0228(17) 0.0197(16) 0.0064(14) 0.0068(14) 0.0144(15) 
C8B 0.0295(18) 0.0158(16) 0.0203(16) 0.0037(13) 0.0037(14) 0.0057(14) 
C9B 0.0237(17) 0.0147(15) 0.0138(15) -0.0002(12) 0.0057(13) 0.0058(13) 
C10B 0.0205(16) 0.0135(15) 0.0160(15) -0.0003(12) 0.0045(13) 0.0028(12) 
C11B 0.0178(16) 0.0166(15) 0.0148(15) 0.0000(12) 0.0059(12) 0.0053(12) 
C12B 0.0146(15) 0.0177(15) 0.0156(15) -0.0024(12) 0.0040(12) 0.0026(12) 
C13B 0.0156(15) 0.0199(16) 0.0163(15) -0.0012(12) 0.0049(12) 0.0056(13) 
C14B 0.0129(15) 0.0246(17) 0.0196(16) -0.0014(13) 0.0044(12) 0.0044(13) 
C15B 0.0190(16) 0.0308(18) 0.0168(15) 0.0006(13) 0.0051(13) 0.0131(14) 
C16B 0.0191(17) 0.040(2) 0.0215(17) 0.0006(15) 0.0018(14) 0.0125(15) 
C17B 0.030(2) 0.049(2) 0.0197(17) 0.0054(16) 0.0016(14) 0.0245(18) 
C18B 0.031(2) 0.047(2) 0.0280(19) 0.0171(17) 0.0110(16) 0.0199(18) 
C19B 0.0247(18) 0.034(2) 0.0285(18) 0.0152(15) 0.0092(15) 0.0143(15) 
C20B 0.0187(16) 0.0283(18) 0.0202(16) 0.0055(14) 0.0075(13) 0.0090(14) 
C21B 0.0148(15) 0.0200(16) 0.0235(16) 0.0071(13) 0.0074(13) 0.0041(13) 
C22B 0.0127(15) 0.0165(15) 0.0179(15) -0.0010(12) 0.0043(12) 0.0036(12) 
C23B 0.0172(16) 0.0172(16) 0.0211(16) 0.0051(13) 0.0040(13) 0.0078(13) 
C24B 0.0237(17) 0.0188(16) 0.0207(16) 0.0037(13) 0.0066(13) 0.0095(14) 
C25B 0.0208(16) 0.0165(16) 0.0228(17) 0.0029(13) 0.0050(13) 0.0007(13) 
C26B 0.0295(19) 0.0274(19) 0.0326(19) 0.0061(15) 0.0090(15) 0.0111(15) 
C27B 0.036(2) 0.080(3) 0.055(3) 0.029(2) 0.018(2) 0.036(2) 
C28B 0.037(2) 0.035(2) 0.047(2) 0.0140(18) -0.0022(18) 0.0093(18) 
C29B 0.036(2) 0.0284(19) 0.0258(18) 0.0093(15) 0.0009(15) 0.0025(16) 
C30B 0.0207(15) 0.0212(15) 0.0279(16) 0.0029(13) 0.0051(13) 0.0042(12) 
C31B 0.0200(16) 0.0192(18) 0.0302(18) 0.0011(15) 0.0026(14) 0.0045(14) 
C32B 0.033(2) 0.033(2) 0.034(2) -0.0043(16) 0.0085(16) 0.0078(17) 
C33B 0.032(2) 0.039(2) 0.037(2) 0.0015(19) 0.0171(19) 0.0031(19) 
C34B 0.0164(17) 0.0266(17) 0.028(2) 0.0051(16) 0.0057(15) 0.0055(14) 
C30D 0.0207(15) 0.0212(15) 0.0279(16) 0.0029(13) 0.0051(13) 0.0042(12) 
C31D 0.0200(16) 0.0192(18) 0.0302(18) 0.0011(15) 0.0026(14) 0.0045(14) 
C32D 0.033(2) 0.033(2) 0.034(2) -0.0043(16) 0.0085(16) 0.0078(17) 
C33D 0.032(2) 0.039(2) 0.037(2) 0.0015(19) 0.0171(19) 0.0031(19) 
C34D 0.0164(17) 0.0266(17) 0.028(2) 0.0051(16) 0.0057(15) 0.0055(14) 
C35B 0.0229(17) 0.0212(17) 0.0269(18) 0.0042(14) 0.0067(14) 0.0032(14) 
C36B 0.046(2) 0.034(2) 0.026(2) -0.0037(16) 0.0032(17) -0.0183(18) 
C37B 0.0219(19) 0.045(2) 0.042(2) -0.0162(19) 0.0017(17) -0.0054(17) 
C38B 0.031(2) 0.059(3) 0.059(3) -0.004(2) -0.013(2) 0.006(2) 
C39B 0.0242(18) 0.033(2) 0.034(2) 0.0086(16) -0.0007(15) 0.0059(15) 
C40B 0.0201(17) 0.0205(17) 0.0179(16) -0.0003(13) 0.0017(13) 0.0062(14) 
C41B 0.0217(17) 0.0243(18) 0.0234(17) -0.0001(14) 0.0040(14) 0.0067(15) 
C42B 0.0224(16) 0.0275(16) 0.0276(16) -0.0066(13) 0.0018(13) 0.0047(13) 
C43B 0.0224(16) 0.029(2) 0.0251(17) -0.004(2) 0.0045(14) 0.0053(14) 
C44B 0.027(2) 0.038(3) 0.027(3) -0.006(2) 0.002(2) 0.014(2) 
C45B 0.038(3) 0.040(2) 0.046(2) -0.0177(18) 0.006(3) 0.005(2) 
C46B 0.029(3) 0.0336(19) 0.038(2) -0.0155(17) 0.005(2) -0.0019(17) 
C42D 0.0224(16) 0.0275(16) 0.0276(16) -0.0066(13) 0.0018(13) 0.0047(13) 
C43D 0.0224(16) 0.029(2) 0.0251(17) -0.004(2) 0.0045(14) 0.0053(14) 
C44D 0.031(4) 0.036(4) 0.035(4) -0.014(4) 0.003(4) 0.012(3) 
C45D 0.038(3) 0.040(2) 0.046(2) -0.0177(18) 0.006(3) 0.005(2) 
C46D 0.029(3) 0.0336(19) 0.038(2) -0.0155(17) 0.005(2) -0.0019(17) 
C47B 0.0201(17) 0.0261(18) 0.0311(19) -0.0055(15) 0.0055(14) 0.0030(14) 
C48B 0.0278(19) 0.0255(19) 0.041(2) -0.0005(16) 0.0065(16) 0.0050(15) 
C49B 0.032(2) 0.044(2) 0.040(2) -0.0026(19) -0.0018(17) 0.0085(18) 
C50B 0.0204(18) 0.031(2) 0.042(2) -0.0122(17) 0.0004(16) -0.0030(15) 
C51B 0.0228(18) 0.0289(19) 0.046(2) 0.0037(17) 0.0139(16) 0.0029(15) 
C52B 0.0206(17) 0.0210(17) 0.0304(19) -0.0013(14) 0.0068(14) -0.0029(14) 
C53B 0.0316(19) 0.0253(18) 0.0274(18) -0.0015(15) 0.0045(15) 0.0085(15) 
C54B 0.042(2) 0.0265(19) 0.039(2) 0.0121(16) 0.0048(17) 0.0110(17) 
C55B 0.101(4) 0.057(3) 0.025(2) 0.0079(19) 0.006(2) 0.050(3) 
C56B 0.033(2) 0.047(2) 0.030(2) -0.0022(17) 0.0083(16) 0.0105(18) 
Si1A 0.0206(5) 0.0133(4) 0.0282(5) 0.0043(4) 0.0106(4) 0.0013(3) 
C1A 0.0171(16) 0.0156(15) 0.0207(16) 0.0016(12) 0.0079(13) 0.0042(12) 
Si2A 0.0155(4) 0.0168(4) 0.0248(5) -0.0018(4) 0.0033(4) 0.0000(3) 
C2A 0.0181(16) 0.0164(15) 0.0161(15) 0.0018(12) 0.0073(12) 0.0059(13) 
C3A 0.0222(17) 0.0197(16) 0.0249(17) 0.0090(13) 0.0109(14) 0.0076(13) 
C4A 0.0248(17) 0.0262(17) 0.0189(16) 0.0080(13) 0.0079(13) 0.0147(14) 
C5A 0.0287(19) 0.032(2) 0.0300(19) 0.0140(15) 0.0097(15) 0.0132(16) 
C6A 0.039(2) 0.040(2) 0.0244(18) 0.0115(16) 0.0041(16) 0.0256(18) 
C7A 0.0250(18) 0.041(2) 0.0256(18) 0.0050(16) 0.0032(15) 0.0166(16) 
C8A 0.0215(17) 0.035(2) 0.0220(17) 0.0040(15) 0.0021(14) 0.0121(15) 
C9A 0.0216(17) 0.0288(18) 0.0153(15) 0.0017(13) 0.0068(13) 0.0109(14) 
C10A 0.0183(16) 0.0218(16) 0.0172(15) 0.0001(13) 0.0046(13) 0.0050(13) 
C11A 0.0156(15) 0.0187(16) 0.0169(15) 0.0014(12) 0.0071(12) 0.0048(12) 
C12A 0.0146(15) 0.0149(15) 0.0165(15) -0.0004(12) 0.0059(12) 0.0028(12) 
C13A 0.0161(15) 0.0119(14) 0.0130(14) -0.0006(11) 0.0038(12) 0.0016(12) 
C14A 0.0173(16) 0.0137(15) 0.0163(15) -0.0019(12) 0.0043(12) 0.0004(12) 
C15A 0.0197(16) 0.0160(15) 0.0125(14) -0.0001(12) 0.0046(12) 0.0062(13) 
C16A 0.0228(17) 0.0167(16) 0.0185(16) 0.0015(13) 0.0071(13) 0.0043(13) 
C17A 0.0319(19) 0.0230(17) 0.0161(16) 0.0057(13) 0.0031(14) 0.0134(14) 
C18A 0.0228(17) 0.0261(18) 0.0186(16) -0.0001(13) -0.0003(13) 0.0097(14) 
C19A 0.0197(16) 0.0211(16) 0.0184(16) 0.0004(13) 0.0032(13) 0.0064(13) 
C20A 0.0161(15) 0.0162(15) 0.0139(15) -0.0032(12) 0.0034(12) 0.0045(12) 
C21A 0.0135(15) 0.0136(15) 0.0209(16) -0.0005(12) 0.0030(12) 0.0010(12) 
C22A 0.0170(15) 0.0130(15) 0.0145(15) 0.0005(12) 0.0047(12) 0.0033(12) 
C23A 0.0218(17) 0.0171(16) 0.0233(17) 0.0043(13) 0.0060(13) 0.0084(14) 
C24A 0.0215(17) 0.0151(16) 0.0285(18) 0.0055(13) 0.0081(14) 0.0043(14) 
C25A 0.0262(16) 0.0243(16) 0.0387(18) 0.0068(14) 0.0140(14) 0.0060(13) 
C26A 0.020(2) 0.031(2) 0.028(2) -0.0044(18) 0.0035(17) 0.0052(18) 
C27A 0.029(2) 0.051(3) 0.035(2) -0.008(2) 0.0080(19) 0.014(2) 
C28A 0.0343(19) 0.066(2) 0.046(2) -0.0098(19) 0.0176(16) 0.0061(18) 
C29A 0.0241(17) 0.050(2) 0.045(2) -0.0107(17) 0.0127(15) -0.0030(16) 
C25C 0.0262(16) 0.0243(16) 0.0387(18) 0.0068(14) 0.0140(14) 0.0060(13) 
C26C 0.036(4) 0.045(5) 0.039(5) 0.000(4) 0.006(4) 0.003(4) 
C27C 0.037(5) 0.063(5) 0.041(5) -0.014(4) 0.011(4) 0.012(4) 
C28C 0.0343(19) 0.066(2) 0.046(2) -0.0098(19) 0.0176(16) 0.0061(18) 
C29C 0.0241(17) 0.050(2) 0.045(2) -0.0107(17) 0.0127(15) -0.0030(16) 
C30A 0.0221(17) 0.0249(18) 0.0302(19) 0.0076(15) 0.0088(14) 0.0032(14) 
C31A 0.0259(19) 0.032(2) 0.046(2) 0.0126(17) -0.0026(17) 0.0033(16) 
C32A 0.052(3) 0.044(3) 0.053(3) 0.010(2) -0.022(2) -0.004(2) 
C33A 0.027(2) 0.034(2) 0.052(3) -0.0023(19) 0.0020(18) -0.0041(17) 
C34A 0.040(2) 0.0226(18) 0.0282(19) -0.0009(15) 0.0016(16) -0.0029(16) 
C35A 0.0268(16) 0.0158(14) 0.0255(15) 0.0037(12) 0.0099(13) 0.0005(12) 
C36A 0.019(2) 0.018(2) 0.0299(18) -0.0015(15) 0.0020(15) 0.001(2) 
C37A 0.0179(19) 0.014(2) 0.034(2) -0.0005(17) 0.0013(17) -0.0021(16) 
C38A 0.025(2) 0.013(2) 0.034(2) 0.0003(19) -0.0024(18) 0.0043(17) 
C39A 0.033(2) 0.0222(18) 0.0224(18) 0.0048(15) 0.0084(18) 0.0060(18) 
C35C 0.0268(16) 0.0158(14) 0.0255(15) 0.0037(12) 0.0099(13) 0.0005(12) 
C36C 0.019(2) 0.018(2) 0.0299(18) -0.0015(15) 0.0020(15) 0.001(2) 
C37C 0.0179(19) 0.014(2) 0.034(2) -0.0005(17) 0.0013(17) -0.0021(16) 
C38C 0.028(4) 0.023(4) 0.033(4) 0.001(4) 0.009(4) 0.004(4) 
C39C 0.033(2) 0.0222(18) 0.0224(18) 0.0048(15) 0.0084(18) 0.0060(18) 
C40A 0.0186(16) 0.0195(16) 0.0179(16) 0.0022(13) 0.0036(13) 0.0072(14) 
C41A 0.0166(16) 0.0205(17) 0.0222(17) -0.0001(13) 0.0010(13) 0.0025(14) 
C42A 0.0193(17) 0.0216(17) 0.0309(19) 0.0018(14) 0.0072(14) 0.0008(14) 
C43A 0.0305(19) 0.0313(19) 0.0287(19) 0.0007(15) 0.0108(15) 0.0086(16) 
C44A 0.040(2) 0.040(2) 0.029(2) 0.0076(17) 0.0043(16) 0.0169(18) 
C45A 0.031(2) 0.0270(19) 0.037(2) 0.0090(16) 0.0054(16) 0.0079(16) 
C46A 0.0251(18) 0.0242(18) 0.0316(19) 0.0017(15) 0.0042(15) 0.0080(14) 
C47A 0.0169(16) 0.0266(18) 0.0297(18) -0.0018(14) 0.0011(14) 0.0039(14) 
C48A 0.0230(18) 0.033(2) 0.0254(18) -0.0014(15) 0.0025(14) 0.0054(15) 
C49A 0.039(2) 0.052(3) 0.036(2) -0.0084(19) 0.0056(18) 0.016(2) 
C50A 0.065(3) 0.036(2) 0.052(3) -0.013(2) 0.017(2) 0.012(2) 
C51A 0.038(2) 0.028(2) 0.039(2) -0.0106(17) 0.0043(18) -0.0049(17) 
C52A 0.0161(16) 0.0214(17) 0.0311(18) -0.0013(14) 0.0041(14) -0.0001(13) 
C53A 0.0210(17) 0.0191(17) 0.044(2) 0.0031(15) 0.0045(15) 0.0044(14) 
C54A 0.0256(19) 0.042(2) 0.041(2) 0.0071(18) 0.0020(17) 0.0037(17) 
C55A 0.0218(18) 0.0291(19) 0.039(2) -0.0060(16) 0.0032(16) -0.0010(15) 
C56A 0.0184(18) 0.0239(19) 0.059(3) 0.0075(17) 0.0111(17) 0.0009(15) 
 
_geom_special_details 
; 
 All esds (except the esd in the dihedral angle between two l.s. planes) 
 are estimated using the full covariance matrix.  The cell esds are taken 
 into account individually in the estimation of esds in distances, angles 
 and torsion angles; correlations between esds in cell parameters are only 
 used when they are defined by crystal symmetry.  An approximate (isotropic) 
 treatment of cell esds is used for estimating esds involving l.s. planes. 
; 
 
loop_ 
 _geom_bond_atom_site_label_1 
 _geom_bond_atom_site_label_2 
 _geom_bond_distance 
 _geom_bond_site_symmetry_2 
 _geom_bond_publ_flag 
Si1B C24B 1.845(3) . ? 
Si1B C35B 1.867(3) . ? 
Si1B C25B 1.874(3) . ? 
Si1B C30B 1.886(3) . ? 
C1B C2B 1.415(4) . ? 
C1B C22B 1.416(4) . ? 
C1B C23B 1.436(4) . ? 
Si2B C41B 1.852(3) . ? 
Si2B C52B 1.873(4) . ? 
Si2B C47B 1.879(3) . ? 
Si2B C42B 1.884(3) . ? 
C2B C3B 1.406(4) . ? 
C2B C11B 1.450(4) . ? 
C3B C4B 1.389(4) . ? 
C3B H3B 0.9500 . ? 
C4B C5B 1.424(4) . ? 
C4B C9B 1.454(4) . ? 
C5B C6B 1.359(5) . ? 
C5B H5B 0.9500 . ? 
C6B C7B 1.428(5) . ? 
C6B H6B 0.9500 . ? 
C7B C8B 1.350(5) . ? 
C7B H7B 0.9500 . ? 
C8B C9B 1.432(4) . ? 
C8B H8B 0.9500 . ? 
C9B C10B 1.382(4) . ? 
C10B C11B 1.409(4) . ? 
C10B H10B 0.9500 . ? 
C11B C12B 1.417(4) . ? 
C12B C13B 1.419(4) . ? 
C12B C40B 1.434(4) . ? 
C13B C14B 1.416(4) . ? 
C13B C22B 1.450(4) . ? 
C14B C15B 1.380(5) . ? 
C14B H14B 0.9500 . ? 
C15B C16B 1.439(4) . ? 
C15B C20B 1.445(4) . ? 
C16B C17B 1.355(5) . ? 
C16B H16B 0.9500 . ? 
C17B C18B 1.430(5) . ? 
C17B H17B 0.9500 . ? 
C18B C19B 1.358(5) . ? 
C18B H18B 0.9500 . ? 
C19B C20B 1.437(4) . ? 
C19B H19B 0.9500 . ? 
C20B C21B 1.377(4) . ? 
C21B C22B 1.401(4) . ? 
C21B H21B 0.9500 . ? 
C23B C24B 1.212(4) . ? 
C25B C29B 1.537(5) . ? 
C25B C26B 1.554(4) . ? 
C25B H25B 1.0000 . ? 
C26B C27B 1.538(5) . ? 
C26B H26A 0.9900 . ? 
C26B H26B 0.9900 . ? 
C27B C28B 1.512(6) . ? 
C27B H27A 0.9900 . ? 
C27B H27B 0.9900 . ? 
C28B C29B 1.496(5) . ? 
C28B H28A 0.9900 . ? 
C28B H28B 0.9900 . ? 
C29B H29A 0.9900 . ? 
C29B H29B 0.9900 . ? 
C30B C31B 1.524(5) . ? 
C30B C34B 1.541(4) . ? 
C30B H30B 1.0000 . ? 
C31B C32B 1.539(5) . ? 
C31B H31A 0.9900 . ? 
C31B H31B 0.9900 . ? 
C32B C33B 1.515(6) . ? 
C32B H32A 0.9900 . ? 
C32B H32B 0.9900 . ? 
C33B C34B 1.539(5) . ? 
C33B H33A 0.9900 . ? 
C33B H33B 0.9900 . ? 
C34B H34A 0.9900 . ? 
C34B H34B 0.9900 . ? 
C31D C32D 1.541(11) . ? 
C31D H31C 0.9900 . ? 
C31D H31D 0.9900 . ? 
C32D C33D 1.517(12) . ? 
C32D H32C 0.9900 . ? 
C32D H32D 0.9900 . ? 
C33D C34D 1.542(10) . ? 
C33D H33C 0.9900 . ? 
C33D H33D 0.9900 . ? 
C34D H34C 0.9900 . ? 
C34D H34D 0.9900 . ? 
C35B C36B 1.554(4) . ? 
C35B C39B 1.561(5) . ? 
C35B H35B 1.0000 . ? 
C36B C37B 1.517(6) . ? 
C36B H36A 0.9900 . ? 
C36B H36B 0.9900 . ? 
C37B C38B 1.530(6) . ? 
C37B H37A 0.9900 . ? 
C37B H37B 0.9900 . ? 
C38B C39B 1.515(5) . ? 
C38B H38A 0.9900 . ? 
C38B H38B 0.9900 . ? 
C39B H39A 0.9900 . ? 
C39B H39B 0.9900 . ? 
C40B C41B 1.206(4) . ? 
C42B C43B 1.541(5) . ? 
C42B C46B 1.543(6) . ? 
C42B H42B 1.0000 . ? 
C43B C44B 1.546(10) . ? 
C43B H43A 0.9900 . ? 
C43B H43B 0.9900 . ? 
C44B C45B 1.523(10) . ? 
C44B H44A 0.9900 . ? 
C44B H44B 0.9900 . ? 
C45B C46B 1.534(6) . ? 
C45B H45A 0.9900 . ? 
C45B H45B 0.9900 . ? 
C46B H46A 0.9900 . ? 
C46B H46B 0.9900 . ? 
C43D C44D 1.543(12) . ? 
C43D H43C 0.9900 . ? 
C43D H43D 0.9900 . ? 
C44D C45D 1.532(12) . ? 
C44D H44C 0.9900 . ? 
C44D H44D 0.9900 . ? 
C45D C46D 1.543(9) . ? 
C45D H45C 0.9900 . ? 
C45D H45D 0.9900 . ? 
C46D H46C 0.9900 . ? 
C46D H46D 0.9900 . ? 
C47B C48B 1.542(5) . ? 
C47B C51B 1.556(4) . ? 
C47B H47B 1.0000 . ? 
C48B C49B 1.520(5) . ? 
C48B H48A 0.9900 . ? 
C48B H48B 0.9900 . ? 
C49B C50B 1.531(5) . ? 
C49B H49A 0.9900 . ? 
C49B H49B 0.9900 . ? 
C50B C51B 1.524(5) . ? 
C50B H50A 0.9900 . ? 
C50B H50B 0.9900 . ? 
C51B H51A 0.9900 . ? 
C51B H51B 0.9900 . ? 
C52B C53B 1.541(5) . ? 
C52B C56B 1.546(5) . ? 
C52B H52B 1.0000 . ? 
C53B C54B 1.531(5) . ? 
C53B H53A 0.9900 . ? 
C53B H53B 0.9900 . ? 
C54B C55B 1.517(5) . ? 
C54B H54A 0.9900 . ? 
C54B H54B 0.9900 . ? 
C55B C56B 1.519(6) . ? 
C55B H55A 0.9900 . ? 
C55B H55B 0.9900 . ? 
C56B H56A 0.9900 . ? 
C56B H56B 0.9900 . ? 
Si1A C24A 1.843(3) . ? 
Si1A C35A 1.869(3) . ? 
Si1A C30A 1.872(3) . ? 
Si1A C25A 1.885(3) . ? 
C1A C22A 1.411(4) . ? 
C1A C2A 1.412(4) . ? 
C1A C23A 1.436(4) . ? 
Si2A C41A 1.840(3) . ? 
Si2A C52A 1.872(3) . ? 
Si2A C42A 1.873(4) . ? 
Si2A C47A 1.877(3) . ? 
C2A C3A 1.401(4) . ? 
C2A C11A 1.445(4) . ? 
C3A C4A 1.392(4) . ? 
C3A H3A 0.9500 . ? 
C4A C9A 1.431(5) . ? 
C4A C5A 1.437(4) . ? 
C5A C6A 1.361(5) . ? 
C5A H5A 0.9500 . ? 
C6A C7A 1.411(5) . ? 
C6A H6A 0.9500 . ? 
C7A C8A 1.348(5) . ? 
C7A H7A 0.9500 . ? 
C8A C9A 1.437(4) . ? 
C8A H8A 0.9500 . ? 
C9A C10A 1.385(4) . ? 
C10A C11A 1.407(4) . ? 
C10A H10A 0.9500 . ? 
C11A C12A 1.408(4) . ? 
C12A C13A 1.417(4) . ? 
C12A C40A 1.429(4) . ? 
C13A C14A 1.400(4) . ? 
C13A C22A 1.445(4) . ? 
C14A C15A 1.382(4) . ? 
C14A H14A 0.9500 . ? 
C15A C16A 1.428(4) . ? 
C15A C20A 1.442(4) . ? 
C16A C17A 1.361(4) . ? 
C16A H16A 0.9500 . ? 
C17A C18A 1.418(4) . ? 
C17A H17A 0.9500 . ? 
C18A C19A 1.359(4) . ? 
C18A H18A 0.9500 . ? 
C19A C20A 1.431(4) . ? 
C19A H19A 0.9500 . ? 
C20A C21A 1.391(4) . ? 
C21A C22A 1.412(4) . ? 
C21A H21A 0.9500 . ? 
C23A C24A 1.209(4) . ? 
C25A C29A 1.495(5) . ? 
C25A C26A 1.575(5) . ? 
C25A H25A 1.0000 . ? 
C26A C27A 1.535(6) . ? 
C26A H26C 0.9900 . ? 
C26A H26D 0.9900 . ? 
C27A C28A 1.437(6) . ? 
C27A H27C 0.9900 . ? 
C27A H27D 0.9900 . ? 
C28A C29A 1.538(5) . ? 
C28A H28C 0.9900 . ? 
C28A H28D 0.9900 . ? 
C29A H29C 0.9900 . ? 
C29A H29D 0.9900 . ? 
C26C C27C 1.526(10) . ? 
C26C H26E 0.9900 . ? 
C26C H26F 0.9900 . ? 
C27C H27E 0.9900 . ? 
C27C H27F 0.9900 . ? 
C30A C31A 1.538(5) . ? 
C30A C34A 1.549(4) . ? 
C30A H30A 1.0000 . ? 
C31A C32A 1.467(5) . ? 
C31A H31C 0.9900 . ? 
C31A H31D 0.9900 . ? 
C32A C33A 1.506(6) . ? 
C32A H32C 0.9900 . ? 
C32A H32D 0.9900 . ? 
C33A C34A 1.552(5) . ? 
C33A H33C 0.9900 . ? 
C33A H33D 0.9900 . ? 
C34A H34C 0.9900 . ? 
C34A H34D 0.9900 . ? 
C35A C36A 1.546(5) . ? 
C35A C39A 1.583(5) . ? 
C35A H35A 1.0000 . ? 
C36A C37A 1.540(6) . ? 
C36A H36C 0.9900 . ? 
C36A H36D 0.9900 . ? 
C37A C38A 1.530(6) . ? 
C37A H37C 0.9900 . ? 
C37A H37D 0.9900 . ? 
C38A C39A 1.515(6) . ? 
C38A H38C 0.9900 . ? 
C38A H38D 0.9900 . ? 
C39A H39C 0.9900 . ? 
C39A H39D 0.9900 . ? 
C36C C37C 1.529(10) . ? 
C36C H36E 0.9900 . ? 
C36C H36F 0.9900 . ? 
C37C C38C 1.531(10) . ? 
C37C H37E 0.9900 . ? 
C37C H37F 0.9900 . ? 
C38C C39C 1.513(11) . ? 
C38C H38E 0.9900 . ? 
C38C H38F 0.9900 . ? 
C39C H39E 0.9900 . ? 
C39C H39F 0.9900 . ? 
C40A C41A 1.211(4) . ? 
C42A C46A 1.545(4) . ? 
C42A C43A 1.553(5) . ? 
C42A H42A 1.0000 . ? 
C43A C44A 1.535(5) . ? 
C43A H43C 0.9900 . ? 
C43A H43D 0.9900 . ? 
C44A C45A 1.515(5) . ? 
C44A H44C 0.9900 . ? 
C44A H44D 0.9900 . ? 
C45A C46A 1.519(5) . ? 
C45A H45C 0.9900 . ? 
C45A H45D 0.9900 . ? 
C46A H46C 0.9900 . ? 
C46A H46D 0.9900 . ? 
C47A C48A 1.545(4) . ? 
C47A C51A 1.549(5) . ? 
C47A H47A 1.0000 . ? 
C48A C49A 1.527(5) . ? 
C48A H48C 0.9900 . ? 
C48A H48D 0.9900 . ? 
C49A C50A 1.530(6) . ? 
C49A H49C 0.9900 . ? 
C49A H49D 0.9900 . ? 
C50A C51A 1.544(5) . ? 
C50A H50C 0.9900 . ? 
C50A H50D 0.9900 . ? 
C51A H51C 0.9900 . ? 
C51A H51D 0.9900 . ? 
C52A C56A 1.550(4) . ? 
C52A C53A 1.559(5) . ? 
C52A H52A 1.0000 . ? 
C53A C54A 1.526(5) . ? 
C53A H53C 0.9900 . ? 
C53A H53D 0.9900 . ? 
C54A C55A 1.513(5) . ? 
C54A H54C 0.9900 . ? 
C54A H54D 0.9900 . ? 
C55A C56A 1.522(5) . ? 
C55A H55C 0.9900 . ? 
C55A H55D 0.9900 . ? 
C56A H56C 0.9900 . ? 
C56A H56D 0.9900 . ? 
 
loop_ 
 _geom_angle_atom_site_label_1 
 _geom_angle_atom_site_label_2 
 _geom_angle_atom_site_label_3 
 _geom_angle 
 _geom_angle_site_symmetry_1 
 _geom_angle_site_symmetry_3 
 _geom_angle_publ_flag 
C24B Si1B C35B 107.28(14) . . ? 
C24B Si1B C25B 105.69(14) . . ? 
C35B Si1B C25B 112.41(15) . . ? 
C24B Si1B C30B 108.66(14) . . ? 
C35B Si1B C30B 110.58(15) . . ? 
C25B Si1B C30B 111.93(14) . . ? 
C2B C1B C22B 121.1(3) . . ? 
C2B C1B C23B 120.0(3) . . ? 
C22B C1B C23B 118.9(3) . . ? 
C41B Si2B C52B 106.20(15) . . ? 
C41B Si2B C47B 108.18(15) . . ? 
C52B Si2B C47B 111.03(15) . . ? 
C41B Si2B C42B 107.04(15) . . ? 
C52B Si2B C42B 111.77(16) . . ? 
C47B Si2B C42B 112.29(15) . . ? 
C3B C2B C1B 122.1(3) . . ? 
C3B C2B C11B 118.8(3) . . ? 
C1B C2B C11B 119.1(3) . . ? 
C4B C3B C2B 122.4(3) . . ? 
C4B C3B H3B 118.8 . . ? 
C2B C3B H3B 118.8 . . ? 
C3B C4B C5B 123.0(3) . . ? 
C3B C4B C9B 118.6(3) . . ? 
C5B C4B C9B 118.4(3) . . ? 
C6B C5B C4B 120.9(3) . . ? 
C6B C5B H5B 119.6 . . ? 
C4B C5B H5B 119.6 . . ? 
C5B C6B C7B 120.9(3) . . ? 
C5B C6B H6B 119.6 . . ? 
C7B C6B H6B 119.6 . . ? 
C8B C7B C6B 120.5(3) . . ? 
C8B C7B H7B 119.8 . . ? 
C6B C7B H7B 119.8 . . ? 
C7B C8B C9B 121.1(3) . . ? 
C7B C8B H8B 119.4 . . ? 
C9B C8B H8B 119.4 . . ? 
C10B C9B C8B 122.3(3) . . ? 
C10B C9B C4B 119.4(3) . . ? 
C8B C9B C4B 118.3(3) . . ? 
C9B C10B C11B 122.3(3) . . ? 
C9B C10B H10B 118.9 . . ? 
C11B C10B H10B 118.9 . . ? 
C10B C11B C12B 121.5(3) . . ? 
C10B C11B C2B 118.5(3) . . ? 
C12B C11B C2B 120.0(3) . . ? 
C11B C12B C13B 120.4(3) . . ? 
C11B C12B C40B 119.0(3) . . ? 
C13B C12B C40B 120.6(3) . . ? 
C14B C13B C12B 121.6(3) . . ? 
C14B C13B C22B 118.8(3) . . ? 
C12B C13B C22B 119.7(3) . . ? 
C15B C14B C13B 121.6(3) . . ? 
C15B C14B H14B 119.2 . . ? 
C13B C14B H14B 119.2 . . ? 
C14B C15B C16B 122.1(3) . . ? 
C14B C15B C20B 119.5(3) . . ? 
C16B C15B C20B 118.3(3) . . ? 
C17B C16B C15B 121.1(3) . . ? 
C17B C16B H16B 119.4 . . ? 
C15B C16B H16B 119.4 . . ? 
C16B C17B C18B 120.5(3) . . ? 
C16B C17B H17B 119.8 . . ? 
C18B C17B H17B 119.8 . . ? 
C19B C18B C17B 120.7(3) . . ? 
C19B C18B H18B 119.6 . . ? 
C17B C18B H18B 119.6 . . ? 
C18B C19B C20B 121.0(3) . . ? 
C18B C19B H19B 119.5 . . ? 
C20B C19B H19B 119.5 . . ? 
C21B C20B C19B 122.5(3) . . ? 
C21B C20B C15B 119.1(3) . . ? 
C19B C20B C15B 118.4(3) . . ? 
C20B C21B C22B 122.7(3) . . ? 
C20B C21B H21B 118.7 . . ? 
C22B C21B H21B 118.7 . . ? 
C21B C22B C1B 122.2(3) . . ? 
C21B C22B C13B 118.3(3) . . ? 
C1B C22B C13B 119.4(3) . . ? 
C24B C23B C1B 177.9(3) . . ? 
C23B C24B Si1B 176.6(3) . . ? 
C29B C25B C26B 104.9(3) . . ? 
C29B C25B Si1B 114.4(2) . . ? 
C26B C25B Si1B 113.3(2) . . ? 
C29B C25B H25B 108.0 . . ? 
C26B C25B H25B 108.0 . . ? 
Si1B C25B H25B 108.0 . . ? 
C27B C26B C25B 105.4(3) . . ? 
C27B C26B H26A 110.7 . . ? 
C25B C26B H26A 110.7 . . ? 
C27B C26B H26B 110.7 . . ? 
C25B C26B H26B 110.7 . . ? 
H26A C26B H26B 108.8 . . ? 
C28B C27B C26B 106.4(3) . . ? 
C28B C27B H27A 110.5 . . ? 
C26B C27B H27A 110.5 . . ? 
C28B C27B H27B 110.5 . . ? 
C26B C27B H27B 110.5 . . ? 
H27A C27B H27B 108.6 . . ? 
C29B C28B C27B 104.6(3) . . ? 
C29B C28B H28A 110.8 . . ? 
C27B C28B H28A 110.8 . . ? 
C29B C28B H28B 110.8 . . ? 
C27B C28B H28B 110.8 . . ? 
H28A C28B H28B 108.9 . . ? 
C28B C29B C25B 104.2(3) . . ? 
C28B C29B H29A 110.9 . . ? 
C25B C29B H29A 110.9 . . ? 
C28B C29B H29B 110.9 . . ? 
C25B C29B H29B 110.9 . . ? 
H29A C29B H29B 108.9 . . ? 
C31B C30B C34B 102.9(3) . . ? 
C31B C30B Si1B 116.8(2) . . ? 
C34B C30B Si1B 116.2(2) . . ? 
C31B C30B H30B 106.7 . . ? 
C34B C30B H30B 106.7 . . ? 
Si1B C30B H30B 106.7 . . ? 
C30B C31B C32B 104.3(3) . . ? 
C30B C31B H31A 110.9 . . ? 
C32B C31B H31A 110.9 . . ? 
C30B C31B H31B 110.9 . . ? 
C32B C31B H31B 110.9 . . ? 
H31A C31B H31B 108.9 . . ? 
C33B C32B C31B 105.2(3) . . ? 
C33B C32B H32A 110.7 . . ? 
C31B C32B H32A 110.7 . . ? 
C33B C32B H32B 110.7 . . ? 
C31B C32B H32B 110.7 . . ? 
H32A C32B H32B 108.8 . . ? 
C32B C33B C34B 107.1(3) . . ? 
C32B C33B H33A 110.3 . . ? 
C34B C33B H33A 110.3 . . ? 
C32B C33B H33B 110.3 . . ? 
C34B C33B H33B 110.3 . . ? 
H33A C33B H33B 108.5 . . ? 
C33B C34B C30B 105.7(3) . . ? 
C33B C34B H34A 110.6 . . ? 
C30B C34B H34A 110.6 . . ? 
C33B C34B H34B 110.6 . . ? 
C30B C34B H34B 110.6 . . ? 
H34A C34B H34B 108.7 . . ? 
C32D C31D H31C 110.2 . . ? 
C32D C31D H31D 110.2 . . ? 
H31C C31D H31D 108.5 . . ? 
C33D C32D C31D 105.2(9) . . ? 
C33D C32D H32C 110.7 . . ? 
C31D C32D H32C 110.7 . . ? 
C33D C32D H32D 110.7 . . ? 
C31D C32D H32D 110.7 . . ? 
H32C C32D H32D 108.8 . . ? 
C32D C33D C34D 105.6(11) . . ? 
C32D C33D H33C 110.6 . . ? 
C34D C33D H33C 110.6 . . ? 
C32D C33D H33D 110.6 . . ? 
C34D C33D H33D 110.6 . . ? 
H33C C33D H33D 108.7 . . ? 
C33D C34D H34C 110.9 . . ? 
C33D C34D H34D 110.9 . . ? 
H34C C34D H34D 108.9 . . ? 
C36B C35B C39B 105.5(3) . . ? 
C36B C35B Si1B 114.8(2) . . ? 
C39B C35B Si1B 113.7(2) . . ? 
C36B C35B H35B 107.5 . . ? 
C39B C35B H35B 107.5 . . ? 
Si1B C35B H35B 107.5 . . ? 
C37B C36B C35B 105.1(3) . . ? 
C37B C36B H36A 110.7 . . ? 
C35B C36B H36A 110.7 . . ? 
C37B C36B H36B 110.7 . . ? 
C35B C36B H36B 110.7 . . ? 
H36A C36B H36B 108.8 . . ? 
C36B C37B C38B 104.8(3) . . ? 
C36B C37B H37A 110.8 . . ? 
C38B C37B H37A 110.8 . . ? 
C36B C37B H37B 110.8 . . ? 
C38B C37B H37B 110.8 . . ? 
H37A C37B H37B 108.9 . . ? 
C39B C38B C37B 104.8(3) . . ? 
C39B C38B H38A 110.8 . . ? 
C37B C38B H38A 110.8 . . ? 
C39B C38B H38B 110.8 . . ? 
C37B C38B H38B 110.8 . . ? 
H38A C38B H38B 108.9 . . ? 
C38B C39B C35B 106.6(3) . . ? 
C38B C39B H39A 110.4 . . ? 
C35B C39B H39A 110.4 . . ? 
C38B C39B H39B 110.4 . . ? 
C35B C39B H39B 110.4 . . ? 
H39A C39B H39B 108.6 . . ? 
C41B C40B C12B 177.7(3) . . ? 
C40B C41B Si2B 175.0(3) . . ? 
C43B C42B C46B 102.7(4) . . ? 
C43B C42B Si2B 114.5(5) . . ? 
C46B C42B Si2B 114.9(4) . . ? 
C43B C42B H42B 108.1 . . ? 
C46B C42B H42B 108.1 . . ? 
Si2B C42B H42B 108.1 . . ? 
C42B C43B C44B 102.8(5) . . ? 
C42B C43B H43A 111.2 . . ? 
C44B C43B H43A 111.2 . . ? 
C42B C43B H43B 111.2 . . ? 
C44B C43B H43B 111.2 . . ? 
H43A C43B H43B 109.1 . . ? 
C45B C44B C43B 104.3(6) . . ? 
C45B C44B H44A 110.9 . . ? 
C43B C44B H44A 110.9 . . ? 
C45B C44B H44B 110.9 . . ? 
C43B C44B H44B 110.9 . . ? 
H44A C44B H44B 108.9 . . ? 
C44B C45B C46B 106.8(4) . . ? 
C44B C45B H45A 110.4 . . ? 
C46B C45B H45A 110.4 . . ? 
C44B C45B H45B 110.4 . . ? 
C46B C45B H45B 110.4 . . ? 
H45A C45B H45B 108.6 . . ? 
C45B C46B C42B 106.3(5) . . ? 
C45B C46B H46A 110.5 . . ? 
C42B C46B H46A 110.5 . . ? 
C45B C46B H46B 110.5 . . ? 
C42B C46B H46B 110.5 . . ? 
H46A C46B H46B 108.7 . . ? 
C44D C43D H43C 110.4 . . ? 
C44D C43D H43D 110.4 . . ? 
H43C C43D H43D 108.6 . . ? 
C45D C44D C43D 103.5(11) . . ? 
C45D C44D H44C 111.1 . . ? 
C43D C44D H44C 111.1 . . ? 
C45D C44D H44D 111.1 . . ? 
C43D C44D H44D 111.1 . . ? 
H44C C44D H44D 109.0 . . ? 
C44D C45D C46D 101.7(10) . . ? 
C44D C45D H45C 111.4 . . ? 
C46D C45D H45C 111.4 . . ? 
C44D C45D H45D 111.4 . . ? 
C46D C45D H45D 111.4 . . ? 
H45C C45D H45D 109.3 . . ? 
C45D C46D H46C 110.9 . . ? 
C45D C46D H46D 110.9 . . ? 
H46C C46D H46D 108.9 . . ? 
C48B C47B C51B 105.5(3) . . ? 
C48B C47B Si2B 113.6(2) . . ? 
C51B C47B Si2B 113.4(2) . . ? 
C48B C47B H47B 108.0 . . ? 
C51B C47B H47B 108.0 . . ? 
Si2B C47B H47B 108.0 . . ? 
C49B C48B C47B 105.3(3) . . ? 
C49B C48B H48A 110.7 . . ? 
C47B C48B H48A 110.7 . . ? 
C49B C48B H48B 110.7 . . ? 
C47B C48B H48B 110.7 . . ? 
H48A C48B H48B 108.8 . . ? 
C48B C49B C50B 103.3(3) . . ? 
C48B C49B H49A 111.1 . . ? 
C50B C49B H49A 111.1 . . ? 
C48B C49B H49B 111.1 . . ? 
C50B C49B H49B 111.1 . . ? 
H49A C49B H49B 109.1 . . ? 
C51B C50B C49B 103.5(3) . . ? 
C51B C50B H50A 111.1 . . ? 
C49B C50B H50A 111.1 . . ? 
C51B C50B H50B 111.1 . . ? 
C49B C50B H50B 111.1 . . ? 
H50A C50B H50B 109.0 . . ? 
C50B C51B C47B 105.7(3) . . ? 
C50B C51B H51A 110.6 . . ? 
C47B C51B H51A 110.6 . . ? 
C50B C51B H51B 110.6 . . ? 
C47B C51B H51B 110.6 . . ? 
H51A C51B H51B 108.7 . . ? 
C53B C52B C56B 103.2(3) . . ? 
C53B C52B Si2B 116.6(2) . . ? 
C56B C52B Si2B 113.5(2) . . ? 
C53B C52B H52B 107.7 . . ? 
C56B C52B H52B 107.7 . . ? 
Si2B C52B H52B 107.7 . . ? 
C54B C53B C52B 104.6(3) . . ? 
C54B C53B H53A 110.8 . . ? 
C52B C53B H53A 110.8 . . ? 
C54B C53B H53B 110.8 . . ? 
C52B C53B H53B 110.8 . . ? 
H53A C53B H53B 108.9 . . ? 
C55B C54B C53B 104.4(3) . . ? 
C55B C54B H54A 110.9 . . ? 
C53B C54B H54A 110.9 . . ? 
C55B C54B H54B 110.9 . . ? 
C53B C54B H54B 110.9 . . ? 
H54A C54B H54B 108.9 . . ? 
C54B C55B C56B 107.3(3) . . ? 
C54B C55B H55A 110.2 . . ? 
C56B C55B H55A 110.2 . . ? 
C54B C55B H55B 110.2 . . ? 
C56B C55B H55B 110.2 . . ? 
H55A C55B H55B 108.5 . . ? 
C55B C56B C52B 107.3(3) . . ? 
C55B C56B H56A 110.3 . . ? 
C52B C56B H56A 110.3 . . ? 
C55B C56B H56B 110.3 . . ? 
C52B C56B H56B 110.3 . . ? 
H56A C56B H56B 108.5 . . ? 
C24A Si1A C35A 106.64(15) . . ? 
C24A Si1A C30A 106.40(15) . . ? 
C35A Si1A C30A 111.32(15) . . ? 
C24A Si1A C25A 107.11(15) . . ? 
C35A Si1A C25A 112.49(15) . . ? 
C30A Si1A C25A 112.43(16) . . ? 
C22A C1A C2A 121.5(3) . . ? 
C22A C1A C23A 119.5(3) . . ? 
C2A C1A C23A 119.0(3) . . ? 
C41A Si2A C52A 107.49(14) . . ? 
C41A Si2A C42A 106.35(15) . . ? 
C52A Si2A C42A 112.46(15) . . ? 
C41A Si2A C47A 107.13(14) . . ? 
C52A Si2A C47A 110.88(15) . . ? 
C42A Si2A C47A 112.16(15) . . ? 
C3A C2A C1A 122.1(3) . . ? 
C3A C2A C11A 118.5(3) . . ? 
C1A C2A C11A 119.4(3) . . ? 
C4A C3A C2A 122.1(3) . . ? 
C4A C3A H3A 119.0 . . ? 
C2A C3A H3A 119.0 . . ? 
C3A C4A C9A 119.4(3) . . ? 
C3A C4A C5A 121.7(3) . . ? 
C9A C4A C5A 118.9(3) . . ? 
C6A C5A C4A 119.9(3) . . ? 
C6A C5A H5A 120.0 . . ? 
C4A C5A H5A 120.0 . . ? 
C5A C6A C7A 121.3(3) . . ? 
C5A C6A H6A 119.4 . . ? 
C7A C6A H6A 119.4 . . ? 
C8A C7A C6A 120.6(3) . . ? 
C8A C7A H7A 119.7 . . ? 
C6A C7A H7A 119.7 . . ? 
C7A C8A C9A 121.1(3) . . ? 
C7A C8A H8A 119.5 . . ? 
C9A C8A H8A 119.5 . . ? 
C10A C9A C4A 119.1(3) . . ? 
C10A C9A C8A 122.7(3) . . ? 
C4A C9A C8A 118.2(3) . . ? 
C9A C10A C11A 122.2(3) . . ? 
C9A C10A H10A 118.9 . . ? 
C11A C10A H10A 118.9 . . ? 
C10A C11A C12A 122.2(3) . . ? 
C10A C11A C2A 118.6(3) . . ? 
C12A C11A C2A 119.2(3) . . ? 
C11A C12A C13A 121.3(3) . . ? 
C11A C12A C40A 119.7(3) . . ? 
C13A C12A C40A 119.1(3) . . ? 
C14A C13A C12A 121.8(3) . . ? 
C14A C13A C22A 118.7(3) . . ? 
C12A C13A C22A 119.5(3) . . ? 
C15A C14A C13A 122.5(3) . . ? 
C15A C14A H14A 118.7 . . ? 
C13A C14A H14A 118.7 . . ? 
C14A C15A C16A 122.5(3) . . ? 
C14A C15A C20A 119.3(3) . . ? 
C16A C15A C20A 118.2(3) . . ? 
C17A C16A C15A 121.2(3) . . ? 
C17A C16A H16A 119.4 . . ? 
C15A C16A H16A 119.4 . . ? 
C16A C17A C18A 120.5(3) . . ? 
C16A C17A H17A 119.7 . . ? 
C18A C17A H17A 119.7 . . ? 
C19A C18A C17A 120.5(3) . . ? 
C19A C18A H18A 119.7 . . ? 
C17A C18A H18A 119.7 . . ? 
C18A C19A C20A 121.0(3) . . ? 
C18A C19A H19A 119.5 . . ? 
C20A C19A H19A 119.5 . . ? 
C21A C20A C19A 122.5(3) . . ? 
C21A C20A C15A 118.9(3) . . ? 
C19A C20A C15A 118.5(3) . . ? 
C20A C21A C22A 122.0(3) . . ? 
C20A C21A H21A 119.0 . . ? 
C22A C21A H21A 119.0 . . ? 
C1A C22A C21A 122.5(3) . . ? 
C1A C22A C13A 119.0(3) . . ? 
C21A C22A C13A 118.5(3) . . ? 
C24A C23A C1A 178.4(3) . . ? 
C23A C24A Si1A 179.0(3) . . ? 
C29A C25A C26A 99.4(3) . . ? 
C29A C25A Si1A 117.6(3) . . ? 
C26A C25A Si1A 115.6(3) . . ? 
C29A C25A H25A 107.9 . . ? 
C26A C25A H25A 107.9 . . ? 
Si1A C25A H25A 107.9 . . ? 
C27A C26A C25A 104.9(3) . . ? 
C27A C26A H26C 110.8 . . ? 
C25A C26A H26C 110.8 . . ? 
C27A C26A H26D 110.8 . . ? 
C25A C26A H26D 110.8 . . ? 
H26C C26A H26D 108.8 . . ? 
C28A C27A C26A 107.6(4) . . ? 
C28A C27A H27C 110.2 . . ? 
C26A C27A H27C 110.2 . . ? 
C28A C27A H27D 110.2 . . ? 
C26A C27A H27D 110.2 . . ? 
H27C C27A H27D 108.5 . . ? 
C27A C28A C29A 105.4(3) . . ? 
C27A C28A H28C 110.7 . . ? 
C29A C28A H28C 110.7 . . ? 
C27A C28A H28D 110.7 . . ? 
C29A C28A H28D 110.7 . . ? 
H28C C28A H28D 108.8 . . ? 
C25A C29A C28A 104.4(3) . . ? 
C25A C29A H29C 110.9 . . ? 
C28A C29A H29C 110.9 . . ? 
C25A C29A H29D 110.9 . . ? 
C28A C29A H29D 110.9 . . ? 
H29C C29A H29D 108.9 . . ? 
C27C C26C H26E 111.3 . . ? 
C27C C26C H26F 111.3 . . ? 
H26E C26C H26F 109.2 . . ? 
C26C C27C H27E 109.2 . . ? 
C26C C27C H27F 109.2 . . ? 
H27E C27C H27F 107.9 . . ? 
C31A C30A C34A 104.3(3) . . ? 
C31A C30A Si1A 114.7(2) . . ? 
C34A C30A Si1A 116.1(2) . . ? 
C31A C30A H30A 107.1 . . ? 
C34A C30A H30A 107.1 . . ? 
Si1A C30A H30A 107.1 . . ? 
C32A C31A C30A 105.2(3) . . ? 
C32A C31A H31C 110.7 . . ? 
C30A C31A H31C 110.7 . . ? 
C32A C31A H31D 110.7 . . ? 
C30A C31A H31D 110.7 . . ? 
H31C C31A H31D 108.8 . . ? 
C31A C32A C33A 107.1(3) . . ? 
C31A C32A H32C 110.3 . . ? 
C33A C32A H32C 110.3 . . ? 
C31A C32A H32D 110.3 . . ? 
C33A C32A H32D 110.3 . . ? 
H32C C32A H32D 108.5 . . ? 
C32A C33A C34A 105.2(3) . . ? 
C32A C33A H33C 110.7 . . ? 
C34A C33A H33C 110.7 . . ? 
C32A C33A H33D 110.7 . . ? 
C34A C33A H33D 110.7 . . ? 
H33C C33A H33D 108.8 . . ? 
C30A C34A C33A 106.3(3) . . ? 
C30A C34A H34C 110.5 . . ? 
C33A C34A H34C 110.5 . . ? 
C30A C34A H34D 110.5 . . ? 
C33A C34A H34D 110.5 . . ? 
H34C C34A H34D 108.7 . . ? 
C36A C35A C39A 103.2(3) . . ? 
C36A C35A Si1A 111.9(3) . . ? 
C39A C35A Si1A 116.9(3) . . ? 
C36A C35A H35A 108.2 . . ? 
C39A C35A H35A 108.2 . . ? 
Si1A C35A H35A 108.2 . . ? 
C37A C36A C35A 105.3(3) . . ? 
C37A C36A H36C 110.7 . . ? 
C35A C36A H36C 110.7 . . ? 
C37A C36A H36D 110.7 . . ? 
C35A C36A H36D 110.7 . . ? 
H36C C36A H36D 108.8 . . ? 
C38A C37A C36A 102.8(3) . . ? 
C38A C37A H37C 111.2 . . ? 
C36A C37A H37C 111.2 . . ? 
C38A C37A H37D 111.2 . . ? 
C36A C37A H37D 111.2 . . ? 
H37C C37A H37D 109.1 . . ? 
C39A C38A C37A 104.4(3) . . ? 
C39A C38A H38C 110.9 . . ? 
C37A C38A H38C 110.9 . . ? 
C39A C38A H38D 110.9 . . ? 
C37A C38A H38D 110.9 . . ? 
H38C C38A H38D 108.9 . . ? 
C38A C39A C35A 107.8(3) . . ? 
C38A C39A H39C 110.1 . . ? 
C35A C39A H39C 110.1 . . ? 
C38A C39A H39D 110.1 . . ? 
C35A C39A H39D 110.1 . . ? 
H39C C39A H39D 108.5 . . ? 
C37C C36C H36E 111.1 . . ? 
C37C C36C H36F 111.1 . . ? 
H36E C36C H36F 109.1 . . ? 
C36C C37C C38C 106.7(8) . . ? 
C36C C37C H37E 110.4 . . ? 
C38C C37C H37E 110.4 . . ? 
C36C C37C H37F 110.4 . . ? 
C38C C37C H37F 110.4 . . ? 
H37E C37C H37F 108.6 . . ? 
C39C C38C C37C 105.2(9) . . ? 
C39C C38C H38E 110.7 . . ? 
C37C C38C H38E 110.7 . . ? 
C39C C38C H38F 110.7 . . ? 
C37C C38C H38F 110.7 . . ? 
H38E C38C H38F 108.8 . . ? 
C38C C39C H39E 111.9 . . ? 
C38C C39C H39F 111.9 . . ? 
H39E C39C H39F 109.6 . . ? 
C41A C40A C12A 177.1(3) . . ? 
C40A C41A Si2A 176.0(3) . . ? 
C46A C42A C43A 104.1(3) . . ? 
C46A C42A Si2A 115.2(2) . . ? 
C43A C42A Si2A 113.5(2) . . ? 
C46A C42A H42A 107.9 . . ? 
C43A C42A H42A 107.9 . . ? 
Si2A C42A H42A 107.9 . . ? 
C44A C43A C42A 106.5(3) . . ? 
C44A C43A H43C 110.4 . . ? 
C42A C43A H43C 110.4 . . ? 
C44A C43A H43D 110.4 . . ? 
C42A C43A H43D 110.4 . . ? 
H43C C43A H43D 108.6 . . ? 
C45A C44A C43A 105.4(3) . . ? 
C45A C44A H44C 110.7 . . ? 
C43A C44A H44C 110.7 . . ? 
C45A C44A H44D 110.7 . . ? 
C43A C44A H44D 110.7 . . ? 
H44C C44A H44D 108.8 . . ? 
C44A C45A C46A 103.2(3) . . ? 
C44A C45A H45C 111.1 . . ? 
C46A C45A H45C 111.1 . . ? 
C44A C45A H45D 111.1 . . ? 
C46A C45A H45D 111.1 . . ? 
H45C C45A H45D 109.1 . . ? 
C45A C46A C42A 104.0(3) . . ? 
C45A C46A H46C 111.0 . . ? 
C42A C46A H46C 111.0 . . ? 
C45A C46A H46D 111.0 . . ? 
C42A C46A H46D 111.0 . . ? 
H46C C46A H46D 109.0 . . ? 
C48A C47A C51A 103.0(3) . . ? 
C48A C47A Si2A 116.6(2) . . ? 
C51A C47A Si2A 116.3(2) . . ? 
C48A C47A H47A 106.8 . . ? 
C51A C47A H47A 106.8 . . ? 
Si2A C47A H47A 106.8 . . ? 
C49A C48A C47A 103.6(3) . . ? 
C49A C48A H48C 111.0 . . ? 
C47A C48A H48C 111.0 . . ? 
C49A C48A H48D 111.0 . . ? 
C47A C48A H48D 111.0 . . ? 
H48C C48A H48D 109.0 . . ? 
C48A C49A C50A 104.4(3) . . ? 
C48A C49A H49C 110.9 . . ? 
C50A C49A H49C 110.9 . . ? 
C48A C49A H49D 110.9 . . ? 
C50A C49A H49D 110.9 . . ? 
H49C C49A H49D 108.9 . . ? 
C49A C50A C51A 107.0(3) . . ? 
C49A C50A H50C 110.3 . . ? 
C51A C50A H50C 110.3 . . ? 
C49A C50A H50D 110.3 . . ? 
C51A C50A H50D 110.3 . . ? 
H50C C50A H50D 108.6 . . ? 
C50A C51A C47A 105.8(3) . . ? 
C50A C51A H51C 110.6 . . ? 
C47A C51A H51C 110.6 . . ? 
C50A C51A H51D 110.6 . . ? 
C47A C51A H51D 110.6 . . ? 
H51C C51A H51D 108.7 . . ? 
C56A C52A C53A 104.9(3) . . ? 
C56A C52A Si2A 114.1(2) . . ? 
C53A C52A Si2A 113.0(2) . . ? 
C56A C52A H52A 108.2 . . ? 
C53A C52A H52A 108.2 . . ? 
Si2A C52A H52A 108.2 . . ? 
C54A C53A C52A 105.9(3) . . ? 
C54A C53A H53C 110.6 . . ? 
C52A C53A H53C 110.6 . . ? 
C54A C53A H53D 110.6 . . ? 
C52A C53A H53D 110.6 . . ? 
H53C C53A H53D 108.7 . . ? 
C55A C54A C53A 104.4(3) . . ? 
C55A C54A H54C 110.9 . . ? 
C53A C54A H54C 110.9 . . ? 
C55A C54A H54D 110.9 . . ? 
C53A C54A H54D 110.9 . . ? 
H54C C54A H54D 108.9 . . ? 
C54A C55A C56A 104.2(3) . . ? 
C54A C55A H55C 110.9 . . ? 
C56A C55A H55C 110.9 . . ? 
C54A C55A H55D 110.9 . . ? 
C56A C55A H55D 110.9 . . ? 
H55C C55A H55D 108.9 . . ? 
C55A C56A C52A 106.4(3) . . ? 
C55A C56A H56C 110.5 . . ? 
C52A C56A H56C 110.5 . . ? 
C55A C56A H56D 110.5 . . ? 
C52A C56A H56D 110.5 . . ? 
H56C C56A H56D 108.6 . . ? 
 
loop_ 
 _geom_torsion_atom_site_label_1 
 _geom_torsion_atom_site_label_2 
 _geom_torsion_atom_site_label_3 
 _geom_torsion_atom_site_label_4 
 _geom_torsion 
 _geom_torsion_site_symmetry_1 
 _geom_torsion_site_symmetry_2 
 _geom_torsion_site_symmetry_3 
 _geom_torsion_site_symmetry_4 
 _geom_torsion_publ_flag 
C22B C1B C2B C3B -176.9(3) . . . . ? 
C23B C1B C2B C3B 5.2(4) . . . . ? 
C22B C1B C2B C11B 4.1(4) . . . . ? 
C23B C1B C2B C11B -173.8(3) . . . . ? 
C1B C2B C3B C4B -178.5(3) . . . . ? 
C11B C2B C3B C4B 0.5(4) . . . . ? 
C2B C3B C4B C5B 177.7(3) . . . . ? 
C2B C3B C4B C9B -1.0(4) . . . . ? 
C3B C4B C5B C6B -178.5(3) . . . . ? 
C9B C4B C5B C6B 0.2(4) . . . . ? 
C4B C5B C6B C7B -0.8(5) . . . . ? 
C5B C6B C7B C8B 0.7(5) . . . . ? 
C6B C7B C8B C9B 0.1(5) . . . . ? 
C7B C8B C9B C10B 177.7(3) . . . . ? 
C7B C8B C9B C4B -0.7(4) . . . . ? 
C3B C4B C9B C10B 0.9(4) . . . . ? 
C5B C4B C9B C10B -177.9(3) . . . . ? 
C3B C4B C9B C8B 179.4(3) . . . . ? 
C5B C4B C9B C8B 0.6(4) . . . . ? 
C8B C9B C10B C11B -178.6(3) . . . . ? 
C4B C9B C10B C11B -0.2(4) . . . . ? 
C9B C10B C11B C12B 178.5(3) . . . . ? 
C9B C10B C11B C2B -0.3(4) . . . . ? 
C3B C2B C11B C10B 0.2(4) . . . . ? 
C1B C2B C11B C10B 179.2(3) . . . . ? 
C3B C2B C11B C12B -178.7(3) . . . . ? 
C1B C2B C11B C12B 0.4(4) . . . . ? 
C10B C11B C12B C13B 177.0(3) . . . . ? 
C2B C11B C12B C13B -4.2(4) . . . . ? 
C10B C11B C12B C40B -4.7(4) . . . . ? 
C2B C11B C12B C40B 174.1(3) . . . . ? 
C11B C12B C13B C14B -177.2(3) . . . . ? 
C40B C12B C13B C14B 4.5(4) . . . . ? 
C11B C12B C13B C22B 3.6(4) . . . . ? 
C40B C12B C13B C22B -174.7(3) . . . . ? 
C12B C13B C14B C15B -179.6(3) . . . . ? 
C22B C13B C14B C15B -0.4(4) . . . . ? 
C13B C14B C15B C16B 179.5(3) . . . . ? 
C13B C14B C15B C20B 0.4(4) . . . . ? 
C14B C15B C16B C17B -178.5(3) . . . . ? 
C20B C15B C16B C17B 0.6(5) . . . . ? 
C15B C16B C17B C18B -0.3(5) . . . . ? 
C16B C17B C18B C19B -0.1(5) . . . . ? 
C17B C18B C19B C20B 0.2(5) . . . . ? 
C18B C19B C20B C21B 178.4(3) . . . . ? 
C18B C19B C20B C15B 0.2(5) . . . . ? 
C14B C15B C20B C21B 0.3(4) . . . . ? 
C16B C15B C20B C21B -178.9(3) . . . . ? 
C14B C15B C20B C19B 178.6(3) . . . . ? 
C16B C15B C20B C19B -0.6(4) . . . . ? 
C19B C20B C21B C22B -179.2(3) . . . . ? 
C15B C20B C21B C22B -1.0(5) . . . . ? 
C20B C21B C22B C1B 179.1(3) . . . . ? 
C20B C21B C22B C13B 0.9(4) . . . . ? 
C2B C1B C22B C21B 177.2(3) . . . . ? 
C23B C1B C22B C21B -4.8(4) . . . . ? 
C2B C1B C22B C13B -4.7(4) . . . . ? 
C23B C1B C22B C13B 173.3(3) . . . . ? 
C14B C13B C22B C21B -0.2(4) . . . . ? 
C12B C13B C22B C21B 179.0(3) . . . . ? 
C14B C13B C22B C1B -178.4(3) . . . . ? 
C12B C13B C22B C1B 0.8(4) . . . . ? 
C2B C1B C23B C24B 113(9) . . . . ? 
C22B C1B C23B C24B -65(9) . . . . ? 
C1B C23B C24B Si1B 68(11) . . . . ? 
C35B Si1B C24B C23B 131(5) . . . . ? 
C25B Si1B C24B C23B 10(5) . . . . ? 
C30B Si1B C24B C23B -110(5) . . . . ? 
C24B Si1B C25B C29B -54.8(3) . . . . ? 
C35B Si1B C25B C29B -171.5(2) . . . . ? 
C30B Si1B C25B C29B 63.3(3) . . . . ? 
C24B Si1B C25B C26B 65.4(3) . . . . ? 
C35B Si1B C25B C26B -51.3(3) . . . . ? 
C30B Si1B C25B C26B -176.5(2) . . . . ? 
C29B C25B C26B C27B -12.6(4) . . . . ? 
Si1B C25B C26B C27B -138.0(3) . . . . ? 
C25B C26B C27B C28B -10.9(4) . . . . ? 
C26B C27B C28B C29B 31.0(4) . . . . ? 
C27B C28B C29B C25B -38.8(4) . . . . ? 
C26B C25B C29B C28B 31.7(3) . . . . ? 
Si1B C25B C29B C28B 156.4(2) . . . . ? 
C24B Si1B C30B C31B 30.4(3) . . . . ? 
C35B Si1B C30B C31B 147.9(3) . . . . ? 
C25B Si1B C30B C31B -86.0(3) . . . . ? 
C24B Si1B C30B C34B 152.2(3) . . . . ? 
C35B Si1B C30B C34B -90.3(3) . . . . ? 
C25B Si1B C30B C34B 35.9(3) . . . . ? 
C34B C30B C31B C32B 38.6(4) . . . . ? 
Si1B C30B C31B C32B 167.2(3) . . . . ? 
C30B C31B C32B C33B -32.6(4) . . . . ? 
C31B C32B C33B C34B 13.4(5) . . . . ? 
C32B C33B C34B C30B 10.4(5) . . . . ? 
C31B C30B C34B C33B -30.2(4) . . . . ? 
Si1B C30B C34B C33B -159.2(3) . . . . ? 
C31D C32D C33D C34D -15(4) . . . . ? 
C24B Si1B C35B C36B 177.8(3) . . . . ? 
C25B Si1B C35B C36B -66.5(3) . . . . ? 
C30B Si1B C35B C36B 59.4(3) . . . . ? 
C24B Si1B C35B C39B 56.1(3) . . . . ? 
C25B Si1B C35B C39B 171.9(2) . . . . ? 
C30B Si1B C35B C39B -62.2(3) . . . . ? 
C39B C35B C36B C37B -17.9(4) . . . . ? 
Si1B C35B C36B C37B -143.9(3) . . . . ? 
C35B C36B C37B C38B 33.4(4) . . . . ? 
C36B C37B C38B C39B -36.4(4) . . . . ? 
C37B C38B C39B C35B 24.8(4) . . . . ? 
C36B C35B C39B C38B -4.4(4) . . . . ? 
Si1B C35B C39B C38B 122.3(3) . . . . ? 
C11B C12B C40B C41B -56(9) . . . . ? 
C13B C12B C40B C41B 122(9) . . . . ? 
C12B C40B C41B Si2B 15(11) . . . . ? 
C52B Si2B C41B C40B 54(3) . . . . ? 
C47B Si2B C41B C40B 173(3) . . . . ? 
C42B Si2B C41B C40B -66(3) . . . . ? 
C41B Si2B C42B C43B 40.5(7) . . . . ? 
C52B Si2B C42B C43B -75.4(7) . . . . ? 
C47B Si2B C42B C43B 159.1(7) . . . . ? 
C41B Si2B C42B C46B 159.1(4) . . . . ? 
C52B Si2B C42B C46B 43.2(5) . . . . ? 
C47B Si2B C42B C46B -82.4(5) . . . . ? 
C46B C42B C43B C44B 40.5(12) . . . . ? 
Si2B C42B C43B C44B 165.8(6) . . . . ? 
C42B C43B C44B C45B -38.1(12) . . . . ? 
C43B C44B C45B C46B 20.6(10) . . . . ? 
C44B C45B C46B C42B 4.7(9) . . . . ? 
C43B C42B C46B C45B -28.1(10) . . . . ? 
Si2B C42B C46B C45B -153.1(5) . . . . ? 
C43D C44D C45D C46D -41(3) . . . . ? 
C41B Si2B C47B C48B 60.1(3) . . . . ? 
C52B Si2B C47B C48B 176.2(2) . . . . ? 
C42B Si2B C47B C48B -57.8(3) . . . . ? 
C41B Si2B C47B C51B -179.4(2) . . . . ? 
C52B Si2B C47B C51B -63.3(3) . . . . ? 
C42B Si2B C47B C51B 62.7(3) . . . . ? 
C51B C47B C48B C49B -16.5(4) . . . . ? 
Si2B C47B C48B C49B 108.3(3) . . . . ? 
C47B C48B C49B C50B 35.6(4) . . . . ? 
C48B C49B C50B C51B -41.1(4) . . . . ? 
C49B C50B C51B C47B 30.7(4) . . . . ? 
C48B C47B C51B C50B -8.9(4) . . . . ? 
Si2B C47B C51B C50B -133.8(3) . . . . ? 
C41B Si2B C52B C53B -58.2(3) . . . . ? 
C47B Si2B C52B C53B -175.6(2) . . . . ? 
C42B Si2B C52B C53B 58.2(3) . . . . ? 
C41B Si2B C52B C56B 61.5(3) . . . . ? 
C47B Si2B C52B C56B -55.9(3) . . . . ? 
C42B Si2B C52B C56B 177.9(2) . . . . ? 
C56B C52B C53B C54B 34.6(3) . . . . ? 
Si2B C52B C53B C54B 159.7(2) . . . . ? 
C52B C53B C54B C55B -35.6(4) . . . . ? 
C53B C54B C55B C56B 22.4(5) . . . . ? 
C54B C55B C56B C52B -0.9(5) . . . . ? 
C53B C52B C56B C55B -20.8(4) . . . . ? 
Si2B C52B C56B C55B -147.9(3) . . . . ? 
C22A C1A C2A C3A -177.5(3) . . . . ? 
C23A C1A C2A C3A 4.3(4) . . . . ? 
C22A C1A C2A C11A 4.1(4) . . . . ? 
C23A C1A C2A C11A -174.1(3) . . . . ? 
C1A C2A C3A C4A -179.6(3) . . . . ? 
C11A C2A C3A C4A -1.2(4) . . . . ? 
C2A C3A C4A C9A 0.6(5) . . . . ? 
C2A C3A C4A C5A 179.5(3) . . . . ? 
C3A C4A C5A C6A 179.5(3) . . . . ? 
C9A C4A C5A C6A -1.6(5) . . . . ? 
C4A C5A C6A C7A 0.9(5) . . . . ? 
C5A C6A C7A C8A -0.3(5) . . . . ? 
C6A C7A C8A C9A 0.4(5) . . . . ? 
C3A C4A C9A C10A 0.7(4) . . . . ? 
C5A C4A C9A C10A -178.2(3) . . . . ? 
C3A C4A C9A C8A -179.4(3) . . . . ? 
C5A C4A C9A C8A 1.7(4) . . . . ? 
C7A C8A C9A C10A 178.8(3) . . . . ? 
C7A C8A C9A C4A -1.2(5) . . . . ? 
C4A C9A C10A C11A -1.4(5) . . . . ? 
C8A C9A C10A C11A 178.7(3) . . . . ? 
C9A C10A C11A C12A -179.9(3) . . . . ? 
C9A C10A C11A C2A 0.8(4) . . . . ? 
C3A C2A C11A C10A 0.4(4) . . . . ? 
C1A C2A C11A C10A 178.9(3) . . . . ? 
C3A C2A C11A C12A -178.8(3) . . . . ? 
C1A C2A C11A C12A -0.4(4) . . . . ? 
C10A C11A C12A C13A 177.6(3) . . . . ? 
C2A C11A C12A C13A -3.2(4) . . . . ? 
C10A C11A C12A C40A -4.6(4) . . . . ? 
C2A C11A C12A C40A 174.7(3) . . . . ? 
C11A C12A C13A C14A -177.7(3) . . . . ? 
C40A C12A C13A C14A 4.4(4) . . . . ? 
C11A C12A C13A C22A 3.1(4) . . . . ? 
C40A C12A C13A C22A -174.8(3) . . . . ? 
C12A C13A C14A C15A -179.1(3) . . . . ? 
C22A C13A C14A C15A 0.1(4) . . . . ? 
C13A C14A C15A C16A 178.5(3) . . . . ? 
C13A C14A C15A C20A 0.2(4) . . . . ? 
C14A C15A C16A C17A -177.6(3) . . . . ? 
C20A C15A C16A C17A 0.8(4) . . . . ? 
C15A C16A C17A C18A -0.6(5) . . . . ? 
C16A C17A C18A C19A -0.2(5) . . . . ? 
C17A C18A C19A C20A 0.7(5) . . . . ? 
C18A C19A C20A C21A 177.6(3) . . . . ? 
C18A C19A C20A C15A -0.5(4) . . . . ? 
C14A C15A C20A C21A 0.0(4) . . . . ? 
C16A C15A C20A C21A -178.4(3) . . . . ? 
C14A C15A C20A C19A 178.2(3) . . . . ? 
C16A C15A C20A C19A -0.2(4) . . . . ? 
C19A C20A C21A C22A -178.6(3) . . . . ? 
C15A C20A C21A C22A -0.6(4) . . . . ? 
C2A C1A C22A C21A 177.8(3) . . . . ? 
C23A C1A C22A C21A -3.9(4) . . . . ? 
C2A C1A C22A C13A -4.2(4) . . . . ? 
C23A C1A C22A C13A 174.0(3) . . . . ? 
C20A C21A C22A C1A 178.8(3) . . . . ? 
C20A C21A C22A C13A 0.9(4) . . . . ? 
C14A C13A C22A C1A -178.6(3) . . . . ? 
C12A C13A C22A C1A 0.6(4) . . . . ? 
C14A C13A C22A C21A -0.6(4) . . . . ? 
C12A C13A C22A C21A 178.6(3) . . . . ? 
C22A C1A C23A C24A -143(12) . . . . ? 
C2A C1A C23A C24A 36(12) . . . . ? 
C1A C23A C24A Si1A -80(23) . . . . ? 
C35A Si1A C24A C23A 26(17) . . . . ? 
C30A Si1A C24A C23A -93(17) . . . . ? 
C25A Si1A C24A C23A 146(17) . . . . ? 
C24A Si1A C25A C29A 172.8(3) . . . . ? 
C35A Si1A C25A C29A -70.3(3) . . . . ? 
C30A Si1A C25A C29A 56.3(3) . . . . ? 
C24A Si1A C25A C26A -70.2(3) . . . . ? 
C35A Si1A C25A C26A 46.7(3) . . . . ? 
C30A Si1A C25A C26A 173.3(3) . . . . ? 
C29A C25A C26A C27A -33.0(4) . . . . ? 
Si1A C25A C26A C27A -159.9(3) . . . . ? 
C25A C26A C27A C28A 11.3(6) . . . . ? 
C26A C27A C28A C29A 14.9(6) . . . . ? 
C26A C25A C29A C28A 42.2(4) . . . . ? 
Si1A C25A C29A C28A 167.6(3) . . . . ? 
C27A C28A C29A C25A -37.4(5) . . . . ? 
C24A Si1A C30A C31A -65.8(3) . . . . ? 
C35A Si1A C30A C31A 178.4(2) . . . . ? 
C25A Si1A C30A C31A 51.1(3) . . . . ? 
C24A Si1A C30A C34A 172.3(3) . . . . ? 
C35A Si1A C30A C34A 56.5(3) . . . . ? 
C25A Si1A C30A C34A -70.7(3) . . . . ? 
C34A C30A C31A C32A -30.2(4) . . . . ? 
Si1A C30A C31A C32A -158.3(3) . . . . ? 
C30A C31A C32A C33A 35.7(5) . . . . ? 
C31A C32A C33A C34A -26.4(5) . . . . ? 
C31A C30A C34A C33A 13.8(4) . . . . ? 
Si1A C30A C34A C33A 141.0(3) . . . . ? 
C32A C33A C34A C30A 6.9(4) . . . . ? 
C24A Si1A C35A C36A -76.1(3) . . . . ? 
C30A Si1A C35A C36A 39.6(3) . . . . ? 
C25A Si1A C35A C36A 166.8(3) . . . . ? 
C24A Si1A C35A C39A 42.6(3) . . . . ? 
C30A Si1A C35A C39A 158.3(3) . . . . ? 
C25A Si1A C35A C39A -74.5(3) . . . . ? 
C39A C35A C36A C37A 24.8(5) . . . . ? 
Si1A C35A C36A C37A 151.4(3) . . . . ? 
C35A C36A C37A C38A -39.7(5) . . . . ? 
C36A C37A C38A C39A 38.5(5) . . . . ? 
C37A C38A C39A C35A -23.3(5) . . . . ? 
C36A C35A C39A C38A -0.9(5) . . . . ? 
Si1A C35A C39A C38A -124.2(3) . . . . ? 
C36C C37C C38C C39C -32.5(19) . . . . ? 
C11A C12A C40A C41A -128(7) . . . . ? 
C13A C12A C40A C41A 49(7) . . . . ? 
C12A C40A C41A Si2A 17(10) . . . . ? 
C52A Si2A C41A C40A 160(4) . . . . ? 
C42A Si2A C41A C40A -80(4) . . . . ? 
C47A Si2A C41A C40A 40(4) . . . . ? 
C41A Si2A C42A C46A 58.1(3) . . . . ? 
C52A Si2A C42A C46A 175.5(2) . . . . ? 
C47A Si2A C42A C46A -58.7(3) . . . . ? 
C41A Si2A C42A C43A -61.8(3) . . . . ? 
C52A Si2A C42A C43A 55.6(3) . . . . ? 
C47A Si2A C42A C43A -178.6(2) . . . . ? 
C46A C42A C43A C44A 9.3(4) . . . . ? 
Si2A C42A C43A C44A 135.4(3) . . . . ? 
C42A C43A C44A C45A 16.0(4) . . . . ? 
C43A C44A C45A C46A -35.5(4) . . . . ? 
C44A C45A C46A C42A 41.5(3) . . . . ? 
C43A C42A C46A C45A -31.2(3) . . . . ? 
Si2A C42A C46A C45A -156.2(2) . . . . ? 
C41A Si2A C47A C48A -34.4(3) . . . . ? 
C52A Si2A C47A C48A -151.4(2) . . . . ? 
C42A Si2A C47A C48A 82.0(3) . . . . ? 
C41A Si2A C47A C51A -156.1(3) . . . . ? 
C52A Si2A C47A C51A 86.8(3) . . . . ? 
C42A Si2A C47A C51A -39.8(3) . . . . ? 
C51A C47A C48A C49A -39.7(4) . . . . ? 
Si2A C47A C48A C49A -168.2(3) . . . . ? 
C47A C48A C49A C50A 37.6(4) . . . . ? 
C48A C49A C50A C51A -20.9(5) . . . . ? 
C49A C50A C51A C47A -3.7(5) . . . . ? 
C48A C47A C51A C50A 26.5(4) . . . . ? 
Si2A C47A C51A C50A 155.2(3) . . . . ? 
C41A Si2A C52A C56A -175.3(2) . . . . ? 
C42A Si2A C52A C56A 68.0(3) . . . . ? 
C47A Si2A C52A C56A -58.5(3) . . . . ? 
C41A Si2A C52A C53A -55.6(3) . . . . ? 
C42A Si2A C52A C53A -172.3(2) . . . . ? 
C47A Si2A C52A C53A 61.2(3) . . . . ? 
C56A C52A C53A C54A 11.6(4) . . . . ? 
Si2A C52A C53A C54A -113.2(3) . . . . ? 
C52A C53A C54A C55A -31.0(4) . . . . ? 
C53A C54A C55A C56A 38.4(4) . . . . ? 
C54A C55A C56A C52A -31.2(4) . . . . ? 
C53A C52A C56A C55A 11.9(4) . . . . ? 
Si2A C52A C56A C55A 136.1(3) . . . . ? 
 
_diffrn_measured_fraction_theta_max     .999 
_diffrn_reflns_theta_full              25.00 
_diffrn_measured_fraction_theta_full    .999 
_refine_diff_density_max     .666 
_refine_diff_density_min    -.527 
_refine_diff_density_rms     .072 
