 
data_k07299 
 
_audit_creation_method            SHELXL-97 
_chemical_name_systematic 
; 
 ? 
; 
_chemical_name_common             ? 
_chemical_melting_point           ? 
_chemical_formula_moiety 
 'C38 H48 N2 S2 Si2' 
_chemical_formula_sum 
 'C38 H48 N2 S2 Si2' 
_chemical_formula_weight          653.08 
 
loop_ 
 _atom_type_symbol 
 _atom_type_description 
 _atom_type_scat_dispersion_real 
 _atom_type_scat_dispersion_imag 
 _atom_type_scat_source 
 'C'  'C'   0.0033   0.0016 
 'International Tables Vol C Tables 4.2.6.8 and 6.1.1.4' 
 'H'  'H'   0.0000   0.0000 
 'International Tables Vol C Tables 4.2.6.8 and 6.1.1.4' 
 'N'  'N'   0.0061   0.0033 
 'International Tables Vol C Tables 4.2.6.8 and 6.1.1.4' 
 'S'  'S'   0.1246   0.1234 
 'International Tables Vol C Tables 4.2.6.8 and 6.1.1.4' 
 'Si'  'Si'   0.0817   0.0704 
 'International Tables Vol C Tables 4.2.6.8 and 6.1.1.4' 
 
_symmetry_cell_setting            monoclinic 
_symmetry_space_group_name_H-M    'P 21/c'
_symmetry_space_group_name_Hall   '-P 2ybc'
 
loop_ 
 _symmetry_equiv_pos_as_xyz 
 'x, y, z' 
 '-x, y+1/2, -z+1/2' 
 '-x, -y, -z' 
 'x, -y-1/2, z-1/2' 
 
_cell_length_a                    13.4497(3) 
_cell_length_b                    18.6673(4) 
_cell_length_c                    14.8215(3) 
_cell_angle_alpha                 90.00 
_cell_angle_beta                  99.3443(8) 
_cell_angle_gamma                 90.00 
_cell_volume                      3671.85(14) 
_cell_formula_units_Z             4 
_cell_measurement_temperature     90.0(2) 
_cell_measurement_reflns_used     8643
_cell_measurement_theta_min       1.00
_cell_measurement_theta_max       27.48
 
_exptl_crystal_description        block
_exptl_crystal_colour             red
_exptl_crystal_size_max           0.30 
_exptl_crystal_size_mid           0.20 
_exptl_crystal_size_min           0.18 
_exptl_crystal_density_meas       ? 
_exptl_crystal_density_diffrn     1.181 
_exptl_crystal_density_method     'not measured' 
_exptl_crystal_F_000              1400 
_exptl_absorpt_coefficient_mu     0.239 
_exptl_absorpt_correction_type    multi-scan 
_exptl_absorpt_correction_T_min   0.9319 
_exptl_absorpt_correction_T_max   0.9583 
_exptl_absorpt_process_details    'Scalepack (Otwinowski & Minor, 1997)' 
 
_exptl_special_details 
; 
 ? 
; 
 
_diffrn_ambient_temperature       90.0(2) 
_diffrn_radiation_wavelength      0.71073 
_diffrn_radiation_type            MoK\a 
_diffrn_radiation_source          'fine-focus sealed tube'    
_diffrn_radiation_monochromator   'graphite'                 
_diffrn_measurement_device_type   'Nonius KappaCCD diffractometer'  
_diffrn_measurement_method        '\w scans at fixed \c = 55\%'
_diffrn_detector_area_resol_mean  18
_diffrn_standards_number          0 
_diffrn_standards_interval_count  . 
_diffrn_standards_interval_time   . 
_diffrn_standards_decay_%         ? 
_diffrn_reflns_number             16235 
_diffrn_reflns_av_R_equivalents   0.0602 
_diffrn_reflns_av_sigmaI/netI     0.0912 
_diffrn_reflns_limit_h_min        -17 
_diffrn_reflns_limit_h_max        17 
_diffrn_reflns_limit_k_min        -24 
_diffrn_reflns_limit_k_max        24 
_diffrn_reflns_limit_l_min        -19 
_diffrn_reflns_limit_l_max        19 
_diffrn_reflns_theta_min          1.53 
_diffrn_reflns_theta_max          27.46 
_reflns_number_total              8386 
_reflns_number_gt                 4615 
_reflns_threshold_expression      >2\s(I)    
 
_computing_data_collection        'COLLECT (Nonius, 1998)'
_computing_cell_refinement        'SCALEPACK (Otwinowski & Minor, 1997)'
_computing_data_reduction         'DENZO-SMN (Otwinowski & Minor, 1997)'
_computing_structure_solution     'SHELXS-97 (Sheldrick, 1997)' 
_computing_structure_refinement   'SHELXL-97 (Sheldrick, 1997)' 
_computing_molecular_graphics     'XP in SHELXTL (Sheldrick, 1994)'
_computing_publication_material
; 
SHELX97-2 (Sheldrick, 1997) and local procedures 
; 
 
_refine_special_details 
; 
 Refinement of F^2^ against ALL reflections.  The weighted R-factor wR and 
 goodness of fit S are based on F^2^, conventional R-factors R are based 
 on F, with F set to zero for negative F^2^. The threshold expression of 
 F^2^ > 2\s(F^2^) is used only for calculating R-factors(gt) etc. and is 
 not relevant to the choice of reflections for refinement.  R-factors based 
 on F^2^ are statistically about twice as large as those based on F, and R- 
 factors based on ALL data will be even larger. 
; 

_publ_section_exptl_refinement
;
H atoms were found in difference Fourier maps and subsequently placed in
idealized positions with constrained C-H distances of 0.98 \%A (C~Me~H),
0.95 \%A (C~Ar~H) and 1.00 \%A (R~3~CH) with U~iso~(H) values set to either 
1.2U~eq~ or 1.5U~eq~ (C~Me~H only) of the attached C atom.
;

 
_refine_ls_structure_factor_coef  Fsqd  
_refine_ls_matrix_type            full 
_refine_ls_weighting_scheme       calc  
_refine_ls_weighting_details 
 'calc w=1/[\s^2^(Fo^2^)+(0.0666P)^2^] where P=(Fo^2^+2Fc^2^)/3'         
_atom_sites_solution_primary      direct 
_atom_sites_solution_secondary    difmap 
_atom_sites_solution_hydrogens    geom 
_refine_ls_hydrogen_treatment     constr 
_refine_ls_extinction_method      none 
_refine_ls_extinction_coef        ? 
_refine_ls_number_reflns          8386 
_refine_ls_number_parameters      448 
_refine_ls_number_restraints      321 
_refine_ls_R_factor_all           0.1215 
_refine_ls_R_factor_gt            0.0533 
_refine_ls_wR_factor_ref          0.1413 
_refine_ls_wR_factor_gt           0.1194 
_refine_ls_goodness_of_fit_ref    0.996 
_refine_ls_restrained_S_all       1.011 
_refine_ls_shift/su_max           0.020 
_refine_ls_shift/su_mean          0.000 
 
loop_ 
 _atom_site_label 
 _atom_site_type_symbol 
 _atom_site_fract_x 
 _atom_site_fract_y 
 _atom_site_fract_z 
 _atom_site_U_iso_or_equiv 
 _atom_site_adp_type 
 _atom_site_occupancy 
 _atom_site_symmetry_multiplicity 
 _atom_site_calc_flag 
 _atom_site_refinement_flags 
 _atom_site_disorder_assembly 
 _atom_site_disorder_group 
Si1 Si 0.86502(5) 0.62490(4) 0.10233(4) 0.03382(19) Uani 1 1 d . . . 
Si2 Si 0.62985(5) 0.22102(4) 0.63157(4) 0.03257(19) Uani 1 1 d . . . 
C1 C 0.78119(17) 0.49248(11) 0.33132(14) 0.0283(5) Uani 1 1 d . . . 
C2 C 0.68077(17) 0.48580(12) 0.34570(15) 0.0288(5) Uani 1 1 d . B . 
C3 C 0.60185(17) 0.52430(12) 0.29217(15) 0.0340(6) Uani 1 1 d . . . 
H3 H 0.6162 0.5563 0.2461 0.041 Uiso 1 1 calc R A 1 
C4 C 0.50454(17) 0.51534(12) 0.30697(15) 0.0351(6) Uani 0.766(3) 1 d PDU B 1 
S5 S 0.39023(8) 0.55199(5) 0.25444(7) 0.0403(4) Uani 0.766(3) 1 d PDU B 1 
C6 C 0.3267(3) 0.50323(19) 0.3266(2) 0.0360(8) Uani 0.766(3) 1 d PDU B 1 
H6 H 0.2558 0.5073 0.3227 0.043 Uiso 0.766(3) 1 calc PR B 1 
N7 N 0.3795(2) 0.46010(18) 0.3874(2) 0.0285(8) Uani 0.766(3) 1 d PDU B 1 
C8 C 0.48180(17) 0.46770(12) 0.37620(16) 0.0342(6) Uani 0.766(3) 1 d PDU B 1 
C4' C 0.50454(17) 0.51534(12) 0.30697(15) 0.0351(6) Uani 0.234(3) 1 d PDU B 2 
N5' N 0.4319(7) 0.5563(6) 0.2496(8) 0.046(3) Uiso 0.234(3) 1 d PDU B 2 
C6' C 0.3458(7) 0.5358(6) 0.2764(8) 0.047(3) Uiso 0.234(3) 1 d PDU B 2 
H6' H 0.2823 0.5538 0.2482 0.056 Uiso 0.234(3) 1 calc PR B 2 
S7' S 0.3563(3) 0.4750(3) 0.3645(4) 0.0382(13) Uiso 0.234(3) 1 d PDU B 2 
C8' C 0.48180(17) 0.46770(12) 0.37620(16) 0.0342(6) Uani 0.234(3) 1 d PDU B 2 
C9 C 0.55682(17) 0.43029(12) 0.42928(15) 0.0332(6) Uani 1 1 d . . . 
H9 H 0.5409 0.3990 0.4755 0.040 Uiso 1 1 calc R B 1 
C10 C 0.65787(17) 0.43786(12) 0.41578(14) 0.0287(5) Uani 1 1 d . B . 
C11 C 0.73665(18) 0.39776(11) 0.46825(15) 0.0295(5) Uani 1 1 d . . . 
C12 C 0.83802(17) 0.40702(11) 0.45671(14) 0.0283(5) Uani 1 1 d . B . 
C13 C 0.91782(18) 0.37049(11) 0.51258(15) 0.0312(6) Uani 1 1 d . . . 
H13 H 0.9038 0.3388 0.5590 0.037 Uiso 1 1 calc R B 1 
C14 C 1.01481(17) 0.38106(12) 0.49939(15) 0.0306(5) Uani 0.735(3) 1 d PDU B 1 
S15 S 1.13091(9) 0.34821(5) 0.55750(6) 0.0315(4) Uani 0.735(3) 1 d PDU B 1 
C16 C 1.1935(2) 0.39675(17) 0.4844(2) 0.0305(8) Uani 0.735(3) 1 d PDU B 1 
H16 H 1.2649 0.3958 0.4905 0.037 Uiso 0.735(3) 1 calc PR B 1 
N17 N 1.1381(3) 0.4355(2) 0.4194(3) 0.0283(11) Uani 0.735(3) 1 d PDU B 1 
C18 C 1.03677(17) 0.42751(12) 0.42843(15) 0.0305(5) Uani 0.735(3) 1 d PDU B 1 
C14' C 1.01481(17) 0.38106(12) 0.49939(15) 0.0306(5) Uani 0.265(3) 1 d PDU B 2 
N15' N 1.0876(6) 0.3443(5) 0.5546(6) 0.035(2) Uiso 0.265(3) 1 d PDU B 2 
C16' C 1.1727(6) 0.3667(5) 0.5261(6) 0.039(2) Uiso 0.265(3) 1 d PDU B 2 
H16' H 1.2371 0.3510 0.5555 0.046 Uiso 0.265(3) 1 calc PR B 2 
S17' S 1.1605(3) 0.4251(3) 0.4338(4) 0.0330(12) Uiso 0.265(3) 1 d PDU B 2 
C18' C 1.03677(17) 0.42751(12) 0.42843(15) 0.0305(5) Uani 0.265(3) 1 d PDU B 2 
C19 C 0.96233(17) 0.46353(12) 0.37411(15) 0.0319(6) Uani 1 1 d . . . 
H19 H 0.9783 0.4945 0.3277 0.038 Uiso 1 1 calc R B 1 
C20 C 0.86057(17) 0.45493(11) 0.38662(14) 0.0276(5) Uani 1 1 d . B . 
C21 C 0.80502(17) 0.53617(12) 0.25825(16) 0.0316(6) Uani 1 1 d . . . 
C22 C 0.82892(17) 0.57120(13) 0.19649(16) 0.0338(6) Uani 1 1 d . . . 
C23 C 0.99604(18) 0.59813(15) 0.08527(17) 0.0446(7) Uani 1 1 d . . . 
H23 H 0.9877 0.5554 0.0441 0.054 Uiso 1 1 calc R . . 
C24 C 1.0652(2) 0.57476(18) 0.17207(19) 0.0673(9) Uani 1 1 d . . . 
H24A H 1.1335 0.5674 0.1587 0.101 Uiso 1 1 calc R . . 
H24B H 1.0402 0.5299 0.1944 0.101 Uiso 1 1 calc R . . 
H24C H 1.0665 0.6119 0.2189 0.101 Uiso 1 1 calc R . . 
C25 C 1.0467(2) 0.65610(15) 0.03476(18) 0.0525(8) Uani 1 1 d . . . 
H25A H 1.0526 0.7004 0.0706 0.079 Uiso 1 1 calc R . . 
H25B H 1.0059 0.6650 -0.0252 0.079 Uiso 1 1 calc R . . 
H25C H 1.1140 0.6398 0.0267 0.079 Uiso 1 1 calc R . . 
C26 C 0.85815(18) 0.72142(13) 0.13634(16) 0.0400(6) Uani 1 1 d . . . 
H26 H 0.8765 0.7509 0.0851 0.048 Uiso 1 1 calc R . . 
C27 C 0.9318(2) 0.74103(15) 0.22241(18) 0.0540(8) Uani 1 1 d . . . 
H27A H 0.9243 0.7919 0.2364 0.081 Uiso 1 1 calc R . . 
H27B H 1.0009 0.7319 0.2123 0.081 Uiso 1 1 calc R . . 
H27C H 0.9175 0.7119 0.2738 0.081 Uiso 1 1 calc R . . 
C28 C 0.75157(19) 0.74283(14) 0.14817(19) 0.0538(8) Uani 1 1 d . . . 
H28A H 0.7298 0.7134 0.1962 0.081 Uiso 1 1 calc R . . 
H28B H 0.7056 0.7353 0.0905 0.081 Uiso 1 1 calc R . . 
H28C H 0.7508 0.7935 0.1654 0.081 Uiso 1 1 calc R . . 
C29 C 0.77111(19) 0.60245(14) -0.00182(16) 0.0433(7) Uani 1 1 d . . . 
H29 H 0.7042 0.6207 0.0092 0.052 Uiso 1 1 calc R . . 
C30 C 0.7925(2) 0.63750(15) -0.09011(17) 0.0550(8) Uani 1 1 d . . . 
H30A H 0.8563 0.6192 -0.1047 0.082 Uiso 1 1 calc R . . 
H30B H 0.7971 0.6895 -0.0818 0.082 Uiso 1 1 calc R . . 
H30C H 0.7378 0.6261 -0.1402 0.082 Uiso 1 1 calc R . . 
C31 C 0.7606(3) 0.52198(16) -0.0157(2) 0.0779(11) Uani 1 1 d . . . 
H31A H 0.7081 0.5121 -0.0682 0.117 Uiso 1 1 calc R . . 
H31B H 0.7421 0.4999 0.0393 0.117 Uiso 1 1 calc R . . 
H31C H 0.8248 0.5020 -0.0270 0.117 Uiso 1 1 calc R . . 
C32 C 0.70957(17) 0.34510(13) 0.53036(16) 0.0324(6) Uani 1 1 d . B . 
C33 C 0.68102(17) 0.29840(13) 0.57658(16) 0.0341(6) Uani 1 1 d . B . 
C34 C 0.73300(17) 0.18695(13) 0.72118(16) 0.0369(6) Uani 1 1 d . C . 
H34 H 0.7058 0.1443 0.7500 0.044 Uiso 1 1 calc R . . 
C35 C 0.7628(2) 0.24221(14) 0.79677(17) 0.0508(7) Uani 1 1 d . . . 
H35A H 0.8180 0.2232 0.8417 0.076 Uiso 1 1 calc R C . 
H35B H 0.7047 0.2525 0.8270 0.076 Uiso 1 1 calc R . . 
H35C H 0.7847 0.2864 0.7702 0.076 Uiso 1 1 calc R . . 
C36 C 0.82483(18) 0.16160(14) 0.68103(19) 0.0497(7) Uani 1 1 d . . . 
H36A H 0.8491 0.2007 0.6462 0.075 Uiso 1 1 calc R C . 
H36B H 0.8059 0.1207 0.6405 0.075 Uiso 1 1 calc R . . 
H36C H 0.8784 0.1472 0.7307 0.075 Uiso 1 1 calc R . . 
C37 C 0.6017(2) 0.15187(17) 0.5374(2) 0.0414(8) Uani 0.893(5) 1 d PDU C 1 
H37 H 0.6679 0.1394 0.5191 0.050 Uiso 0.893(5) 1 calc PR C 1 
C38 C 0.5603(6) 0.0820(3) 0.5719(5) 0.0781(16) Uani 0.893(5) 1 d PDU C 1 
H38A H 0.4944 0.0912 0.5897 0.117 Uiso 0.893(5) 1 calc PR C 1 
H38B H 0.6070 0.0643 0.6249 0.117 Uiso 0.893(5) 1 calc PR C 1 
H38C H 0.5531 0.0461 0.5231 0.117 Uiso 0.893(5) 1 calc PR C 1 
C39 C 0.5346(3) 0.1776(2) 0.4513(2) 0.0619(12) Uani 0.893(5) 1 d PDU C 1 
H39A H 0.5318 0.1409 0.4036 0.093 Uiso 0.893(5) 1 calc PR C 1 
H39B H 0.5621 0.2220 0.4301 0.093 Uiso 0.893(5) 1 calc PR C 1 
H39C H 0.4666 0.1865 0.4644 0.093 Uiso 0.893(5) 1 calc PR C 1 
C37' C 0.555(2) 0.1604(15) 0.5505(18) 0.0414(8) Uani 0.107(5) 1 d PDU C 2 
H37' H 0.4882 0.1832 0.5302 0.050 Uiso 0.107(5) 1 calc PR C 2 
C38' C 0.608(2) 0.1533(14) 0.4661(18) 0.047(5) Uiso 0.107(5) 1 d PDU C 2 
H38D H 0.5614 0.1324 0.4154 0.071 Uiso 0.107(5) 1 calc PR C 2 
H38E H 0.6674 0.1223 0.4810 0.071 Uiso 0.107(5) 1 calc PR C 2 
H38F H 0.6295 0.2008 0.4484 0.071 Uiso 0.107(5) 1 calc PR C 2 
C39' C 0.537(6) 0.086(2) 0.587(5) 0.0781(16) Uani 0.107(5) 1 d PDU C 2 
H39D H 0.5204 0.0907 0.6490 0.117 Uiso 0.107(5) 1 calc PR C 2 
H39E H 0.5985 0.0573 0.5897 0.117 Uiso 0.107(5) 1 calc PR C 2 
H39F H 0.4816 0.0632 0.5471 0.117 Uiso 0.107(5) 1 calc PR C 2 
C40 C 0.52124(18) 0.25361(13) 0.68564(16) 0.0390(6) Uani 1 1 d . C . 
H40 H 0.5486 0.2934 0.7277 0.047 Uiso 1 1 calc R . . 
C41 C 0.4829(2) 0.19653(16) 0.7466(2) 0.0615(9) Uani 1 1 d . . . 
H41A H 0.4316 0.2177 0.7785 0.092 Uiso 1 1 calc R C . 
H41B H 0.5393 0.1791 0.7916 0.092 Uiso 1 1 calc R . . 
H41C H 0.4535 0.1565 0.7087 0.092 Uiso 1 1 calc R . . 
C42 C 0.43345(19) 0.28582(15) 0.62020(18) 0.0500(7) Uani 1 1 d . . . 
H42A H 0.4014 0.2485 0.5789 0.075 Uiso 1 1 calc R C . 
H42B H 0.4584 0.3240 0.5844 0.075 Uiso 1 1 calc R . . 
H42C H 0.3841 0.3057 0.6553 0.075 Uiso 1 1 calc R . . 
 
loop_ 
 _atom_site_aniso_label 
 _atom_site_aniso_U_11 
 _atom_site_aniso_U_22 
 _atom_site_aniso_U_33 
 _atom_site_aniso_U_23 
 _atom_site_aniso_U_13 
 _atom_site_aniso_U_12 
Si1 0.0420(4) 0.0318(4) 0.0289(4) 0.0063(3) 0.0094(3) -0.0003(3) 
Si2 0.0412(4) 0.0262(4) 0.0306(4) 0.0042(3) 0.0071(3) -0.0057(3) 
C1 0.0437(14) 0.0190(13) 0.0235(12) -0.0019(10) 0.0089(11) -0.0052(11) 
C2 0.0438(15) 0.0191(13) 0.0241(13) -0.0027(10) 0.0071(10) -0.0036(11) 
C3 0.0468(16) 0.0286(14) 0.0273(13) -0.0016(11) 0.0077(11) -0.0008(12) 
C4 0.0428(14) 0.0307(14) 0.0307(13) -0.0060(11) 0.0025(11) 0.0014(11) 
S5 0.0373(8) 0.0422(6) 0.0407(6) 0.0025(4) 0.0040(5) -0.0005(6) 
C6 0.0381(18) 0.037(2) 0.033(2) 0.0047(17) 0.0043(15) 0.0024(17) 
N7 0.0260(17) 0.0306(19) 0.0284(19) -0.0001(14) 0.0024(14) 0.0058(14) 
C8 0.0392(13) 0.0323(14) 0.0312(13) -0.0087(11) 0.0058(11) -0.0037(11) 
C4' 0.0428(14) 0.0307(14) 0.0307(13) -0.0060(11) 0.0025(11) 0.0014(11) 
C8' 0.0392(13) 0.0323(14) 0.0312(13) -0.0087(11) 0.0058(11) -0.0037(11) 
C9 0.0452(15) 0.0276(14) 0.0290(14) -0.0050(11) 0.0129(11) -0.0053(12) 
C10 0.0428(14) 0.0212(13) 0.0238(13) -0.0057(10) 0.0104(11) -0.0048(11) 
C11 0.0492(15) 0.0163(12) 0.0241(13) -0.0022(10) 0.0096(11) -0.0020(11) 
C12 0.0443(14) 0.0198(13) 0.0221(12) -0.0036(10) 0.0092(11) -0.0028(11) 
C13 0.0525(16) 0.0171(12) 0.0242(13) 0.0003(10) 0.0066(11) -0.0001(11) 
C14 0.0451(14) 0.0211(12) 0.0259(12) -0.0062(10) 0.0067(10) -0.0005(11) 
S15 0.0370(8) 0.0256(5) 0.0316(5) -0.0019(4) 0.0044(5) 0.0005(5) 
C16 0.0415(18) 0.0240(18) 0.027(2) -0.0014(16) 0.0090(15) -0.0020(16) 
N17 0.0210(19) 0.029(2) 0.032(2) -0.0038(15) -0.0053(16) 0.0065(16) 
C18 0.0398(13) 0.0252(13) 0.0275(12) -0.0058(10) 0.0081(10) -0.0004(11) 
C14' 0.0451(14) 0.0211(12) 0.0259(12) -0.0062(10) 0.0067(10) -0.0005(11) 
C18' 0.0398(13) 0.0252(13) 0.0275(12) -0.0058(10) 0.0081(10) -0.0004(11) 
C19 0.0463(15) 0.0256(14) 0.0249(13) -0.0016(10) 0.0097(11) -0.0042(12) 
C20 0.0431(14) 0.0165(12) 0.0247(13) -0.0046(9) 0.0102(11) -0.0027(11) 
C21 0.0409(14) 0.0218(13) 0.0318(14) -0.0005(11) 0.0051(11) -0.0018(11) 
C22 0.0394(14) 0.0308(15) 0.0309(14) 0.0017(11) 0.0049(11) 0.0003(11) 
C23 0.0497(16) 0.0461(17) 0.0398(16) 0.0055(13) 0.0123(13) 0.0027(14) 
C24 0.0526(19) 0.100(3) 0.0531(19) 0.0260(18) 0.0185(15) 0.0183(18) 
C25 0.0509(17) 0.067(2) 0.0432(17) 0.0030(15) 0.0190(14) -0.0026(15) 
C26 0.0506(16) 0.0379(16) 0.0344(15) 0.0094(12) 0.0153(12) -0.0033(13) 
C27 0.0635(18) 0.0537(19) 0.0477(18) -0.0102(15) 0.0178(15) -0.0136(15) 
C28 0.0608(18) 0.0409(17) 0.0626(19) 0.0059(15) 0.0185(15) 0.0082(15) 
C29 0.0511(16) 0.0466(17) 0.0333(15) -0.0001(13) 0.0101(12) -0.0002(13) 
C30 0.071(2) 0.0597(19) 0.0321(16) 0.0056(14) 0.0021(14) 0.0008(16) 
C31 0.116(3) 0.061(2) 0.049(2) -0.0038(17) -0.0086(19) -0.029(2) 
C32 0.0425(14) 0.0265(14) 0.0302(14) -0.0011(11) 0.0117(11) 0.0008(12) 
C33 0.0406(15) 0.0315(14) 0.0308(14) 0.0021(11) 0.0080(11) 0.0001(12) 
C34 0.0414(15) 0.0289(14) 0.0415(15) 0.0116(12) 0.0100(12) -0.0061(12) 
C35 0.0534(17) 0.0545(19) 0.0412(17) 0.0063(14) -0.0019(13) -0.0112(15) 
C36 0.0448(16) 0.0475(18) 0.0578(19) 0.0158(14) 0.0112(14) -0.0017(14) 
C37 0.046(2) 0.0373(17) 0.0432(19) -0.0068(14) 0.0137(17) -0.0064(16) 
C38 0.119(5) 0.046(2) 0.070(4) -0.017(2) 0.019(3) -0.039(2) 
C39 0.059(2) 0.084(3) 0.042(2) -0.0208(18) 0.0048(17) -0.003(2) 
C37' 0.046(2) 0.0373(17) 0.0432(19) -0.0068(14) 0.0137(17) -0.0064(16) 
C39' 0.119(5) 0.046(2) 0.070(4) -0.017(2) 0.019(3) -0.039(2) 
C40 0.0427(15) 0.0364(15) 0.0386(15) 0.0106(12) 0.0089(12) -0.0033(12) 
C41 0.0589(19) 0.064(2) 0.069(2) 0.0287(17) 0.0325(16) 0.0090(16) 
C42 0.0496(17) 0.0485(18) 0.0543(18) 0.0104(14) 0.0158(14) 0.0086(14) 
 
_geom_special_details 
; 
 All esds (except the esd in the dihedral angle between two l.s. planes) 
 are estimated using the full covariance matrix.  The cell esds are taken 
 into account individually in the estimation of esds in distances, angles 
 and torsion angles; correlations between esds in cell parameters are only 
 used when they are defined by crystal symmetry.  An approximate (isotropic) 
 treatment of cell esds is used for estimating esds involving l.s. planes. 
; 
 
loop_ 
 _geom_bond_atom_site_label_1 
 _geom_bond_atom_site_label_2 
 _geom_bond_distance 
 _geom_bond_site_symmetry_2 
 _geom_bond_publ_flag 
Si1 C22 1.846(2) . ? 
Si1 C29 1.876(3) . ? 
Si1 C26 1.877(2) . ? 
Si1 C23 1.888(3) . ? 
Si2 C37' 1.83(3) . ? 
Si2 C33 1.846(2) . ? 
Si2 C34 1.869(2) . ? 
Si2 C40 1.878(2) . ? 
Si2 C37 1.893(3) . ? 
C1 C2 1.407(3) . ? 
C1 C20 1.421(3) . ? 
C1 C21 1.433(3) . ? 
C2 C3 1.414(3) . ? 
C2 C10 1.442(3) . ? 
C3 C4 1.372(3) . ? 
C3 H3 0.9500 . ? 
C4 C8 1.428(3) . ? 
C4 S5 1.746(2) . ? 
S5 C6 1.731(3) . ? 
C6 N7 1.326(5) . ? 
C6 H6 0.9500 . ? 
N7 C8 1.419(4) . ? 
C8 C9 1.366(3) . ? 
N5' C6' 1.340(9) . ? 
C6' S7' 1.717(8) . ? 
C6' H6' 0.9500 . ? 
C9 C10 1.413(3) . ? 
C9 H9 0.9500 . ? 
C10 C11 1.421(3) . ? 
C11 C12 1.412(3) . ? 
C11 C32 1.434(3) . ? 
C12 C13 1.419(3) . ? 
C12 C20 1.440(3) . ? 
C13 C14 1.364(3) . ? 
C13 H13 0.9500 . ? 
C14 C18 1.430(3) . ? 
C14 S15 1.766(3) . ? 
S15 C16 1.731(3) . ? 
C16 N17 1.332(5) . ? 
C16 H16 0.9500 . ? 
N17 C18 1.399(4) . ? 
C18 C19 1.357(3) . ? 
N15' C16' 1.349(8) . ? 
C16' S17' 1.738(8) . ? 
C16' H16' 0.9500 . ? 
C19 C20 1.420(3) . ? 
C19 H19 0.9500 . ? 
C21 C22 1.210(3) . ? 
C23 C24 1.524(3) . ? 
C23 C25 1.537(3) . ? 
C23 H23 1.0000 . ? 
C24 H24A 0.9800 . ? 
C24 H24B 0.9800 . ? 
C24 H24C 0.9800 . ? 
C25 H25A 0.9800 . ? 
C25 H25B 0.9800 . ? 
C25 H25C 0.9800 . ? 
C26 C28 1.525(3) . ? 
C26 C27 1.527(3) . ? 
C26 H26 1.0000 . ? 
C27 H27A 0.9800 . ? 
C27 H27B 0.9800 . ? 
C27 H27C 0.9800 . ? 
C28 H28A 0.9800 . ? 
C28 H28B 0.9800 . ? 
C28 H28C 0.9800 . ? 
C29 C31 1.520(4) . ? 
C29 C30 1.532(3) . ? 
C29 H29 1.0000 . ? 
C30 H30A 0.9800 . ? 
C30 H30B 0.9800 . ? 
C30 H30C 0.9800 . ? 
C31 H31A 0.9800 . ? 
C31 H31B 0.9800 . ? 
C31 H31C 0.9800 . ? 
C32 C33 1.209(3) . ? 
C34 C35 1.528(3) . ? 
C34 C36 1.530(3) . ? 
C34 H34 1.0000 . ? 
C35 H35A 0.9800 . ? 
C35 H35B 0.9800 . ? 
C35 H35C 0.9800 . ? 
C36 H36A 0.9800 . ? 
C36 H36B 0.9800 . ? 
C36 H36C 0.9800 . ? 
C37 C39 1.517(4) . ? 
C37 C38 1.537(5) . ? 
C37 H37 1.0000 . ? 
C38 H38A 0.9800 . ? 
C38 H38B 0.9800 . ? 
C38 H38C 0.9800 . ? 
C39 H39A 0.9800 . ? 
C39 H39B 0.9800 . ? 
C39 H39C 0.9800 . ? 
C37' C39' 1.520(11) . ? 
C37' C38' 1.542(11) . ? 
C37' H37' 1.0000 . ? 
C38' H38D 0.9800 . ? 
C38' H38E 0.9800 . ? 
C38' H38F 0.9800 . ? 
C39' H39D 0.9800 . ? 
C39' H39E 0.9800 . ? 
C39' H39F 0.9800 . ? 
C40 C42 1.525(3) . ? 
C40 C41 1.539(3) . ? 
C40 H40 1.0000 . ? 
C41 H41A 0.9800 . ? 
C41 H41B 0.9800 . ? 
C41 H41C 0.9800 . ? 
C42 H42A 0.9800 . ? 
C42 H42B 0.9800 . ? 
C42 H42C 0.9800 . ? 
 
loop_ 
 _geom_angle_atom_site_label_1 
 _geom_angle_atom_site_label_2 
 _geom_angle_atom_site_label_3 
 _geom_angle 
 _geom_angle_site_symmetry_1 
 _geom_angle_site_symmetry_3 
 _geom_angle_publ_flag 
C22 Si1 C29 106.03(11) . . ? 
C22 Si1 C26 106.73(11) . . ? 
C29 Si1 C26 112.29(12) . . ? 
C22 Si1 C23 108.86(11) . . ? 
C29 Si1 C23 110.42(12) . . ? 
C26 Si1 C23 112.20(12) . . ? 
C37' Si2 C33 113.5(8) . . ? 
C37' Si2 C34 121.4(10) . . ? 
C33 Si2 C34 107.04(10) . . ? 
C37' Si2 C40 95.7(8) . . ? 
C33 Si2 C40 107.85(11) . . ? 
C34 Si2 C40 110.24(11) . . ? 
C33 Si2 C37 104.62(13) . . ? 
C34 Si2 C37 109.15(13) . . ? 
C40 Si2 C37 117.32(14) . . ? 
C2 C1 C20 121.3(2) . . ? 
C2 C1 C21 120.2(2) . . ? 
C20 C1 C21 118.5(2) . . ? 
C1 C2 C3 121.4(2) . . ? 
C1 C2 C10 119.1(2) . . ? 
C3 C2 C10 119.4(2) . . ? 
C4 C3 C2 119.8(2) . . ? 
C4 C3 H3 120.1 . . ? 
C2 C3 H3 120.1 . . ? 
C3 C4 C8 120.8(2) . . ? 
C3 C4 S5 132.4(2) . . ? 
C8 C4 S5 106.77(17) . . ? 
C6 S5 C4 90.31(16) . . ? 
N7 C6 S5 118.4(2) . . ? 
N7 C6 H6 120.8 . . ? 
S5 C6 H6 120.8 . . ? 
C6 N7 C8 106.4(3) . . ? 
C9 C8 N7 121.4(3) . . ? 
C9 C8 C4 120.5(2) . . ? 
N7 C8 C4 118.1(2) . . ? 
N5' C6' S7' 116.4(7) . . ? 
N5' C6' H6' 121.8 . . ? 
S7' C6' H6' 121.8 . . ? 
C8 C9 C10 120.3(2) . . ? 
C8 C9 H9 119.8 . . ? 
C10 C9 H9 119.8 . . ? 
C9 C10 C11 121.2(2) . . ? 
C9 C10 C2 119.2(2) . . ? 
C11 C10 C2 119.6(2) . . ? 
C12 C11 C10 121.2(2) . . ? 
C12 C11 C32 120.8(2) . . ? 
C10 C11 C32 117.9(2) . . ? 
C11 C12 C13 121.6(2) . . ? 
C11 C12 C20 119.0(2) . . ? 
C13 C12 C20 119.4(2) . . ? 
C14 C13 C12 119.8(2) . . ? 
C14 C13 H13 120.1 . . ? 
C12 C13 H13 120.1 . . ? 
C13 C14 C18 120.6(2) . . ? 
C13 C14 S15 132.07(19) . . ? 
C18 C14 S15 107.29(16) . . ? 
C16 S15 C14 89.67(15) . . ? 
N17 C16 S15 117.8(3) . . ? 
N17 C16 H16 121.1 . . ? 
S15 C16 H16 121.1 . . ? 
C16 N17 C18 108.1(3) . . ? 
C19 C18 N17 121.8(3) . . ? 
C19 C18 C14 121.1(2) . . ? 
N17 C18 C14 117.1(2) . . ? 
N15' C16' S17' 117.7(6) . . ? 
N15' C16' H16' 121.2 . . ? 
S17' C16' H16' 121.2 . . ? 
C18 C19 C20 120.0(2) . . ? 
C18 C19 H19 120.0 . . ? 
C20 C19 H19 120.0 . . ? 
C19 C20 C1 121.3(2) . . ? 
C19 C20 C12 119.0(2) . . ? 
C1 C20 C12 119.7(2) . . ? 
C22 C21 C1 177.1(3) . . ? 
C21 C22 Si1 179.8(2) . . ? 
C24 C23 C25 110.7(2) . . ? 
C24 C23 Si1 114.71(17) . . ? 
C25 C23 Si1 112.12(18) . . ? 
C24 C23 H23 106.2 . . ? 
C25 C23 H23 106.2 . . ? 
Si1 C23 H23 106.2 . . ? 
C23 C24 H24A 109.5 . . ? 
C23 C24 H24B 109.5 . . ? 
H24A C24 H24B 109.5 . . ? 
C23 C24 H24C 109.5 . . ? 
H24A C24 H24C 109.5 . . ? 
H24B C24 H24C 109.5 . . ? 
C23 C25 H25A 109.5 . . ? 
C23 C25 H25B 109.5 . . ? 
H25A C25 H25B 109.5 . . ? 
C23 C25 H25C 109.5 . . ? 
H25A C25 H25C 109.5 . . ? 
H25B C25 H25C 109.5 . . ? 
C28 C26 C27 109.6(2) . . ? 
C28 C26 Si1 111.74(17) . . ? 
C27 C26 Si1 113.62(17) . . ? 
C28 C26 H26 107.2 . . ? 
C27 C26 H26 107.2 . . ? 
Si1 C26 H26 107.2 . . ? 
C26 C27 H27A 109.5 . . ? 
C26 C27 H27B 109.5 . . ? 
H27A C27 H27B 109.5 . . ? 
C26 C27 H27C 109.5 . . ? 
H27A C27 H27C 109.5 . . ? 
H27B C27 H27C 109.5 . . ? 
C26 C28 H28A 109.5 . . ? 
C26 C28 H28B 109.5 . . ? 
H28A C28 H28B 109.5 . . ? 
C26 C28 H28C 109.5 . . ? 
H28A C28 H28C 109.5 . . ? 
H28B C28 H28C 109.5 . . ? 
C31 C29 C30 109.5(2) . . ? 
C31 C29 Si1 111.54(18) . . ? 
C30 C29 Si1 114.37(18) . . ? 
C31 C29 H29 107.0 . . ? 
C30 C29 H29 107.0 . . ? 
Si1 C29 H29 107.0 . . ? 
C29 C30 H30A 109.5 . . ? 
C29 C30 H30B 109.5 . . ? 
H30A C30 H30B 109.5 . . ? 
C29 C30 H30C 109.5 . . ? 
H30A C30 H30C 109.5 . . ? 
H30B C30 H30C 109.5 . . ? 
C29 C31 H31A 109.5 . . ? 
C29 C31 H31B 109.5 . . ? 
H31A C31 H31B 109.5 . . ? 
C29 C31 H31C 109.5 . . ? 
H31A C31 H31C 109.5 . . ? 
H31B C31 H31C 109.5 . . ? 
C33 C32 C11 174.4(3) . . ? 
C32 C33 Si2 171.9(2) . . ? 
C35 C34 C36 111.2(2) . . ? 
C35 C34 Si2 111.54(17) . . ? 
C36 C34 Si2 112.44(17) . . ? 
C35 C34 H34 107.1 . . ? 
C36 C34 H34 107.1 . . ? 
Si2 C34 H34 107.1 . . ? 
C34 C35 H35A 109.5 . . ? 
C34 C35 H35B 109.5 . . ? 
H35A C35 H35B 109.5 . . ? 
C34 C35 H35C 109.5 . . ? 
H35A C35 H35C 109.5 . . ? 
H35B C35 H35C 109.5 . . ? 
C34 C36 H36A 109.5 . . ? 
C34 C36 H36B 109.5 . . ? 
H36A C36 H36B 109.5 . . ? 
C34 C36 H36C 109.5 . . ? 
H36A C36 H36C 109.5 . . ? 
H36B C36 H36C 109.5 . . ? 
C39 C37 C38 110.5(4) . . ? 
C39 C37 Si2 115.1(2) . . ? 
C38 C37 Si2 111.9(3) . . ? 
C39 C37 H37 106.2 . . ? 
C38 C37 H37 106.2 . . ? 
Si2 C37 H37 106.2 . . ? 
C39' C37' C38' 109.6(14) . . ? 
C39' C37' Si2 115(4) . . ? 
C38' C37' Si2 108.1(19) . . ? 
C39' C37' H37' 107.8 . . ? 
C38' C37' H37' 107.8 . . ? 
Si2 C37' H37' 107.8 . . ? 
C37' C38' H38D 109.5 . . ? 
C37' C38' H38E 109.5 . . ? 
H38D C38' H38E 109.5 . . ? 
C37' C38' H38F 109.5 . . ? 
H38D C38' H38F 109.5 . . ? 
H38E C38' H38F 109.5 . . ? 
C37' C39' H39D 109.5 . . ? 
C37' C39' H39E 109.5 . . ? 
H39D C39' H39E 109.5 . . ? 
C37' C39' H39F 109.5 . . ? 
H39D C39' H39F 109.5 . . ? 
H39E C39' H39F 109.5 . . ? 
C42 C40 C41 110.4(2) . . ? 
C42 C40 Si2 115.60(17) . . ? 
C41 C40 Si2 112.59(17) . . ? 
C42 C40 H40 105.8 . . ? 
C41 C40 H40 105.8 . . ? 
Si2 C40 H40 105.8 . . ? 
C40 C41 H41A 109.5 . . ? 
C40 C41 H41B 109.5 . . ? 
H41A C41 H41B 109.5 . . ? 
C40 C41 H41C 109.5 . . ? 
H41A C41 H41C 109.5 . . ? 
H41B C41 H41C 109.5 . . ? 
C40 C42 H42A 109.5 . . ? 
C40 C42 H42B 109.5 . . ? 
H42A C42 H42B 109.5 . . ? 
C40 C42 H42C 109.5 . . ? 
H42A C42 H42C 109.5 . . ? 
H42B C42 H42C 109.5 . . ? 
 
loop_ 
 _geom_torsion_atom_site_label_1 
 _geom_torsion_atom_site_label_2 
 _geom_torsion_atom_site_label_3 
 _geom_torsion_atom_site_label_4 
 _geom_torsion 
 _geom_torsion_site_symmetry_1 
 _geom_torsion_site_symmetry_2 
 _geom_torsion_site_symmetry_3 
 _geom_torsion_site_symmetry_4 
 _geom_torsion_publ_flag 
C20 C1 C2 C3 178.6(2) . . . . ? 
C21 C1 C2 C3 -3.2(3) . . . . ? 
C20 C1 C2 C10 -2.3(3) . . . . ? 
C21 C1 C2 C10 175.95(19) . . . . ? 
C1 C2 C3 C4 178.7(2) . . . . ? 
C10 C2 C3 C4 -0.4(3) . . . . ? 
C2 C3 C4 C8 0.3(3) . . . . ? 
C2 C3 C4 S5 -178.98(18) . . . . ? 
C3 C4 S5 C6 179.7(3) . . . . ? 
C8 C4 S5 C6 0.34(19) . . . . ? 
C4 S5 C6 N7 -0.9(3) . . . . ? 
S5 C6 N7 C8 1.1(3) . . . . ? 
C6 N7 C8 C9 179.8(2) . . . . ? 
C6 N7 C8 C4 -0.8(3) . . . . ? 
C3 C4 C8 C9 0.2(3) . . . . ? 
S5 C4 C8 C9 179.63(18) . . . . ? 
C3 C4 C8 N7 -179.2(2) . . . . ? 
S5 C4 C8 N7 0.2(3) . . . . ? 
N7 C8 C9 C10 178.9(2) . . . . ? 
C4 C8 C9 C10 -0.5(3) . . . . ? 
C8 C9 C10 C11 -178.0(2) . . . . ? 
C8 C9 C10 C2 0.3(3) . . . . ? 
C1 C2 C10 C9 -179.01(19) . . . . ? 
C3 C2 C10 C9 0.2(3) . . . . ? 
C1 C2 C10 C11 -0.7(3) . . . . ? 
C3 C2 C10 C11 178.5(2) . . . . ? 
C9 C10 C11 C12 -178.0(2) . . . . ? 
C2 C10 C11 C12 3.7(3) . . . . ? 
C9 C10 C11 C32 4.9(3) . . . . ? 
C2 C10 C11 C32 -173.42(19) . . . . ? 
C10 C11 C12 C13 176.1(2) . . . . ? 
C32 C11 C12 C13 -6.8(3) . . . . ? 
C10 C11 C12 C20 -3.7(3) . . . . ? 
C32 C11 C12 C20 173.33(19) . . . . ? 
C11 C12 C13 C14 -179.8(2) . . . . ? 
C20 C12 C13 C14 0.0(3) . . . . ? 
C12 C13 C14 C18 -1.3(3) . . . . ? 
C12 C13 C14 S15 177.16(18) . . . . ? 
C13 C14 S15 C16 -179.0(2) . . . . ? 
C18 C14 S15 C16 -0.40(18) . . . . ? 
C14 S15 C16 N17 -0.4(3) . . . . ? 
S15 C16 N17 C18 1.1(4) . . . . ? 
C16 N17 C18 C19 176.9(3) . . . . ? 
C16 N17 C18 C14 -1.4(4) . . . . ? 
C13 C14 C18 C19 1.7(3) . . . . ? 
S15 C14 C18 C19 -177.15(17) . . . . ? 
C13 C14 C18 N17 180.0(3) . . . . ? 
S15 C14 C18 N17 1.1(3) . . . . ? 
N17 C18 C19 C20 -178.8(3) . . . . ? 
C14 C18 C19 C20 -0.6(3) . . . . ? 
C18 C19 C20 C1 179.4(2) . . . . ? 
C18 C19 C20 C12 -0.7(3) . . . . ? 
C2 C1 C20 C19 -177.9(2) . . . . ? 
C21 C1 C20 C19 3.9(3) . . . . ? 
C2 C1 C20 C12 2.3(3) . . . . ? 
C21 C1 C20 C12 -175.99(19) . . . . ? 
C11 C12 C20 C19 -179.14(19) . . . . ? 
C13 C12 C20 C19 1.0(3) . . . . ? 
C11 C12 C20 C1 0.7(3) . . . . ? 
C13 C12 C20 C1 -179.08(19) . . . . ? 
C22 Si1 C23 C24 -32.0(2) . . . . ? 
C29 Si1 C23 C24 -148.0(2) . . . . ? 
C26 Si1 C23 C24 85.9(2) . . . . ? 
C22 Si1 C23 C25 -159.42(18) . . . . ? 
C29 Si1 C23 C25 84.6(2) . . . . ? 
C26 Si1 C23 C25 -41.5(2) . . . . ? 
C22 Si1 C26 C28 -61.92(19) . . . . ? 
C29 Si1 C26 C28 53.8(2) . . . . ? 
C23 Si1 C26 C28 178.92(17) . . . . ? 
C22 Si1 C26 C27 62.73(19) . . . . ? 
C29 Si1 C26 C27 178.50(17) . . . . ? 
C23 Si1 C26 C27 -56.4(2) . . . . ? 
C22 Si1 C29 C31 -50.7(2) . . . . ? 
C26 Si1 C29 C31 -166.9(2) . . . . ? 
C23 Si1 C29 C31 67.1(2) . . . . ? 
C22 Si1 C29 C30 -175.60(19) . . . . ? 
C26 Si1 C29 C30 68.2(2) . . . . ? 
C23 Si1 C29 C30 -57.8(2) . . . . ? 
C37' Si2 C34 C35 -163.1(8) . . . . ? 
C33 Si2 C34 C35 64.41(19) . . . . ? 
C40 Si2 C34 C35 -52.65(19) . . . . ? 
C37 Si2 C34 C35 177.11(18) . . . . ? 
C37' Si2 C34 C36 71.1(8) . . . . ? 
C33 Si2 C34 C36 -61.3(2) . . . . ? 
C40 Si2 C34 C36 -178.39(17) . . . . ? 
C37 Si2 C34 C36 51.4(2) . . . . ? 
C37' Si2 C37 C39 63(3) . . . . ? 
C33 Si2 C37 C39 -54.1(3) . . . . ? 
C34 Si2 C37 C39 -168.4(2) . . . . ? 
C40 Si2 C37 C39 65.3(3) . . . . ? 
C37' Si2 C37 C38 -64(3) . . . . ? 
C33 Si2 C37 C38 178.6(4) . . . . ? 
C34 Si2 C37 C38 64.3(4) . . . . ? 
C40 Si2 C37 C38 -62.0(4) . . . . ? 
C33 Si2 C37' C39' 163(3) . . . . ? 
C34 Si2 C37' C39' 33(3) . . . . ? 
C40 Si2 C37' C39' -85(3) . . . . ? 
C37 Si2 C37' C39' 93(4) . . . . ? 
C33 Si2 C37' C38' 40(2) . . . . ? 
C34 Si2 C37' C38' -90(2) . . . . ? 
C40 Si2 C37' C38' 152.2(19) . . . . ? 
C37 Si2 C37' C38' -29.7(16) . . . . ? 
C37' Si2 C40 C42 -55.9(9) . . . . ? 
C33 Si2 C40 C42 61.0(2) . . . . ? 
C34 Si2 C40 C42 177.54(18) . . . . ? 
C37 Si2 C40 C42 -56.7(2) . . . . ? 
C37' Si2 C40 C41 72.2(9) . . . . ? 
C33 Si2 C40 C41 -170.88(19) . . . . ? 
C34 Si2 C40 C41 -54.3(2) . . . . ? 
C37 Si2 C40 C41 71.4(2) . . . . ? 
 
_diffrn_measured_fraction_theta_max    0.999 
_diffrn_reflns_theta_full              27.46 
_diffrn_measured_fraction_theta_full   0.999 
_refine_diff_density_max    0.363 
_refine_diff_density_min   -0.324 
_refine_diff_density_rms    0.055 
