 
data_k10072 
 
_audit_creation_method            SHELXL-97 
_chemical_name_systematic 
; 
 ? 
; 
_chemical_name_common             ? 
_chemical_melting_point           ? 
_chemical_formula_moiety 
 'C46 H60 F2 S2 Si2' 
_chemical_formula_sum 
 'C46 H60 F2 S2 Si2' 
_chemical_formula_weight          771.24 
 
loop_ 
 _atom_type_symbol 
 _atom_type_description 
 _atom_type_scat_dispersion_real 
 _atom_type_scat_dispersion_imag 
 _atom_type_scat_source 
 'C'  'C'   0.0033   0.0016 
 'International Tables Vol C Tables 4.2.6.8 and 6.1.1.4' 
 'H'  'H'   0.0000   0.0000 
 'International Tables Vol C Tables 4.2.6.8 and 6.1.1.4' 
 'F'  'F'   0.0171   0.0103 
 'International Tables Vol C Tables 4.2.6.8 and 6.1.1.4' 
 'S'  'S'   0.1246   0.1234 
 'International Tables Vol C Tables 4.2.6.8 and 6.1.1.4' 
 'Si'  'Si'   0.0817   0.0704 
 'International Tables Vol C Tables 4.2.6.8 and 6.1.1.4' 
 
_symmetry_cell_setting            ? 
_symmetry_space_group_name_H-M    ? 
_symmetry_space_group_name_Hall   ? 
 
loop_ 
 _symmetry_equiv_pos_as_xyz 
 'x, y, z' 
 '-x, y+1/2, -z+1/2' 
 '-x, -y, -z' 
 'x, -y-1/2, z-1/2' 
 
_cell_length_a                    15.07200(10) 
_cell_length_b                    16.4540(2) 
_cell_length_c                    18.2520(2) 
_cell_angle_alpha                 90.00 
_cell_angle_beta                  103.0630(4) 
_cell_angle_gamma                 90.00 
_cell_volume                      4409.26(8) 
_cell_formula_units_Z             4 
_cell_measurement_temperature     293.0(2) 
_cell_measurement_reflns_used     ? 
_cell_measurement_theta_min       ? 
_cell_measurement_theta_max       ? 
 
_exptl_crystal_description        ? 
_exptl_crystal_colour             ? 
_exptl_crystal_size_max           ? 
_exptl_crystal_size_mid           ? 
_exptl_crystal_size_min           ? 
_exptl_crystal_density_meas       ? 
_exptl_crystal_density_diffrn     1.162 
_exptl_crystal_density_method     'not measured' 
_exptl_crystal_F_000              1656 
_exptl_absorpt_coefficient_mu     0.213 
_exptl_absorpt_correction_type    multi-scan 
_exptl_absorpt_correction_T_min   mu
_exptl_absorpt_correction_T_max   mu
_exptl_absorpt_process_details    'Scalepack (Otwinowski & Minor, 1997)' 
 
_exptl_special_details 
; 
 ? 
; 
 
_diffrn_ambient_temperature       293.0(2) 
_diffrn_radiation_wavelength      0.71073 
_diffrn_radiation_type            MoK\a 
_diffrn_radiation_source          'fine-focus sealed tube'    
_diffrn_radiation_monochromator   'graphite'                 
_diffrn_measurement_device_type   'Nonius KappaCCD diffractometer'  
_diffrn_measurement_method        '\w scans at fixed \c = 55\%'
_diffrn_detector_area_resol_mean  9.1
_diffrn_standards_number          0 
_diffrn_standards_interval_count  . 
_diffrn_standards_interval_time   . 
_diffrn_standards_decay_%         ? 
_diffrn_reflns_number             19822 
_diffrn_reflns_av_R_equivalents   0.0507 
_diffrn_reflns_av_sigmaI/netI     0.0724 
_diffrn_reflns_limit_h_min        -19 
_diffrn_reflns_limit_h_max        19 
_diffrn_reflns_limit_k_min        -21 
_diffrn_reflns_limit_k_max        21 
_diffrn_reflns_limit_l_min        -23 
_diffrn_reflns_limit_l_max        23 
_diffrn_reflns_theta_min          1.39 
_diffrn_reflns_theta_max          27.47 
_reflns_number_total              10088 
_reflns_number_gt                 4748 
_reflns_threshold_expression      >2\s(I)    
 
_computing_data_collection        'COLLECT (Nonius, 1998)'
_computing_cell_refinement        'SCALEPACK (Otwinowski & Minor, 1997)'
_computing_data_reduction         'DENZO-SMN (Otwinowski & Minor, 1997)'
_computing_structure_solution     'SHELXS-97 (Sheldrick, 2008)' 
_computing_structure_refinement   'SHELXL-97 (Sheldrick, 2008)' 
_computing_molecular_graphics     'XP in SHELXTL (Sheldrick, 2008)'
_computing_publication_material
; 
SHELX-97 (Sheldrick, 2008) and local procedures 
; 
 
_publ_section_exptl_refinement
;
H atoms were found in difference Fourier maps and subsequently placed in
idealized positions with constrained distances of 
0.98 \%A (RCH~3~),
0.99 \%A (R~2~CH~2~),
1.00 \%A (R~3~CH),
0.95 \%A (C~Ar~H),
0.84 \%A (O-H),
0.88 \%A (N-H),
and with U~iso~(H) values set to either 1.2U~eq~ or 1.5U~eq~ (RCH~3~, OH) 
of the attached atom. 
;

_refine_special_details 
; 
 Refinement of F^2^ against ALL reflections.  The weighted R-factor wR and 
 goodness of fit S are based on F^2^, conventional R-factors R are based 
 on F, with F set to zero for negative F^2^. The threshold expression of 
 F^2^ > 2\s(F^2^) is used only for calculating R-factors(gt) etc. and is 
 not relevant to the choice of reflections for refinement.  R-factors based 
 on F^2^ are statistically about twice as large as those based on F, and R- 
 factors based on ALL data will be even larger. 
; 
 
_refine_ls_structure_factor_coef  Fsqd  
_refine_ls_matrix_type            full 
_refine_ls_weighting_scheme       calc  
_refine_ls_weighting_details 
 'calc w=1/[\s^2^(Fo^2^)+(0.1000P)^2^] where P=(Fo^2^+2Fc^2^)/3'         
_atom_sites_solution_primary      direct 
_atom_sites_solution_secondary    difmap 
_atom_sites_solution_hydrogens    geom 
_refine_ls_hydrogen_treatment     constr 
_refine_ls_extinction_method      none 
_refine_ls_extinction_coef        ? 
_refine_ls_number_reflns          10088 
_refine_ls_number_parameters      205 
_refine_ls_number_restraints      0 
_refine_ls_R_factor_all           0.4578 
_refine_ls_R_factor_gt            0.3560 
_refine_ls_wR_factor_ref          0.7814 
_refine_ls_wR_factor_gt           0.7465 
_refine_ls_goodness_of_fit_ref    6.095 
_refine_ls_restrained_S_all       6.095 
_refine_ls_shift/su_max           15.235 
_refine_ls_shift/su_mean          0.664 
 
loop_ 
 _atom_site_label 
 _atom_site_type_symbol 
 _atom_site_fract_x 
 _atom_site_fract_y 
 _atom_site_fract_z 
 _atom_site_U_iso_or_equiv 
 _atom_site_adp_type 
 _atom_site_occupancy 
 _atom_site_symmetry_multiplicity 
 _atom_site_calc_flag 
 _atom_site_refinement_flags 
 _atom_site_disorder_assembly 
 _atom_site_disorder_group 
Si1 Si 0.9023(5) 0.8370(4) 0.6343(4) 0.048(2) Uiso 1 1 d . . . 
F1 F 1.1789(8) 0.4902(7) 0.3663(6) 0.049(3) Uiso 1 1 d . . . 
C1 C 0.7696(13) 0.6331(11) 0.4838(11) 0.025(4) Uiso 1 1 d . . . 
Si2 Si 0.5590(3) 0.3113(3) 0.2292(3) 0.0334(13) Uiso 1 1 d . . . 
F2 F 0.2867(8) 0.6462(7) 0.5065(7) 0.049(3) Uiso 1 1 d . . . 
C2 C 0.8270(13) 0.5888(11) 0.4470(11) 0.025(4) Uiso 1 1 d . . . 
C3 C 0.9218(13) 0.6061(12) 0.4588(11) 0.027(5) Uiso 1 1 d . . . 
C4 C 0.9749(14) 0.5623(12) 0.4244(11) 0.029(5) Uiso 1 1 d . . . 
S5 S 1.0884(6) 0.5757(6) 0.4297(5) 0.083(3) Uiso 1 1 d . . . 
C6 C 1.0939(17) 0.5030(16) 0.3779(15) 0.045(6) Uiso 1 1 d . . . 
C7 C 1.016(2) 0.4471(19) 0.3362(17) 0.000(9) Uiso 1 1 d . . . 
C8 C 0.9386(14) 0.4960(13) 0.3739(12) 0.033(5) Uiso 1 1 d . . . 
C9 C 0.8457(14) 0.4785(13) 0.3597(12) 0.030(5) Uiso 1 1 d . . . 
C10 C 0.7891(13) 0.5265(12) 0.3964(11) 0.031(5) Uiso 1 1 d . . . 
C11 C 0.6937(14) 0.5118(13) 0.3811(12) 0.033(5) Uiso 1 1 d . . . 
C12 C 0.6385(14) 0.5555(13) 0.4199(11) 0.033(5) Uiso 1 1 d . . . 
C13 C 0.5412(16) 0.5383(14) 0.4041(13) 0.043(6) Uiso 1 1 d . . . 
C14 C 0.4879(16) 0.5823(14) 0.4427(13) 0.042(6) Uiso 1 1 d . . . 
S15 S 0.3740(7) 0.5686(7) 0.4297(6) 0.100(3) Uiso 1 1 d . . . 
C16 C 0.3690(19) 0.6322(18) 0.4922(15) 0.065(7) Uiso 1 1 d . . . 
C17 C 0.4523(15) 0.6831(14) 0.5428(12) 0.017(5) Uiso 1 1 d . . . 
C18 C 0.5277(15) 0.6383(14) 0.4981(13) 0.043(5) Uiso 1 1 d . . . 
C19 C 0.6202(15) 0.6579(13) 0.5119(13) 0.038(5) Uiso 1 1 d . . . 
C20 C 0.6763(14) 0.6158(12) 0.4728(11) 0.028(5) Uiso 1 1 d . . . 
C21 C 0.8093(14) 0.6993(13) 0.5345(11) 0.034(5) Uiso 1 1 d . . . 
C22 C 0.8431(15) 0.7524(14) 0.5756(12) 0.039(5) Uiso 1 1 d . . . 
C23 C 0.8810(18) 0.8194(17) 0.7320(15) 0.062(7) Uiso 1 1 d . . . 
C24 C 0.784(2) 0.837(2) 0.7345(19) 0.080(9) Uiso 1 1 d . . . 
C25 C 0.915(2) 0.734(2) 0.7603(18) 0.075(9) Uiso 1 1 d . . . 
C26 C 0.921(2) 0.720(2) 0.844(2) 0.090(10) Uiso 1 1 d . . . 
C27 C 0.8514(19) 0.9340(17) 0.5949(15) 0.058(7) Uiso 1 1 d . . . 
C28 C 0.887(3) 1.009(2) 0.641(2) 0.095(11) Uiso 1 1 d . . . 
C29 C 0.852(3) 0.941(2) 0.509(2) 0.102(11) Uiso 1 1 d . . . 
C30 C 0.777(3) 1.011(2) 0.468(2) 0.109(11) Uiso 1 1 d . . . 
C31 C 1.025(2) 0.8233(18) 0.6349(17) 0.068(8) Uiso 1 1 d . . . 
C32 C 1.091(3) 0.880(3) 0.691(2) 0.108(12) Uiso 1 1 d . . . 
C33 C 1.048(2) 0.820(2) 0.5560(19) 0.083(9) Uiso 1 1 d . . . 
C34 C 1.131(3) 0.768(2) 0.554(2) 0.094(11) Uiso 1 1 d . . . 
C35 C 0.6535(18) 0.4529(17) 0.3250(15) 0.055(7) Uiso 1 1 d . . . 
C36 C 0.618(2) 0.403(2) 0.280(2) 0.075(9) Uiso 1 1 d . . . 
C37 C 0.437(2) 0.351(2) 0.198(2) 0.080(9) Uiso 1 1 d . . . 
C38 C 0.376(3) 0.299(3) 0.135(3) 0.118(13) Uiso 1 1 d . . . 
C39 C 0.392(3) 0.364(3) 0.257(3) 0.133(16) Uiso 1 1 d . . . 
C40 C 0.303(3) 0.414(3) 0.253(2) 0.119(14) Uiso 1 1 d . . . 
C41 C 0.550(4) 0.218(3) 0.290(3) 0.149(17) Uiso 1 1 d . . . 
C42 C 0.503(4) 0.143(4) 0.245(4) 0.20(2) Uiso 1 1 d . . . 
C43 C 0.645(5) 0.198(5) 0.341(4) 0.19(3) Uiso 1 1 d . . . 
C45 C 0.615(3) 0.290(3) 0.160(3) 0.128(16) Uiso 1 1 d . . . 
C46 C 0.712(3) 0.266(3) 0.176(3) 0.124(15) Uiso 1 1 d . . . 
C47 C 0.613(4) 0.377(3) 0.103(3) 0.144(16) Uiso 1 1 d . . . 
C48 C 0.547(5) 0.424(5) 0.096(4) 0.21(3) Uiso 1 1 d . . . 
 
_geom_special_details 
; 
 All esds (except the esd in the dihedral angle between two l.s. planes) 
 are estimated using the full covariance matrix.  The cell esds are taken 
 into account individually in the estimation of esds in distances, angles 
 and torsion angles; correlations between esds in cell parameters are only 
 used when they are defined by crystal symmetry.  An approximate (isotropic) 
 treatment of cell esds is used for estimating esds involving l.s. planes. 
; 
 
loop_ 
 _geom_bond_atom_site_label_1 
 _geom_bond_atom_site_label_2 
 _geom_bond_distance 
 _geom_bond_site_symmetry_2 
 _geom_bond_publ_flag 
Si1 C27 1.85(3) . ? 
Si1 C31 1.86(3) . ? 
Si1 C22 1.86(2) . ? 
Si1 C23 1.90(3) . ? 
F1 C6 1.36(3) . ? 
C1 C20 1.40(3) . ? 
C1 C2 1.41(3) . ? 
C1 C21 1.47(3) . ? 
Si2 C45 1.71(5) . ? 
Si2 C41 1.91(5) . ? 
Si2 C36 1.89(4) . ? 
Si2 C37 1.92(4) . ? 
F2 C16 1.34(3) . ? 
C2 C3 1.42(3) . ? 
C2 C10 1.41(3) . ? 
C3 C4 1.33(3) . ? 
C4 C8 1.45(3) . ? 
C4 S5 1.70(2) . ? 
S5 C6 1.54(3) . ? 
C6 C7 1.55(4) . ? 
C7 C8 1.69(4) . ? 
C8 C9 1.40(3) . ? 
C9 C10 1.43(3) . ? 
C10 C11 1.42(3) . ? 
C11 C12 1.41(3) . ? 
C11 C35 1.44(3) . ? 
C12 C20 1.41(3) . ? 
C12 C13 1.46(3) . ? 
C13 C14 1.39(3) . ? 
C14 C18 1.40(3) . ? 
C14 S15 1.69(3) . ? 
S15 C16 1.56(3) . ? 
C16 C17 1.61(4) . ? 
C17 C18 1.71(3) . ? 
C18 C19 1.40(3) . ? 
C19 C20 1.41(3) . ? 
C21 C22 1.19(3) . ? 
C23 C24 1.50(4) . ? 
C23 C25 1.55(4) . ? 
C25 C26 1.52(5) . ? 
C27 C28 1.52(5) . ? 
C27 C29 1.57(5) . ? 
C29 C30 1.67(5) . ? 
C31 C32 1.56(5) . ? 
C31 C33 1.55(4) . ? 
C33 C34 1.52(5) . ? 
C35 C36 1.19(4) . ? 
C37 C39 1.42(6) . ? 
C37 C38 1.56(5) . ? 
C39 C40 1.55(6) . ? 
C41 C42 1.55(8) . ? 
C41 C43 1.56(8) . ? 
C45 C46 1.48(6) . ? 
C45 C47 1.77(7) . ? 
C47 C48 1.24(8) . ? 
 
loop_ 
 _geom_angle_atom_site_label_1 
 _geom_angle_atom_site_label_2 
 _geom_angle_atom_site_label_3 
 _geom_angle 
 _geom_angle_site_symmetry_1 
 _geom_angle_site_symmetry_3 
 _geom_angle_publ_flag 
C27 Si1 C31 115.6(13) . . ? 
C27 Si1 C22 108.7(12) . . ? 
C31 Si1 C22 105.1(12) . . ? 
C27 Si1 C23 110.7(13) . . ? 
C31 Si1 C23 110.7(13) . . ? 
C22 Si1 C23 105.4(11) . . ? 
C20 C1 C2 122.0(18) . . ? 
C20 C1 C21 119.6(17) . . ? 
C2 C1 C21 118.4(17) . . ? 
C45 Si2 C41 112(2) . . ? 
C45 Si2 C36 106(2) . . ? 
C41 Si2 C36 116.5(19) . . ? 
C45 Si2 C37 117(2) . . ? 
C41 Si2 C37 104.9(19) . . ? 
C36 Si2 C37 100.8(15) . . ? 
C1 C2 C3 121.8(18) . . ? 
C1 C2 C10 119.0(17) . . ? 
C3 C2 C10 119.1(18) . . ? 
C4 C3 C2 120.6(19) . . ? 
C3 C4 C8 121.6(19) . . ? 
C3 C4 S5 127.2(17) . . ? 
C8 C4 S5 111.2(15) . . ? 
C6 S5 C4 93.4(13) . . ? 
F1 C6 C7 118(2) . . ? 
F1 C6 S5 113.5(18) . . ? 
C7 C6 S5 128(2) . . ? 
C6 C7 C8 92(2) . . ? 
C9 C8 C4 119.4(19) . . ? 
C9 C8 C7 125.7(19) . . ? 
C4 C8 C7 114.9(18) . . ? 
C8 C9 C10 118.5(19) . . ? 
C2 C10 C9 120.7(18) . . ? 
C2 C10 C11 119.5(18) . . ? 
C9 C10 C11 119.8(18) . . ? 
C12 C11 C10 120.1(19) . . ? 
C12 C11 C35 120(2) . . ? 
C10 C11 C35 120(2) . . ? 
C11 C12 C20 120.7(19) . . ? 
C11 C12 C13 119.0(19) . . ? 
C20 C12 C13 120.2(19) . . ? 
C14 C13 C12 118(2) . . ? 
C13 C14 C18 121(2) . . ? 
C13 C14 S15 123.0(19) . . ? 
C18 C14 S15 116.4(18) . . ? 
C16 S15 C14 91.3(14) . . ? 
F2 C16 S15 117(2) . . ? 
F2 C16 C17 116(2) . . ? 
S15 C16 C17 127(2) . . ? 
C16 C17 C18 91.0(17) . . ? 
C19 C18 C14 122(2) . . ? 
C19 C18 C17 124.0(19) . . ? 
C14 C18 C17 114.0(19) . . ? 
C18 C19 C20 119(2) . . ? 
C1 C20 C12 118.4(18) . . ? 
C1 C20 C19 121.7(19) . . ? 
C12 C20 C19 119.8(19) . . ? 
C22 C21 C1 179(2) . . ? 
C21 C22 Si1 175(2) . . ? 
C24 C23 C25 115(2) . . ? 
C24 C23 Si1 112(2) . . ? 
C25 C23 Si1 110(2) . . ? 
C26 C25 C23 114(3) . . ? 
C28 C27 C29 115(3) . . ? 
C28 C27 Si1 115(2) . . ? 
C29 C27 Si1 111(2) . . ? 
C27 C29 C30 110(3) . . ? 
C32 C31 C33 113(3) . . ? 
C32 C31 Si1 114(2) . . ? 
C33 C31 Si1 115(2) . . ? 
C34 C33 C31 113(3) . . ? 
C36 C35 C11 178(3) . . ? 
C35 C36 Si2 166(3) . . ? 
C39 C37 C38 110(3) . . ? 
C39 C37 Si2 115(3) . . ? 
C38 C37 Si2 113(3) . . ? 
C37 C39 C40 127(4) . . ? 
C42 C41 C43 113(5) . . ? 
C42 C41 Si2 115(4) . . ? 
C43 C41 Si2 110(4) . . ? 
C46 C45 C47 102(4) . . ? 
C46 C45 Si2 122(4) . . ? 
C47 C45 Si2 109(3) . . ? 
C48 C47 C45 118(6) . . ? 
 
_diffrn_measured_fraction_theta_max    0.999 
_diffrn_reflns_theta_full              27.47 
_diffrn_measured_fraction_theta_full   0.999 
_refine_diff_density_max    9.120 
_refine_diff_density_min   -5.940 
_refine_diff_density_rms    0.487 
