 
data_k04245 
 
_audit_creation_method            SHELXL-97 
_chemical_name_systematic 
; 
 ? 
; 
_chemical_name_common             ? 
_chemical_melting_point           ? 
_chemical_formula_moiety          ? 
_chemical_formula_sum 
 'C56 H78 O8 Si2' 
_chemical_formula_weight          935.36 
 
loop_ 
 _atom_type_symbol 
 _atom_type_description 
 _atom_type_scat_dispersion_real 
 _atom_type_scat_dispersion_imag 
 _atom_type_scat_source 
 'C'  'C'    .0033    .0016 
 'International Tables Vol C Tables 4.2.6.8 and 6.1.1.4' 
 'H'  'H'    .0000    .0000 
 'International Tables Vol C Tables 4.2.6.8 and 6.1.1.4' 
 'O'  'O'    .0106    .0060 
 'International Tables Vol C Tables 4.2.6.8 and 6.1.1.4' 
 'Si'  'Si'    .0817    .0704 
 'International Tables Vol C Tables 4.2.6.8 and 6.1.1.4' 
 
_symmetry_cell_setting            monoclinic
_symmetry_space_group_name_H-M    'P 21/c'
 
loop_ 
 _symmetry_equiv_pos_as_xyz 
 'x, y, z' 
 '-x, y+1/2, -z+1/2' 
 '-x, -y, -z' 
 'x, -y-1/2, z-1/2' 
 
_cell_length_a                    10.2631(2) 
_cell_length_b                    16.5888(4) 
_cell_length_c                    16.8183(4) 
_cell_angle_alpha                 90.00 
_cell_angle_beta                  106.9732(12) 
_cell_angle_gamma                 90.00 
_cell_volume                      2738.63(11) 
_cell_formula_units_Z             2 
_cell_measurement_temperature     90.0(2) 
_cell_measurement_reflns_used     6303
_cell_measurement_theta_min       1.00
_cell_measurement_theta_max       27.48
 
_exptl_crystal_description        block
_exptl_crystal_colour             'dark blue'
_exptl_crystal_size_max           0.26 
_exptl_crystal_size_mid           0.22 
_exptl_crystal_size_min           0.13 
_exptl_crystal_density_meas       ? 
_exptl_crystal_density_diffrn     1.134 
_exptl_crystal_density_method     'not measured' 
_exptl_crystal_F_000              1012 
_exptl_absorpt_coefficient_mu     0.115 
_exptl_absorpt_correction_type    multi-scan
_exptl_absorpt_correction_T_min   0.9708 
_exptl_absorpt_correction_T_max   0.9852 
_exptl_absorpt_process_details    'Scalepack (Otwinowski & Minor, 1997)'
 
_exptl_special_details 
; 
 ? 
; 
 
_diffrn_ambient_temperature       90.0(2) 
_diffrn_radiation_wavelength      0.71073 
_diffrn_radiation_type            MoK\a 
_diffrn_radiation_source          'fine-focus sealed tube' 
_diffrn_radiation_monochromator   graphite 
_diffrn_measurement_device_type   'Nonius KappaCCD diffractometer
_diffrn_measurement_method        '\w scans at fixed \c = 55\%'
_diffrn_detector_area_resol_mean  18
_diffrn_standards_number          ? 
_diffrn_standards_interval_count  ? 
_diffrn_standards_interval_time   ? 
_diffrn_standards_decay_%         ? 
_diffrn_reflns_number             11460 
_diffrn_reflns_av_R_equivalents   0.0641 
_diffrn_reflns_av_sigmaI/netI     0.1057 
_diffrn_reflns_limit_h_min        -13 
_diffrn_reflns_limit_h_max        13 
_diffrn_reflns_limit_k_min        -20 
_diffrn_reflns_limit_k_max        21 
_diffrn_reflns_limit_l_min        -21 
_diffrn_reflns_limit_l_max        21 
_diffrn_reflns_theta_min          1.76 
_diffrn_reflns_theta_max          27.47 
_reflns_number_total              6268 
_reflns_number_gt                 3396 
_reflns_threshold_expression      >2\s(I)    
 
_computing_data_collection        'COLLECT (Nonius, 1998)'
_computing_cell_refinement        'SCALEPACK (Otwinowski & Minor, 1997)'
_computing_data_reduction         'DENZO-SMN (Otwinowski & Minor, 1997)'
_computing_structure_solution     'SHELXS-97 (Sheldrick, 1990)' 
_computing_structure_refinement   'SHELXL-97 (Sheldrick, 1997)' 
_computing_molecular_graphics     'XP in SHELXTL (Sheldrick, 1994)'
_computing_publication_material
; 
SHELX97-2 (Sheldrick, 1997) and local procedures 
; 
 
_refine_special_details 
; 
 Refinement of F^2^ against ALL reflections.  The weighted R-factor wR and 
 goodness of fit S are based on F^2^, conventional R-factors R are based 
 on F, with F set to zero for negative F^2^. The threshold expression of 
 F^2^ > 2sigma(F^2^) is used only for calculating R-factors(gt) etc. and is 
 not relevant to the choice of reflections for refinement.  R-factors based 
 on F^2^ are statistically about twice as large as those based on F, and R- 
 factors based on ALL data will be even larger. 
; 
 
_refine_ls_structure_factor_coef  Fsqd  
_refine_ls_matrix_type            full 
_refine_ls_weighting_scheme       calc  
_refine_ls_weighting_details 
 'calc w=1/[\s^2^(Fo^2^)+(0.0626P)^2^] where P=(Fo^2^+2Fc^2^)/3' 
_atom_sites_solution_primary      direct 
_atom_sites_solution_secondary    difmap 
_atom_sites_solution_hydrogens    geom 
_refine_ls_hydrogen_treatment     constr 
_refine_ls_extinction_method      none 
_refine_ls_extinction_coef        ? 
_refine_ls_number_reflns          6268 
_refine_ls_number_parameters      306 
_refine_ls_number_restraints      0 
_refine_ls_R_factor_all           0.1263 
_refine_ls_R_factor_gt            0.0537 
_refine_ls_wR_factor_ref          0.1410 
_refine_ls_wR_factor_gt           0.1164 
_refine_ls_goodness_of_fit_ref    0.985 
_refine_ls_restrained_S_all       0.985 
_refine_ls_shift/su_max           0.003 
_refine_ls_shift/su_mean          0.000 
 
loop_ 
 _atom_site_label 
 _atom_site_type_symbol 
 _atom_site_fract_x 
 _atom_site_fract_y 
 _atom_site_fract_z 
 _atom_site_U_iso_or_equiv 
 _atom_site_adp_type 
 _atom_site_occupancy 
 _atom_site_symmetry_multiplicity 
 _atom_site_calc_flag 
 _atom_site_refinement_flags 
 _atom_site_disorder_assembly 
 _atom_site_disorder_group 
Si1 Si 0.90691(6) 0.29585(4) 0.20247(3) 0.02108(17) Uani 1 1 d . . . 
O1 O 0.33814(14) 0.24756(9) 0.46191(8) 0.0255(4) Uani 1 1 d . . . 
O2 O 0.20245(16) 0.15684(9) 0.51072(9) 0.0325(4) Uani 1 1 d . . . 
O3 O 0.43561(14) 0.48262(9) 0.71791(9) 0.0263(4) Uani 1 1 d . . . 
O4 O 0.35375(16) 0.41670(9) 0.81726(9) 0.0319(4) Uani 1 1 d . . . 
C1 C 0.9757(2) 0.44557(12) 0.43235(11) 0.0152(5) Uani 1 1 d . . . 
C2 C 0.8803(2) 0.44991(12) 0.47816(11) 0.0150(5) Uani 1 1 d . . . 
C3 C 0.7624(2) 0.40146(12) 0.45952(11) 0.0159(5) Uani 1 1 d . . . 
H3 H 0.7459 0.3648 0.4143 0.019 Uiso 1 1 calc R . . 
C4 C 0.6692(2) 0.40562(12) 0.50528(11) 0.0151(5) Uani 1 1 d . . . 
C5 C 0.5504(2) 0.35582(12) 0.48916(12) 0.0169(5) Uani 1 1 d . . . 
H5 H 0.5319 0.3185 0.4444 0.020 Uiso 1 1 calc R . . 
C6 C 0.4633(2) 0.36071(12) 0.53631(12) 0.0172(5) Uani 1 1 d . . . 
C7 C 0.4879(2) 0.41889(12) 0.60334(12) 0.0172(5) Uani 1 1 d . . . 
C8 C 0.5981(2) 0.46713(12) 0.61932(12) 0.0176(5) Uani 1 1 d . . . 
H8 H 0.6124 0.5055 0.6629 0.021 Uiso 1 1 calc R . . 
C9 C 0.6942(2) 0.46233(12) 0.57277(12) 0.0166(5) Uani 1 1 d . . . 
C10 C 0.8098(2) 0.51005(12) 0.59201(12) 0.0170(5) Uani 1 1 d . . . 
H10 H 0.8249 0.5470 0.6370 0.020 Uiso 1 1 calc R . . 
C11 C 0.9055(2) 0.50560(12) 0.54709(11) 0.0149(5) Uani 1 1 d . . . 
C12 C 0.9518(2) 0.39380(12) 0.36140(12) 0.0174(5) Uani 1 1 d . . . 
C13 C 0.9362(2) 0.35374(13) 0.29969(13) 0.0205(5) Uani 1 1 d . . . 
C14 C 0.7628(2) 0.22509(13) 0.20085(13) 0.0249(5) Uani 1 1 d . . . 
H14 H 0.7416 0.1937 0.1479 0.030 Uiso 1 1 calc R . . 
C15 C 0.8030(2) 0.16501(14) 0.27286(13) 0.0383(7) Uani 1 1 d . . . 
H15A H 0.8266 0.1943 0.3257 0.057 Uiso 1 1 calc R . . 
H15B H 0.8818 0.1335 0.2691 0.057 Uiso 1 1 calc R . . 
H15C H 0.7264 0.1287 0.2699 0.057 Uiso 1 1 calc R . . 
C16 C 0.6335(2) 0.27111(14) 0.20177(15) 0.0373(6) Uani 1 1 d . . . 
H16A H 0.5634 0.2327 0.2062 0.056 Uiso 1 1 calc R . . 
H16B H 0.6000 0.3022 0.1502 0.056 Uiso 1 1 calc R . . 
H16C H 0.6545 0.3079 0.2495 0.056 Uiso 1 1 calc R . . 
C17 C 0.8563(2) 0.37206(14) 0.11529(13) 0.0273(5) Uani 1 1 d . . . 
H17 H 0.7732 0.3996 0.1215 0.033 Uiso 1 1 calc R . . 
C18 C 0.8145(3) 0.33493(16) 0.02852(14) 0.0569(9) Uani 1 1 d . . . 
H18A H 0.7799 0.3773 -0.0129 0.085 Uiso 1 1 calc R . . 
H18B H 0.7431 0.2947 0.0247 0.085 Uiso 1 1 calc R . . 
H18C H 0.8938 0.3090 0.0180 0.085 Uiso 1 1 calc R . . 
C19 C 0.9621(3) 0.43832(15) 0.12154(16) 0.0503(8) Uani 1 1 d . . . 
H19A H 1.0422 0.4157 0.1092 0.075 Uiso 1 1 calc R . . 
H19B H 0.9891 0.4607 0.1779 0.075 Uiso 1 1 calc R . . 
H19C H 0.9230 0.4811 0.0815 0.075 Uiso 1 1 calc R . . 
C20 C 1.0652(2) 0.23634(13) 0.20987(13) 0.0250(5) Uani 1 1 d . . . 
H20 H 1.0766 0.1991 0.2582 0.030 Uiso 1 1 calc R . . 
C21 C 1.0494(2) 0.18203(15) 0.13423(15) 0.0433(7) Uani 1 1 d . . . 
H21A H 1.0545 0.2148 0.0868 0.065 Uiso 1 1 calc R . . 
H21B H 0.9609 0.1547 0.1206 0.065 Uiso 1 1 calc R . . 
H21C H 1.1224 0.1418 0.1468 0.065 Uiso 1 1 calc R . . 
C22 C 1.1985(2) 0.28545(14) 0.22883(14) 0.0343(6) Uani 1 1 d . . . 
H22A H 1.2764 0.2486 0.2417 0.051 Uiso 1 1 calc R . . 
H22B H 1.2054 0.3208 0.2766 0.051 Uiso 1 1 calc R . . 
H22C H 1.1981 0.3182 0.1803 0.051 Uiso 1 1 calc R . . 
C23 C 0.3388(2) 0.30837(12) 0.52181(12) 0.0208(5) Uani 1 1 d . . . 
H23A H 0.3377 0.2828 0.5748 0.025 Uiso 1 1 calc R . . 
H23B H 0.2560 0.3420 0.5020 0.025 Uiso 1 1 calc R . . 
C24 C 0.2166(2) 0.20110(14) 0.44273(13) 0.0292(6) Uani 1 1 d . . . 
H24A H 0.1374 0.2376 0.4229 0.035 Uiso 1 1 calc R . . 
H24B H 0.2160 0.1634 0.3970 0.035 Uiso 1 1 calc R . . 
C25 C 0.3012(3) 0.09382(14) 0.53568(16) 0.0401(7) Uani 1 1 d . . . 
H25A H 0.2944 0.0576 0.4886 0.060 Uiso 1 1 calc R . . 
H25B H 0.2841 0.0634 0.5815 0.060 Uiso 1 1 calc R . . 
H25C H 0.3927 0.1173 0.5540 0.060 Uiso 1 1 calc R . . 
C26 C 0.3895(2) 0.42409(12) 0.65369(12) 0.0206(5) Uani 1 1 d . . . 
H26A H 0.2983 0.4394 0.6173 0.025 Uiso 1 1 calc R . . 
H26B H 0.3818 0.3708 0.6785 0.025 Uiso 1 1 calc R . . 
C27 C 0.3518(2) 0.48693(14) 0.77054(14) 0.0310(6) Uani 1 1 d . . . 
H27A H 0.3814 0.5330 0.8090 0.037 Uiso 1 1 calc R . . 
H27B H 0.2570 0.4975 0.7365 0.037 Uiso 1 1 calc R . . 
C28 C 0.4855(2) 0.40124(16) 0.87454(14) 0.0432(7) Uani 1 1 d . . . 
H28A H 0.5527 0.3955 0.8438 0.065 Uiso 1 1 calc R . . 
H28B H 0.4822 0.3514 0.9052 0.065 Uiso 1 1 calc R . . 
H28C H 0.5115 0.4462 0.9137 0.065 Uiso 1 1 calc R . . 
 
loop_ 
 _atom_site_aniso_label 
 _atom_site_aniso_U_11 
 _atom_site_aniso_U_22 
 _atom_site_aniso_U_33 
 _atom_site_aniso_U_23 
 _atom_site_aniso_U_13 
 _atom_site_aniso_U_12 
Si1 0.0206(4) 0.0236(3) 0.0199(3) -0.0067(3) 0.0073(3) -0.0012(3) 
O1 0.0236(9) 0.0272(9) 0.0272(8) -0.0055(7) 0.0097(7) -0.0080(7) 
O2 0.0326(10) 0.0289(10) 0.0411(10) -0.0010(8) 0.0188(8) -0.0066(8) 
O3 0.0305(10) 0.0238(9) 0.0318(9) -0.0046(7) 0.0207(7) -0.0046(7) 
O4 0.0316(10) 0.0339(10) 0.0349(9) 0.0049(8) 0.0171(8) -0.0014(8) 
C1 0.0200(12) 0.0134(11) 0.0128(10) -0.0006(9) 0.0056(9) 0.0005(9) 
C2 0.0171(12) 0.0125(11) 0.0147(10) 0.0030(9) 0.0037(9) 0.0023(9) 
C3 0.0199(12) 0.0147(11) 0.0126(10) -0.0016(9) 0.0041(9) -0.0015(9) 
C4 0.0159(12) 0.0151(11) 0.0142(10) 0.0026(9) 0.0040(9) 0.0012(9) 
C5 0.0170(12) 0.0151(11) 0.0179(11) -0.0001(9) 0.0039(9) -0.0003(9) 
C6 0.0152(11) 0.0150(11) 0.0202(11) 0.0028(9) 0.0034(9) 0.0000(9) 
C7 0.0172(12) 0.0158(11) 0.0206(11) 0.0046(9) 0.0086(9) 0.0033(9) 
C8 0.0189(12) 0.0150(11) 0.0201(11) -0.0006(9) 0.0079(9) 0.0007(9) 
C9 0.0187(12) 0.0143(11) 0.0171(11) 0.0041(9) 0.0055(9) 0.0025(9) 
C10 0.0184(12) 0.0151(11) 0.0167(11) -0.0009(9) 0.0040(9) 0.0006(9) 
C11 0.0164(12) 0.0144(11) 0.0140(10) 0.0015(9) 0.0044(9) 0.0019(9) 
C12 0.0157(12) 0.0168(11) 0.0207(11) 0.0023(9) 0.0070(9) -0.0013(9) 
C13 0.0160(12) 0.0227(12) 0.0245(12) -0.0009(10) 0.0086(9) -0.0014(10) 
C14 0.0234(13) 0.0292(13) 0.0223(12) -0.0110(10) 0.0069(10) -0.0042(10) 
C15 0.0412(17) 0.0393(16) 0.0350(14) -0.0040(12) 0.0123(12) -0.0158(13) 
C16 0.0262(14) 0.0386(15) 0.0510(16) -0.0198(13) 0.0171(12) -0.0121(12) 
C17 0.0252(13) 0.0334(14) 0.0259(12) -0.0032(11) 0.0115(10) 0.0025(11) 
C18 0.086(2) 0.0500(19) 0.0253(15) 0.0031(13) 0.0006(14) 0.0057(17) 
C19 0.0511(19) 0.0467(18) 0.0515(17) 0.0204(14) 0.0126(14) -0.0031(15) 
C20 0.0227(13) 0.0262(13) 0.0258(12) -0.0052(10) 0.0066(10) 0.0002(10) 
C21 0.0276(15) 0.0467(17) 0.0536(16) -0.0274(14) 0.0088(12) 0.0071(13) 
C22 0.0235(14) 0.0385(15) 0.0421(15) -0.0081(12) 0.0116(11) 0.0019(11) 
C23 0.0195(12) 0.0207(12) 0.0234(12) -0.0013(10) 0.0081(9) 0.0011(10) 
C24 0.0247(13) 0.0318(14) 0.0312(13) -0.0045(11) 0.0084(10) -0.0104(11) 
C25 0.0416(17) 0.0300(15) 0.0519(16) 0.0062(13) 0.0187(13) 0.0005(13) 
C26 0.0203(13) 0.0189(12) 0.0240(12) -0.0003(10) 0.0085(10) -0.0004(10) 
C27 0.0356(15) 0.0288(14) 0.0361(14) 0.0016(12) 0.0220(12) 0.0055(12) 
C28 0.0366(16) 0.0551(18) 0.0390(15) 0.0084(13) 0.0126(13) 0.0030(14) 
 
_geom_special_details 
; 
 All esds (except the esd in the dihedral angle between two l.s. planes) 
 are estimated using the full covariance matrix.  The cell esds are taken 
 into account individually in the estimation of esds in distances, angles 
 and torsion angles; correlations between esds in cell parameters are only 
 used when they are defined by crystal symmetry.  An approximate (isotropic) 
 treatment of cell esds is used for estimating esds involving l.s. planes. 
; 
 
loop_ 
 _geom_bond_atom_site_label_1 
 _geom_bond_atom_site_label_2 
 _geom_bond_distance 
 _geom_bond_site_symmetry_2 
 _geom_bond_publ_flag 
Si1 C13 1.844(2) . ? 
Si1 C20 1.874(2) . ? 
Si1 C14 1.882(2) . ? 
Si1 C17 1.890(2) . ? 
O1 C24 1.421(2) . ? 
O1 C23 1.424(2) . ? 
O2 C24 1.402(2) . ? 
O2 C25 1.431(3) . ? 
O3 C27 1.405(2) . ? 
O3 C26 1.426(2) . ? 
O4 C27 1.402(2) . ? 
O4 C28 1.436(3) . ? 
C1 C2 1.413(3) . ? 
C1 C11 1.421(3) 3_766 ? 
C1 C12 1.432(3) . ? 
C2 C3 1.410(3) . ? 
C2 C11 1.446(3) . ? 
C3 C4 1.393(3) . ? 
C3 H3 0.9500 . ? 
C4 C5 1.432(3) . ? 
C4 C9 1.438(3) . ? 
C5 C6 1.359(3) . ? 
C5 H5 0.9500 . ? 
C6 C7 1.449(3) . ? 
C6 C23 1.505(3) . ? 
C7 C8 1.347(3) . ? 
C7 C26 1.498(3) . ? 
C8 C9 1.429(3) . ? 
C8 H8 0.9500 . ? 
C9 C10 1.384(3) . ? 
C10 C11 1.405(3) . ? 
C10 H10 0.9500 . ? 
C11 C1 1.421(3) 3_766 ? 
C12 C13 1.203(3) . ? 
C14 C15 1.529(3) . ? 
C14 C16 1.535(3) . ? 
C14 H14 1.0000 . ? 
C15 H15A 0.9800 . ? 
C15 H15B 0.9800 . ? 
C15 H15C 0.9800 . ? 
C16 H16A 0.9800 . ? 
C16 H16B 0.9800 . ? 
C16 H16C 0.9800 . ? 
C17 C18 1.526(3) . ? 
C17 C19 1.527(3) . ? 
C17 H17 1.0000 . ? 
C18 H18A 0.9800 . ? 
C18 H18B 0.9800 . ? 
C18 H18C 0.9800 . ? 
C19 H19A 0.9800 . ? 
C19 H19B 0.9800 . ? 
C19 H19C 0.9800 . ? 
C20 C21 1.528(3) . ? 
C20 C22 1.543(3) . ? 
C20 H20 1.0000 . ? 
C21 H21A 0.9800 . ? 
C21 H21B 0.9800 . ? 
C21 H21C 0.9800 . ? 
C22 H22A 0.9800 . ? 
C22 H22B 0.9800 . ? 
C22 H22C 0.9800 . ? 
C23 H23A 0.9900 . ? 
C23 H23B 0.9900 . ? 
C24 H24A 0.9900 . ? 
C24 H24B 0.9900 . ? 
C25 H25A 0.9800 . ? 
C25 H25B 0.9800 . ? 
C25 H25C 0.9800 . ? 
C26 H26A 0.9900 . ? 
C26 H26B 0.9900 . ? 
C27 H27A 0.9900 . ? 
C27 H27B 0.9900 . ? 
C28 H28A 0.9800 . ? 
C28 H28B 0.9800 . ? 
C28 H28C 0.9800 . ? 
 
loop_ 
 _geom_angle_atom_site_label_1 
 _geom_angle_atom_site_label_2 
 _geom_angle_atom_site_label_3 
 _geom_angle 
 _geom_angle_site_symmetry_1 
 _geom_angle_site_symmetry_3 
 _geom_angle_publ_flag 
C13 Si1 C20 107.56(9) . . ? 
C13 Si1 C14 105.16(9) . . ? 
C20 Si1 C14 109.56(10) . . ? 
C13 Si1 C17 106.03(10) . . ? 
C20 Si1 C17 116.14(10) . . ? 
C14 Si1 C17 111.66(10) . . ? 
C24 O1 C23 111.57(16) . . ? 
C24 O2 C25 112.88(18) . . ? 
C27 O3 C26 112.50(16) . . ? 
C27 O4 C28 112.41(18) . . ? 
C2 C1 C11 121.37(17) . 3_766 ? 
C2 C1 C12 120.50(18) . . ? 
C11 C1 C12 118.08(18) 3_766 . ? 
C3 C2 C1 122.42(18) . . ? 
C3 C2 C11 118.91(18) . . ? 
C1 C2 C11 118.67(18) . . ? 
C4 C3 C2 122.14(18) . . ? 
C4 C3 H3 118.9 . . ? 
C2 C3 H3 118.9 . . ? 
C3 C4 C5 123.43(18) . . ? 
C3 C4 C9 118.39(18) . . ? 
C5 C4 C9 118.18(18) . . ? 
C6 C5 C4 121.58(19) . . ? 
C6 C5 H5 119.2 . . ? 
C4 C5 H5 119.2 . . ? 
C5 C6 C7 119.94(19) . . ? 
C5 C6 C23 122.87(18) . . ? 
C7 C6 C23 117.19(18) . . ? 
C8 C7 C6 119.74(19) . . ? 
C8 C7 C26 121.23(18) . . ? 
C6 C7 C26 119.03(18) . . ? 
C7 C8 C9 122.09(19) . . ? 
C7 C8 H8 119.0 . . ? 
C9 C8 H8 119.0 . . ? 
C10 C9 C8 121.45(19) . . ? 
C10 C9 C4 120.11(18) . . ? 
C8 C9 C4 118.44(18) . . ? 
C9 C10 C11 122.03(18) . . ? 
C9 C10 H10 119.0 . . ? 
C11 C10 H10 119.0 . . ? 
C10 C11 C1 121.64(18) . 3_766 ? 
C10 C11 C2 118.40(18) . . ? 
C1 C11 C2 119.96(18) 3_766 . ? 
C13 C12 C1 175.9(2) . . ? 
C12 C13 Si1 177.41(19) . . ? 
C15 C14 C16 110.51(19) . . ? 
C15 C14 Si1 111.46(14) . . ? 
C16 C14 Si1 111.58(15) . . ? 
C15 C14 H14 107.7 . . ? 
C16 C14 H14 107.7 . . ? 
Si1 C14 H14 107.7 . . ? 
C14 C15 H15A 109.5 . . ? 
C14 C15 H15B 109.5 . . ? 
H15A C15 H15B 109.5 . . ? 
C14 C15 H15C 109.5 . . ? 
H15A C15 H15C 109.5 . . ? 
H15B C15 H15C 109.5 . . ? 
C14 C16 H16A 109.5 . . ? 
C14 C16 H16B 109.5 . . ? 
H16A C16 H16B 109.5 . . ? 
C14 C16 H16C 109.5 . . ? 
H16A C16 H16C 109.5 . . ? 
H16B C16 H16C 109.5 . . ? 
C18 C17 C19 110.6(2) . . ? 
C18 C17 Si1 114.13(17) . . ? 
C19 C17 Si1 113.52(16) . . ? 
C18 C17 H17 105.9 . . ? 
C19 C17 H17 105.9 . . ? 
Si1 C17 H17 105.9 . . ? 
C17 C18 H18A 109.5 . . ? 
C17 C18 H18B 109.5 . . ? 
H18A C18 H18B 109.5 . . ? 
C17 C18 H18C 109.5 . . ? 
H18A C18 H18C 109.5 . . ? 
H18B C18 H18C 109.5 . . ? 
C17 C19 H19A 109.5 . . ? 
C17 C19 H19B 109.5 . . ? 
H19A C19 H19B 109.5 . . ? 
C17 C19 H19C 109.5 . . ? 
H19A C19 H19C 109.5 . . ? 
H19B C19 H19C 109.5 . . ? 
C21 C20 C22 110.86(18) . . ? 
C21 C20 Si1 112.06(15) . . ? 
C22 C20 Si1 115.75(15) . . ? 
C21 C20 H20 105.8 . . ? 
C22 C20 H20 105.8 . . ? 
Si1 C20 H20 105.8 . . ? 
C20 C21 H21A 109.5 . . ? 
C20 C21 H21B 109.5 . . ? 
H21A C21 H21B 109.5 . . ? 
C20 C21 H21C 109.5 . . ? 
H21A C21 H21C 109.5 . . ? 
H21B C21 H21C 109.5 . . ? 
C20 C22 H22A 109.5 . . ? 
C20 C22 H22B 109.5 . . ? 
H22A C22 H22B 109.5 . . ? 
C20 C22 H22C 109.5 . . ? 
H22A C22 H22C 109.5 . . ? 
H22B C22 H22C 109.5 . . ? 
O1 C23 C6 110.61(17) . . ? 
O1 C23 H23A 109.5 . . ? 
C6 C23 H23A 109.5 . . ? 
O1 C23 H23B 109.5 . . ? 
C6 C23 H23B 109.5 . . ? 
H23A C23 H23B 108.1 . . ? 
O2 C24 O1 113.09(16) . . ? 
O2 C24 H24A 109.0 . . ? 
O1 C24 H24A 109.0 . . ? 
O2 C24 H24B 109.0 . . ? 
O1 C24 H24B 109.0 . . ? 
H24A C24 H24B 107.8 . . ? 
O2 C25 H25A 109.5 . . ? 
O2 C25 H25B 109.5 . . ? 
H25A C25 H25B 109.5 . . ? 
O2 C25 H25C 109.5 . . ? 
H25A C25 H25C 109.5 . . ? 
H25B C25 H25C 109.5 . . ? 
O3 C26 C7 109.73(16) . . ? 
O3 C26 H26A 109.7 . . ? 
C7 C26 H26A 109.7 . . ? 
O3 C26 H26B 109.7 . . ? 
C7 C26 H26B 109.7 . . ? 
H26A C26 H26B 108.2 . . ? 
O4 C27 O3 113.53(18) . . ? 
O4 C27 H27A 108.9 . . ? 
O3 C27 H27A 108.9 . . ? 
O4 C27 H27B 108.9 . . ? 
O3 C27 H27B 108.9 . . ? 
H27A C27 H27B 107.7 . . ? 
O4 C28 H28A 109.5 . . ? 
O4 C28 H28B 109.5 . . ? 
H28A C28 H28B 109.5 . . ? 
O4 C28 H28C 109.5 . . ? 
H28A C28 H28C 109.5 . . ? 
H28B C28 H28C 109.5 . . ? 
 
loop_ 
 _geom_torsion_atom_site_label_1 
 _geom_torsion_atom_site_label_2 
 _geom_torsion_atom_site_label_3 
 _geom_torsion_atom_site_label_4 
 _geom_torsion 
 _geom_torsion_site_symmetry_1 
 _geom_torsion_site_symmetry_2 
 _geom_torsion_site_symmetry_3 
 _geom_torsion_site_symmetry_4 
 _geom_torsion_publ_flag 
C11 C1 C2 C3 -179.29(18) 3_766 . . . ? 
C12 C1 C2 C3 3.3(3) . . . . ? 
C11 C1 C2 C11 0.1(3) 3_766 . . . ? 
C12 C1 C2 C11 -177.27(17) . . . . ? 
C1 C2 C3 C4 179.54(18) . . . . ? 
C11 C2 C3 C4 0.1(3) . . . . ? 
C2 C3 C4 C5 -178.41(18) . . . . ? 
C2 C3 C4 C9 1.0(3) . . . . ? 
C3 C4 C5 C6 178.72(19) . . . . ? 
C9 C4 C5 C6 -0.7(3) . . . . ? 
C4 C5 C6 C7 1.7(3) . . . . ? 
C4 C5 C6 C23 -179.03(17) . . . . ? 
C5 C6 C7 C8 -0.9(3) . . . . ? 
C23 C6 C7 C8 179.76(18) . . . . ? 
C5 C6 C7 C26 179.08(18) . . . . ? 
C23 C6 C7 C26 -0.2(3) . . . . ? 
C6 C7 C8 C9 -0.9(3) . . . . ? 
C26 C7 C8 C9 179.10(18) . . . . ? 
C7 C8 C9 C10 -177.39(18) . . . . ? 
C7 C8 C9 C4 1.9(3) . . . . ? 
C3 C4 C9 C10 -1.2(3) . . . . ? 
C5 C4 C9 C10 178.19(17) . . . . ? 
C3 C4 C9 C8 179.49(18) . . . . ? 
C5 C4 C9 C8 -1.1(3) . . . . ? 
C8 C9 C10 C11 179.61(18) . . . . ? 
C4 C9 C10 C11 0.4(3) . . . . ? 
C9 C10 C11 C1 -179.56(18) . . . 3_766 ? 
C9 C10 C11 C2 0.8(3) . . . . ? 
C3 C2 C11 C10 -1.0(3) . . . . ? 
C1 C2 C11 C10 179.55(18) . . . . ? 
C3 C2 C11 C1 179.31(17) . . . 3_766 ? 
C1 C2 C11 C1 -0.1(3) . . . 3_766 ? 
C2 C1 C12 C13 149(3) . . . . ? 
C11 C1 C12 C13 -28(3) 3_766 . . . ? 
C1 C12 C13 Si1 -71(6) . . . . ? 
C20 Si1 C13 C12 151(4) . . . . ? 
C14 Si1 C13 C12 -92(4) . . . . ? 
C17 Si1 C13 C12 26(4) . . . . ? 
C13 Si1 C14 C15 -63.92(18) . . . . ? 
C20 Si1 C14 C15 51.43(18) . . . . ? 
C17 Si1 C14 C15 -178.47(15) . . . . ? 
C13 Si1 C14 C16 60.16(17) . . . . ? 
C20 Si1 C14 C16 175.51(14) . . . . ? 
C17 Si1 C14 C16 -54.39(17) . . . . ? 
C13 Si1 C17 C18 -174.61(18) . . . . ? 
C20 Si1 C17 C18 66.0(2) . . . . ? 
C14 Si1 C17 C18 -60.6(2) . . . . ? 
C13 Si1 C17 C19 57.42(19) . . . . ? 
C20 Si1 C17 C19 -62.0(2) . . . . ? 
C14 Si1 C17 C19 171.43(17) . . . . ? 
C13 Si1 C20 C21 176.71(16) . . . . ? 
C14 Si1 C20 C21 62.90(19) . . . . ? 
C17 Si1 C20 C21 -64.7(2) . . . . ? 
C13 Si1 C20 C22 -54.83(18) . . . . ? 
C14 Si1 C20 C22 -168.64(15) . . . . ? 
C17 Si1 C20 C22 63.73(18) . . . . ? 
C24 O1 C23 C6 -175.72(16) . . . . ? 
C5 C6 C23 O1 8.4(3) . . . . ? 
C7 C6 C23 O1 -172.27(16) . . . . ? 
C25 O2 C24 O1 -67.7(2) . . . . ? 
C23 O1 C24 O2 -64.4(2) . . . . ? 
C27 O3 C26 C7 -176.44(17) . . . . ? 
C8 C7 C26 O3 -2.2(3) . . . . ? 
C6 C7 C26 O3 177.74(16) . . . . ? 
C28 O4 C27 O3 64.2(2) . . . . ? 
C26 O3 C27 O4 65.8(2) . . . . ? 
 
_diffrn_measured_fraction_theta_max    1.000 
_diffrn_reflns_theta_full              27.47 
_diffrn_measured_fraction_theta_full   1.000 
_refine_diff_density_max     .301 
_refine_diff_density_min    -.306 
_refine_diff_density_rms     .062 
