 
data_x06041 
 
_audit_creation_method            SHELXL-97 
_chemical_name_systematic 
; 
 ? 
; 
_chemical_name_common             ? 
_chemical_melting_point           ? 
_chemical_formula_moiety          
 'C40 H38 S2 Si2' 
_chemical_formula_sum 
 'C40 H38 S2 Si2' 
_chemical_formula_weight          639.00 
 
loop_ 
 _atom_type_symbol 
 _atom_type_description 
 _atom_type_scat_dispersion_real 
 _atom_type_scat_dispersion_imag 
 _atom_type_scat_source 
 'C'  'C'    .0181    .0091 
 'International Tables Vol C Tables 4.2.6.8 and 6.1.1.4' 
 'H'  'H'    .0000    .0000 
 'International Tables Vol C Tables 4.2.6.8 and 6.1.1.4' 
 'Si'  'Si'    .2541    .3302 
 'International Tables Vol C Tables 4.2.6.8 and 6.1.1.4' 
 'S'  'S'    .3331    .5567 
 'International Tables Vol C Tables 4.2.6.8 and 6.1.1.4' 
 
_symmetry_cell_setting            triclinic
_symmetry_space_group_name_H-M    'P -1'
 
loop_ 
 _symmetry_equiv_pos_as_xyz 
 'x, y, z' 
 '-x, -y, -z' 
 
_cell_length_a                    7.2714(3) 
_cell_length_b                    10.4965(4) 
_cell_length_c                    12.1615(4) 
_cell_angle_alpha                 65.2580(10) 
_cell_angle_beta                  88.287(2) 
_cell_angle_gamma                 76.895(2) 
_cell_volume                      818.83(5) 
_cell_formula_units_Z             1 
_cell_measurement_temperature     90.0(2) 
_cell_measurement_reflns_used     7069
_cell_measurement_theta_min       4.01
_cell_measurement_theta_max       67.31
 
_exptl_crystal_description        needle
_exptl_crystal_colour             red
_exptl_crystal_size_max           0.25 
_exptl_crystal_size_mid           0.03 
_exptl_crystal_size_min           0.03 
_exptl_crystal_density_meas       ? 
_exptl_crystal_density_diffrn     1.296 
_exptl_crystal_density_method     'not measured' 
_exptl_crystal_F_000              338 
_exptl_absorpt_coefficient_mu     2.382 
_exptl_absorpt_correction_type    multi-scan
_exptl_absorpt_correction_T_min   0.756 
_exptl_absorpt_correction_T_max   0.932 
_exptl_absorpt_process_details    'Sadabs in APEX2 (Bruker-Nonius, 2004)'
 
_exptl_special_details 
; 
 ? 
; 
 
_diffrn_ambient_temperature       90.0(2) 
_diffrn_radiation_wavelength      1.54178 
_diffrn_radiation_type            CuK\a 
_diffrn_radiation_source          'fine-focus rotating anode' 
_diffrn_radiation_monochromator   'Bruker Helios multilayer optics' 
_diffrn_measurement_device_type   'X8 Proteum diffractometer'
_diffrn_measurement_method        '\w and \f scans'
_diffrn_detector_area_resol_mean  18
_diffrn_standards_number          ? 
_diffrn_standards_interval_count  ? 
_diffrn_standards_interval_time   ? 
_diffrn_standards_decay_%         ? 
_diffrn_reflns_number             10525 
_diffrn_reflns_av_R_equivalents   0.0343 
_diffrn_reflns_av_sigmaI/netI     0.0327 
_diffrn_reflns_limit_h_min        -7 
_diffrn_reflns_limit_h_max        8 
_diffrn_reflns_limit_k_min        -12 
_diffrn_reflns_limit_k_max        12 
_diffrn_reflns_limit_l_min        -14 
_diffrn_reflns_limit_l_max        14 
_diffrn_reflns_theta_min          4.01 
_diffrn_reflns_theta_max          67.96 
_reflns_number_total              2898 
_reflns_number_gt                 2692 
_reflns_threshold_expression      >2\s(I)    
 
_computing_data_collection        'APEX2 (Bruker-Nonius, 2004)'
_computing_cell_refinement        'APEX2 (Bruker-Nonius, 2004)'
_computing_data_reduction         'APEX2 (Bruker-Nonius, 2004)'
_computing_structure_solution     'SHELXS-97 (Sheldrick, 1990)' 
_computing_structure_refinement   'SHELXL-97 (Sheldrick, 1997)' 
_computing_molecular_graphics     'XP in SHELXTL (Sheldrick, 1994)'
_computing_publication_material
; 
SHELX97-2 (Sheldrick, 1997) and local procedures 
; 
 
_refine_special_details 
; 
 Refinement of F^2^ against ALL reflections.  The weighted R-factor wR and 
 goodness of fit S are based on F^2^, conventional R-factors R are based 
 on F, with F set to zero for negative F^2^. The threshold expression of 
 F^2^ > 2sigma(F^2^) is used only for calculating R-factors(gt) etc. and is 
 not relevant to the choice of reflections for refinement.  R-factors based 
 on F^2^ are statistically about twice as large as those based on F, and R- 
 factors based on ALL data will be even larger. 
 
 Structure shows the usual disorder of the thiophene rings.
; 
 
_refine_ls_structure_factor_coef  Fsqd  
_refine_ls_matrix_type            full 
_refine_ls_weighting_scheme       calc  
_refine_ls_weighting_details 
 'calc w=1/[\s^2^(Fo^2^)+(0.0670P)^2^+0.5836P] where P=(Fo^2^+2Fc^2^)/3' 
_atom_sites_solution_primary      direct 
_atom_sites_solution_secondary    difmap 
_atom_sites_solution_hydrogens    geom 
_refine_ls_hydrogen_treatment     constr 
_refine_ls_extinction_method      SHELXL 
_refine_ls_extinction_coef        0.0002(6) 
_refine_ls_extinction_expression 
 'Fc^*^=kFc[1+0.001xFc^2^\l^3^/sin(2\q)]^-1/4^' 
_refine_ls_number_reflns          2898 
_refine_ls_number_parameters      228 
_refine_ls_number_restraints      48 
_refine_ls_R_factor_all           0.0439 
_refine_ls_R_factor_gt            0.0412 
_refine_ls_wR_factor_ref          0.1176 
_refine_ls_wR_factor_gt           0.1145 
_refine_ls_goodness_of_fit_ref    1.064 
_refine_ls_restrained_S_all       1.058 
_refine_ls_shift/su_max           0.001 
_refine_ls_shift/su_mean          0.000 
 
loop_ 
 _atom_site_label 
 _atom_site_type_symbol 
 _atom_site_fract_x 
 _atom_site_fract_y 
 _atom_site_fract_z 
 _atom_site_U_iso_or_equiv 
 _atom_site_adp_type 
 _atom_site_occupancy 
 _atom_site_symmetry_multiplicity 
 _atom_site_calc_flag 
 _atom_site_refinement_flags 
 _atom_site_disorder_assembly 
 _atom_site_disorder_group 
Si1 Si 0.50040(7) 1.10960(5) 0.20621(4) 0.01664(17) Uani 1 1 d . . . 
C1 C 0.4868(3) 0.64903(18) 0.42889(15) 0.0174(4) Uani 1 1 d . . . 
C2 C 0.6398(3) 0.56643(19) 0.51799(15) 0.0172(4) Uani 1 1 d . B . 
C3 C 0.7808(3) 0.63011(19) 0.53635(16) 0.0189(4) Uani 1 1 d . . . 
H3 H 0.7729 0.7300 0.4894 0.023 Uiso 1 1 calc R A 1 
C4 C 0.9286(3) 0.54813(19) 0.62156(16) 0.0190(4) Uani 0.538(3) 1 d PDU B 1 
C5 C 1.085(2) 0.5952(17) 0.6516(19) 0.023(2) Uani 0.538(3) 1 d PDU B 1 
H5 H 1.1011 0.6911 0.6127 0.027 Uiso 0.538(3) 1 calc PR B 1 
C6 C 1.2048(9) 0.4861(5) 0.7414(6) 0.0242(11) Uani 0.538(3) 1 d PDU B 1 
H6 H 1.3145 0.4980 0.7730 0.029 Uiso 0.538(3) 1 calc PR B 1 
S7 S 1.1406(5) 0.3219(4) 0.7941(4) 0.0227(5) Uani 0.538(3) 1 d PDU B 1 
C8 C 0.9420(3) 0.39734(19) 0.69320(16) 0.0189(4) Uani 0.538(3) 1 d PDU B 1 
C4' C 0.9286(3) 0.54813(19) 0.62156(16) 0.0190(4) Uani 0.462(3) 1 d PDU B 2 
S5' S 1.1147(7) 0.5999(5) 0.6603(5) 0.0205(6) Uani 0.462(3) 1 d PDU B 2 
C6' C 1.2108(9) 0.4261(6) 0.7684(6) 0.0219(12) Uani 0.462(3) 1 d PDU B 2 
H6' H 1.3235 0.4011 0.8179 0.026 Uiso 0.462(3) 1 calc PR B 2 
C7' C 1.110(2) 0.3300(18) 0.7755(17) 0.021(2) Uani 0.462(3) 1 d PDU B 2 
H7' H 1.1457 0.2300 0.8282 0.025 Uiso 0.462(3) 1 calc PR B 2 
C8' C 0.9420(3) 0.39734(19) 0.69320(16) 0.0189(4) Uani 0.462(3) 1 d PDU B 2 
C9 C 0.8074(3) 0.33279(18) 0.67735(16) 0.0185(4) Uani 1 1 d . . . 
H9 H 0.8178 0.2327 0.7251 0.022 Uiso 1 1 calc R B 1 
C10 C 0.6530(3) 0.41505(19) 0.58989(15) 0.0174(4) Uani 1 1 d . . . 
C11 C 0.4781(3) 0.79804(19) 0.35573(16) 0.0183(4) Uani 1 1 d . . . 
C12 C 0.4773(3) 0.9232(2) 0.29368(16) 0.0200(4) Uani 1 1 d . . . 
C13 C 0.2793(3) 1.23672(19) 0.20618(17) 0.0207(4) Uani 1 1 d . . . 
H13 H 0.2411 1.2277 0.2883 0.025 Uiso 1 1 calc R . . 
C14 C 0.1170(3) 1.2857(2) 0.11176(19) 0.0292(5) Uani 1 1 d . . . 
H14A H 0.1336 1.2474 0.0493 0.035 Uiso 1 1 calc R . . 
H14B H -0.0134 1.3011 0.1378 0.035 Uiso 1 1 calc R . . 
C15 C 0.2312(3) 1.3891(2) 0.10652(19) 0.0304(5) Uani 1 1 d . . . 
H15A H 0.1716 1.4683 0.1294 0.036 Uiso 1 1 calc R . . 
H15B H 0.3186 1.4146 0.0409 0.036 Uiso 1 1 calc R . . 
C16 C 0.5540(3) 1.13733(19) 0.04899(17) 0.0206(4) Uani 1 1 d . . . 
H16 H 0.4525 1.1290 0.0004 0.025 Uiso 1 1 calc R . . 
C17 C 0.6676(3) 1.2462(2) -0.02252(19) 0.0284(5) Uani 1 1 d . . . 
H17A H 0.6313 1.3039 -0.1103 0.034 Uiso 1 1 calc R . . 
H17B H 0.7137 1.2980 0.0186 0.034 Uiso 1 1 calc R . . 
C18 C 0.7556(3) 1.0891(2) 0.01969(19) 0.0280(5) Uani 1 1 d . . . 
H18A H 0.8559 1.0439 0.0870 0.034 Uiso 1 1 calc R . . 
H18B H 0.7734 1.0497 -0.0420 0.034 Uiso 1 1 calc R . . 
C19 C 0.6972(3) 1.1310(2) 0.28436(17) 0.0231(4) Uani 1 1 d . . . 
H19 H 0.7179 1.2310 0.2501 0.028 Uiso 1 1 calc R . . 
C20 C 0.8759(3) 1.0116(2) 0.33802(18) 0.0286(5) Uani 1 1 d . . . 
H20A H 0.8828 0.9197 0.3315 0.034 Uiso 1 1 calc R . . 
H20B H 0.9979 1.0401 0.3318 0.034 Uiso 1 1 calc R . . 
C21 C 0.7399(3) 1.0472(2) 0.42179(18) 0.0261(4) Uani 1 1 d . . . 
H21A H 0.7781 1.0979 0.4668 0.031 Uiso 1 1 calc R . . 
H21B H 0.6629 0.9774 0.4665 0.031 Uiso 1 1 calc R . . 
 
loop_ 
 _atom_site_aniso_label 
 _atom_site_aniso_U_11 
 _atom_site_aniso_U_22 
 _atom_site_aniso_U_33 
 _atom_site_aniso_U_23 
 _atom_site_aniso_U_13 
 _atom_site_aniso_U_12 
Si1 0.0169(3) 0.0132(3) 0.0161(3) -0.0029(2) 0.00033(18) -0.00310(19) 
C1 0.0220(10) 0.0127(8) 0.0136(8) -0.0038(7) 0.0044(7) -0.0007(7) 
C2 0.0215(10) 0.0150(9) 0.0132(8) -0.0051(7) 0.0047(7) -0.0027(7) 
C3 0.0247(10) 0.0139(8) 0.0160(9) -0.0050(7) 0.0043(7) -0.0036(7) 
C4 0.0218(9) 0.0177(8) 0.0166(8) -0.0073(7) 0.0052(7) -0.0034(7) 
C5 0.025(5) 0.018(3) 0.022(4) -0.007(2) 0.005(3) -0.002(3) 
C6 0.024(2) 0.022(3) 0.024(3) -0.009(2) 0.0000(18) -0.001(2) 
S7 0.0232(10) 0.0213(8) 0.0175(11) -0.0052(7) -0.0020(6) 0.0008(6) 
C8 0.0210(9) 0.0185(9) 0.0134(8) -0.0054(7) 0.0038(7) -0.0006(7) 
C4' 0.0218(9) 0.0177(8) 0.0166(8) -0.0073(7) 0.0052(7) -0.0034(7) 
S5' 0.0197(12) 0.0217(9) 0.0216(10) -0.0100(7) 0.0022(7) -0.0061(7) 
C6' 0.020(2) 0.026(3) 0.017(3) -0.009(3) -0.0021(18) 0.001(3) 
C7' 0.027(5) 0.017(3) 0.016(5) -0.005(3) 0.004(3) -0.005(3) 
C8' 0.0210(9) 0.0185(9) 0.0134(8) -0.0054(7) 0.0038(7) -0.0006(7) 
C9 0.0241(10) 0.0128(8) 0.0134(8) -0.0025(7) 0.0042(7) -0.0009(7) 
C10 0.0213(9) 0.0147(8) 0.0139(8) -0.0055(7) 0.0051(7) -0.0014(7) 
C11 0.0197(9) 0.0157(9) 0.0162(8) -0.0047(7) 0.0015(7) -0.0017(7) 
C12 0.0206(10) 0.0178(9) 0.0189(9) -0.0056(7) 0.0000(7) -0.0031(7) 
C13 0.0225(10) 0.0167(9) 0.0189(9) -0.0044(7) 0.0021(7) -0.0036(7) 
C14 0.0186(10) 0.0360(11) 0.0269(10) -0.0117(9) -0.0025(8) 0.0026(8) 
C15 0.0320(12) 0.0172(9) 0.0291(11) -0.0018(8) 0.0082(9) 0.0018(8) 
C16 0.0199(9) 0.0190(9) 0.0202(9) -0.0067(7) 0.0008(7) -0.0027(7) 
C17 0.0325(11) 0.0255(10) 0.0228(10) -0.0051(8) 0.0080(8) -0.0096(9) 
C18 0.0244(11) 0.0276(10) 0.0265(10) -0.0080(9) 0.0049(8) -0.0028(8) 
C19 0.0235(10) 0.0203(9) 0.0215(10) -0.0041(8) -0.0015(7) -0.0068(8) 
C20 0.0185(10) 0.0322(11) 0.0266(10) -0.0040(9) -0.0021(8) -0.0062(8) 
C21 0.0280(11) 0.0264(10) 0.0212(10) -0.0061(8) -0.0035(8) -0.0081(8) 
 
_geom_special_details 
; 
 All esds (except the esd in the dihedral angle between two l.s. planes) 
 are estimated using the full covariance matrix.  The cell esds are taken 
 into account individually in the estimation of esds in distances, angles 
 and torsion angles; correlations between esds in cell parameters are only 
 used when they are defined by crystal symmetry.  An approximate (isotropic) 
 treatment of cell esds is used for estimating esds involving l.s. planes. 
; 
 
loop_ 
 _geom_bond_atom_site_label_1 
 _geom_bond_atom_site_label_2 
 _geom_bond_distance 
 _geom_bond_site_symmetry_2 
 _geom_bond_publ_flag 
Si1 C12 1.8398(19) . ? 
Si1 C13 1.8417(19) . ? 
Si1 C19 1.8460(19) . ? 
Si1 C16 1.8530(19) . ? 
C1 C10 1.411(3) 2_666 ? 
C1 C2 1.419(3) . ? 
C1 C11 1.427(2) . ? 
C2 C3 1.413(3) . ? 
C2 C10 1.439(2) . ? 
C3 C4 1.367(3) . ? 
C3 H3 0.9500 . ? 
C4 C8 1.433(3) . ? 
C4 C5 1.450(11) . ? 
C5 C6 1.349(15) . ? 
C5 H5 0.9500 . ? 
C6 S7 1.739(6) . ? 
C6 H6 0.9500 . ? 
S7 C8 1.729(3) . ? 
C8 C9 1.369(3) . ? 
S5' C6' 1.736(7) . ? 
C6' C7' 1.349(16) . ? 
C6' H6' 0.9500 . ? 
C7' H7' 0.9500 . ? 
C9 C10 1.414(3) . ? 
C9 H9 0.9500 . ? 
C10 C1 1.411(3) 2_666 ? 
C11 C12 1.209(3) . ? 
C13 C14 1.513(3) . ? 
C13 C15 1.516(3) . ? 
C13 H13 1.0000 . ? 
C14 C15 1.490(3) . ? 
C14 H14A 0.9900 . ? 
C14 H14B 0.9900 . ? 
C15 H15A 0.9900 . ? 
C15 H15B 0.9900 . ? 
C16 C17 1.515(3) . ? 
C16 C18 1.522(3) . ? 
C16 H16 1.0000 . ? 
C17 C18 1.492(3) . ? 
C17 H17A 0.9900 . ? 
C17 H17B 0.9900 . ? 
C18 H18A 0.9900 . ? 
C18 H18B 0.9900 . ? 
C19 C20 1.521(3) . ? 
C19 C21 1.530(3) . ? 
C19 H19 1.0000 . ? 
C20 C21 1.499(3) . ? 
C20 H20A 0.9900 . ? 
C20 H20B 0.9900 . ? 
C21 H21A 0.9900 . ? 
C21 H21B 0.9900 . ? 
 
loop_ 
 _geom_angle_atom_site_label_1 
 _geom_angle_atom_site_label_2 
 _geom_angle_atom_site_label_3 
 _geom_angle 
 _geom_angle_site_symmetry_1 
 _geom_angle_site_symmetry_3 
 _geom_angle_publ_flag 
C12 Si1 C13 109.58(8) . . ? 
C12 Si1 C19 106.25(8) . . ? 
C13 Si1 C19 110.04(9) . . ? 
C12 Si1 C16 109.46(8) . . ? 
C13 Si1 C16 110.62(8) . . ? 
C19 Si1 C16 110.79(9) . . ? 
C10 C1 C2 120.91(16) 2_666 . ? 
C10 C1 C11 120.01(16) 2_666 . ? 
C2 C1 C11 119.06(17) . . ? 
C3 C2 C1 121.01(16) . . ? 
C3 C2 C10 119.45(17) . . ? 
C1 C2 C10 119.54(17) . . ? 
C4 C3 C2 120.09(16) . . ? 
C4 C3 H3 120.0 . . ? 
C2 C3 H3 120.0 . . ? 
C3 C4 C8 120.55(17) . . ? 
C3 C4 C5 127.4(7) . . ? 
C8 C4 C5 112.1(7) . . ? 
C6 C5 C4 111.7(10) . . ? 
C6 C5 H5 124.1 . . ? 
C4 C5 H5 124.1 . . ? 
C5 C6 S7 114.0(6) . . ? 
C5 C6 H6 123.0 . . ? 
S7 C6 H6 123.0 . . ? 
C8 S7 C6 91.7(3) . . ? 
C9 C8 C4 120.61(16) . . ? 
C9 C8 S7 128.90(19) . . ? 
C4 C8 S7 110.48(19) . . ? 
C7' C6' S5' 113.6(6) . . ? 
C7' C6' H6' 123.2 . . ? 
S5' C6' H6' 123.2 . . ? 
C6' C7' H7' 124.1 . . ? 
C8 C9 C10 120.03(16) . . ? 
C8 C9 H9 120.0 . . ? 
C10 C9 H9 120.0 . . ? 
C1 C10 C9 121.17(16) 2_666 . ? 
C1 C10 C2 119.55(17) 2_666 . ? 
C9 C10 C2 119.28(17) . . ? 
C12 C11 C1 177.8(2) . . ? 
C11 C12 Si1 174.17(17) . . ? 
C14 C13 C15 58.94(14) . . ? 
C14 C13 Si1 121.45(14) . . ? 
C15 C13 Si1 119.83(14) . . ? 
C14 C13 H13 115.0 . . ? 
C15 C13 H13 115.0 . . ? 
Si1 C13 H13 115.0 . . ? 
C15 C14 C13 60.64(13) . . ? 
C15 C14 H14A 117.7 . . ? 
C13 C14 H14A 117.7 . . ? 
C15 C14 H14B 117.7 . . ? 
C13 C14 H14B 117.7 . . ? 
H14A C14 H14B 114.8 . . ? 
C14 C15 C13 60.42(13) . . ? 
C14 C15 H15A 117.7 . . ? 
C13 C15 H15A 117.7 . . ? 
C14 C15 H15B 117.7 . . ? 
C13 C15 H15B 117.7 . . ? 
H15A C15 H15B 114.9 . . ? 
C17 C16 C18 58.84(13) . . ? 
C17 C16 Si1 119.79(14) . . ? 
C18 C16 Si1 120.51(14) . . ? 
C17 C16 H16 115.3 . . ? 
C18 C16 H16 115.3 . . ? 
Si1 C16 H16 115.3 . . ? 
C18 C17 C16 60.78(13) . . ? 
C18 C17 H17A 117.7 . . ? 
C16 C17 H17A 117.7 . . ? 
C18 C17 H17B 117.7 . . ? 
C16 C17 H17B 117.7 . . ? 
H17A C17 H17B 114.8 . . ? 
C17 C18 C16 60.38(13) . . ? 
C17 C18 H18A 117.7 . . ? 
C16 C18 H18A 117.7 . . ? 
C17 C18 H18B 117.7 . . ? 
C16 C18 H18B 117.7 . . ? 
H18A C18 H18B 114.9 . . ? 
C20 C19 C21 58.86(13) . . ? 
C20 C19 Si1 121.94(14) . . ? 
C21 C19 Si1 120.96(14) . . ? 
C20 C19 H19 114.6 . . ? 
C21 C19 H19 114.6 . . ? 
Si1 C19 H19 114.6 . . ? 
C21 C20 C19 60.86(13) . . ? 
C21 C20 H20A 117.7 . . ? 
C19 C20 H20A 117.7 . . ? 
C21 C20 H20B 117.7 . . ? 
C19 C20 H20B 117.7 . . ? 
H20A C20 H20B 114.8 . . ? 
C20 C21 C19 60.28(13) . . ? 
C20 C21 H21A 117.7 . . ? 
C19 C21 H21A 117.7 . . ? 
C20 C21 H21B 117.7 . . ? 
C19 C21 H21B 117.7 . . ? 
H21A C21 H21B 114.9 . . ? 
 
loop_ 
 _geom_torsion_atom_site_label_1 
 _geom_torsion_atom_site_label_2 
 _geom_torsion_atom_site_label_3 
 _geom_torsion_atom_site_label_4 
 _geom_torsion 
 _geom_torsion_site_symmetry_1 
 _geom_torsion_site_symmetry_2 
 _geom_torsion_site_symmetry_3 
 _geom_torsion_site_symmetry_4 
 _geom_torsion_publ_flag 
C10 C1 C2 C3 179.53(16) 2_666 . . . ? 
C11 C1 C2 C3 1.1(3) . . . . ? 
C10 C1 C2 C10 0.2(3) 2_666 . . . ? 
C11 C1 C2 C10 -178.20(16) . . . . ? 
C1 C2 C3 C4 -179.09(16) . . . . ? 
C10 C2 C3 C4 0.2(3) . . . . ? 
C2 C3 C4 C8 -0.2(3) . . . . ? 
C2 C3 C4 C5 179.6(13) . . . . ? 
C3 C4 C5 C6 179.3(9) . . . . ? 
C8 C4 C5 C6 -1(2) . . . . ? 
C4 C5 C6 S7 1(2) . . . . ? 
C5 C6 S7 C8 -0.1(13) . . . . ? 
C3 C4 C8 C9 0.1(3) . . . . ? 
C5 C4 C8 C9 -179.6(11) . . . . ? 
C3 C4 C8 S7 -179.3(2) . . . . ? 
C5 C4 C8 S7 0.9(11) . . . . ? 
C6 S7 C8 C9 -179.9(3) . . . . ? 
C6 S7 C8 C4 -0.5(4) . . . . ? 
C4 C8 C9 C10 -0.2(3) . . . . ? 
S7 C8 C9 C10 179.2(3) . . . . ? 
C8 C9 C10 C1 179.52(16) . . . 2_666 ? 
C8 C9 C10 C2 0.2(3) . . . . ? 
C3 C2 C10 C1 -179.54(16) . . . 2_666 ? 
C1 C2 C10 C1 -0.2(3) . . . 2_666 ? 
C3 C2 C10 C9 -0.2(2) . . . . ? 
C1 C2 C10 C9 179.07(15) . . . . ? 
C10 C1 C11 C12 -142(5) 2_666 . . . ? 
C2 C1 C11 C12 37(5) . . . . ? 
C1 C11 C12 Si1 -28(6) . . . . ? 
C13 Si1 C12 C11 -136.6(16) . . . . ? 
C19 Si1 C12 C11 -17.7(17) . . . . ? 
C16 Si1 C12 C11 101.9(16) . . . . ? 
C12 Si1 C13 C14 -87.46(17) . . . . ? 
C19 Si1 C13 C14 156.06(15) . . . . ? 
C16 Si1 C13 C14 33.31(18) . . . . ? 
C12 Si1 C13 C15 -157.19(16) . . . . ? 
C19 Si1 C13 C15 86.33(17) . . . . ? 
C16 Si1 C13 C15 -36.42(18) . . . . ? 
Si1 C13 C14 C15 -108.20(17) . . . . ? 
Si1 C13 C15 C14 110.90(17) . . . . ? 
C12 Si1 C16 C17 -151.07(15) . . . . ? 
C13 Si1 C16 C17 88.10(16) . . . . ? 
C19 Si1 C16 C17 -34.22(17) . . . . ? 
C12 Si1 C16 C18 -81.84(16) . . . . ? 
C13 Si1 C16 C18 157.32(15) . . . . ? 
C19 Si1 C16 C18 35.01(17) . . . . ? 
Si1 C16 C17 C18 109.72(17) . . . . ? 
Si1 C16 C18 C17 -108.52(17) . . . . ? 
C12 Si1 C19 C20 39.48(18) . . . . ? 
C13 Si1 C19 C20 158.02(15) . . . . ? 
C16 Si1 C19 C20 -79.33(17) . . . . ? 
C12 Si1 C19 C21 -30.85(18) . . . . ? 
C13 Si1 C19 C21 87.70(17) . . . . ? 
C16 Si1 C19 C21 -149.65(15) . . . . ? 
Si1 C19 C20 C21 -109.36(17) . . . . ? 
Si1 C19 C21 C20 111.00(18) . . . . ? 
 
_diffrn_measured_fraction_theta_max     .971 
_diffrn_reflns_theta_full              67.96 
_diffrn_measured_fraction_theta_full    .971 
_refine_diff_density_max     .487 
_refine_diff_density_min    -.416 
_refine_diff_density_rms     .062 
