 
data_k08175 
 
_audit_creation_method            SHELXL-97 
_chemical_name_systematic 
; 
 ? 
; 
_chemical_name_common             ? 
_chemical_melting_point           ? 
_chemical_formula_moiety 
 'C56 H58 F8 Si2' 
_chemical_formula_sum 
 'C56 H58 F8 Si2' 
_chemical_formula_weight          939.20 
 
loop_ 
 _atom_type_symbol 
 _atom_type_description 
 _atom_type_scat_dispersion_real 
 _atom_type_scat_dispersion_imag 
 _atom_type_scat_source 
 'C'  'C'   0.0033   0.0016 
 'International Tables Vol C Tables 4.2.6.8 and 6.1.1.4' 
 'H'  'H'   0.0000   0.0000 
 'International Tables Vol C Tables 4.2.6.8 and 6.1.1.4' 
 'F'  'F'   0.0171   0.0103 
 'International Tables Vol C Tables 4.2.6.8 and 6.1.1.4' 
 'Si'  'Si'   0.0817   0.0704 
 'International Tables Vol C Tables 4.2.6.8 and 6.1.1.4' 
 
_symmetry_cell_setting            orthorhombic
_symmetry_space_group_name_H-M    'P 21 21 21'
_symmetry_space_group_name_Hall   'P 2ab 2ac'
 
loop_ 
 _symmetry_equiv_pos_as_xyz 
 'x, y, z' 
 '-x+1/2, -y, z+1/2' 
 'x+1/2, -y+1/2, -z' 
 '-x, y+1/2, -z+1/2' 
 
_cell_length_a                    16.4539(3) 
_cell_length_b                    16.5160(4) 
_cell_length_c                    17.2590(4) 
_cell_angle_alpha                 90.00 
_cell_angle_beta                  90.00 
_cell_angle_gamma                 90.00 
_cell_volume                      4690.18(18) 
_cell_formula_units_Z             4 
_cell_measurement_temperature     90.0(2) 
_cell_measurement_reflns_used     5888
_cell_measurement_theta_min       1.00
_cell_measurement_theta_max       27.48
 
_exptl_crystal_description        block
_exptl_crystal_colour             blue
_exptl_crystal_size_max           0.38 
_exptl_crystal_size_mid           0.35 
_exptl_crystal_size_min           0.28 
_exptl_crystal_density_meas       ? 
_exptl_crystal_density_diffrn     1.330 
_exptl_crystal_density_method     'not measured' 
_exptl_crystal_F_000              1976 
_exptl_absorpt_coefficient_mu     0.146 
_exptl_absorpt_correction_type    multi-scan 
_exptl_absorpt_correction_T_min   0.947
_exptl_absorpt_correction_T_max   0.960 
_exptl_absorpt_process_details    'Scalepack (Otwinowski & Minor, 1997)' 
 
_exptl_special_details 
; 
 ? 
; 
 
_diffrn_ambient_temperature       90.0(2) 
_diffrn_radiation_wavelength      0.71073 
_diffrn_radiation_type            MoK\a 
_diffrn_radiation_source          'fine-focus sealed tube'    
_diffrn_radiation_monochromator   'graphite'                 
_diffrn_measurement_device_type   'Nonius KappaCCD diffractometer'  
_diffrn_measurement_method        '\w scans at fixed \c = 55\%'
_diffrn_detector_area_resol_mean  18
_diffrn_standards_number          0 
_diffrn_standards_interval_count  . 
_diffrn_standards_interval_time   . 
_diffrn_standards_decay_%         ? 
_diffrn_reflns_number             41913 
_diffrn_reflns_av_R_equivalents   0.0440 
_diffrn_reflns_av_sigmaI/netI     0.0413 
_diffrn_reflns_limit_h_min        -21 
_diffrn_reflns_limit_h_max        21 
_diffrn_reflns_limit_k_min        -21 
_diffrn_reflns_limit_k_max        21 
_diffrn_reflns_limit_l_min        -22 
_diffrn_reflns_limit_l_max        22 
_diffrn_reflns_theta_min          1.71 
_diffrn_reflns_theta_max          27.46 
_reflns_number_total              10723 
_reflns_number_gt                 9072 
_reflns_threshold_expression      >2\s(I)    
 
_computing_data_collection        'COLLECT (Nonius, 1998)'
_computing_cell_refinement        'SCALEPACK (Otwinowski & Minor, 1997)'
_computing_data_reduction         'DENZO-SMN (Otwinowski & Minor, 1997)'
_computing_structure_solution     'SHELXS-97 (Sheldrick, 2008)' 
_computing_structure_refinement   'SHELXL-97 (Sheldrick, 2008)' 
_computing_molecular_graphics     'XP in SHELXTL (Sheldrick, 2008)'
_computing_publication_material
; 
SHELX97-2 (Sheldrick, 2008) and local procedures 
; 

_publ_section_exptl_refinement
;
H atoms were found in difference Fourier maps and subsequently placed in
idealized positions with constrained distances of 
0.99 \%A (R~2~CH~2~),
1.00 \%A (R~3~CH),
0.95 \%A (C~Ar~H),
and with U~iso~(H) values set to 1.2U~eq~ of the attached atom. 
;

 
_refine_special_details 
; 
 Refinement of F^2^ against ALL reflections.  The weighted R-factor wR and 
 goodness of fit S are based on F^2^, conventional R-factors R are based 
 on F, with F set to zero for negative F^2^. The threshold expression of 
 F^2^ > 2\s(F^2^) is used only for calculating R-factors(gt) etc. and is 
 not relevant to the choice of reflections for refinement.  R-factors based 
 on F^2^ are statistically about twice as large as those based on F, and R- 
 factors based on ALL data will be even larger. 
 
 This crystal structure almost transforms to a higher symmetry (Pnma), but
 not quite.  ADDSYM in Platon suggests the transformation but ADDSYM-EXACT
 does not.  The 'mirror' is far from perfect, and the Pnma model does not
 refine very well. Refinement of the P212121 structure was straightforward
 and posed no problems, but the structure is an inversion twin.
; 
 
_refine_ls_structure_factor_coef  Fsqd  
_refine_ls_matrix_type            full 
_refine_ls_weighting_scheme       calc  
_refine_ls_weighting_details 
 'calc w=1/[\s^2^(Fo^2^)+(0.0475P)^2^+1.8694P] where P=(Fo^2^+2Fc^2^)/3' 
_atom_sites_solution_primary      direct 
_atom_sites_solution_secondary    difmap 
_atom_sites_solution_hydrogens    geom 
_refine_ls_hydrogen_treatment     constr 
_refine_ls_extinction_method      none 
_refine_ls_extinction_coef        ? 
_refine_ls_abs_structure_details 
 'Flack H D (1983), Acta Cryst. A39, 876-881' 
# structure is an inversion twin.
_refine_ls_abs_structure_Flack    0.43(9) 
_refine_ls_number_reflns          10723 
_refine_ls_number_parameters      615 
_refine_ls_number_restraints      150 
_refine_ls_R_factor_all           0.0571 
_refine_ls_R_factor_gt            0.0419 
_refine_ls_wR_factor_ref          0.1022 
_refine_ls_wR_factor_gt           0.0937 
_refine_ls_goodness_of_fit_ref    1.026 
_refine_ls_restrained_S_all       1.027 
_refine_ls_shift/su_max           0.003 
_refine_ls_shift/su_mean          0.000 
 
loop_ 
 _atom_site_label 
 _atom_site_type_symbol 
 _atom_site_fract_x 
 _atom_site_fract_y 
 _atom_site_fract_z 
 _atom_site_U_iso_or_equiv 
 _atom_site_adp_type 
 _atom_site_occupancy 
 _atom_site_symmetry_multiplicity 
 _atom_site_calc_flag 
 _atom_site_refinement_flags 
 _atom_site_disorder_assembly 
 _atom_site_disorder_group 
Si1 Si 0.00353(3) 0.27599(3) 0.25048(4) 0.01874(11) Uani 1 1 d . B . 
Si2 Si 0.44008(3) 0.84011(3) 0.24689(3) 0.01729(11) Uani 1 1 d . E . 
F1 F 0.07082(8) 0.45289(8) -0.02592(7) 0.0294(3) Uani 1 1 d . . . 
F2 F 0.11942(8) 0.51610(8) -0.16362(7) 0.0296(3) Uani 1 1 d . . . 
F3 F 0.22795(8) 0.63779(8) -0.16881(7) 0.0285(3) Uani 1 1 d . . . 
F4 F 0.29062(7) 0.70161(7) -0.03612(7) 0.0267(3) Uani 1 1 d . . . 
F5 F 0.30330(8) 0.71886(8) 0.53378(7) 0.0293(3) Uani 1 1 d . . . 
F6 F 0.24703(8) 0.66365(8) 0.67216(7) 0.0314(3) Uani 1 1 d . . . 
F7 F 0.14204(8) 0.53955(8) 0.67874(6) 0.0283(3) Uani 1 1 d . . . 
F8 F 0.08826(7) 0.46662(8) 0.54723(7) 0.0273(3) Uani 1 1 d . . . 
C1 C 0.14205(11) 0.50982(11) 0.25763(12) 0.0163(4) Uani 1 1 d . . . 
C2 C 0.16545(11) 0.54275(12) 0.18474(11) 0.0160(4) Uani 1 1 d . . . 
C3 C 0.13337(12) 0.51207(12) 0.11475(11) 0.0179(4) Uani 1 1 d . . . 
H3 H 0.0958 0.4684 0.1164 0.022 Uiso 1 1 calc R . . 
C4 C 0.15567(12) 0.54439(12) 0.04378(11) 0.0178(4) Uani 1 1 d . . . 
C5 C 0.12463(12) 0.51482(13) -0.02776(12) 0.0212(4) Uani 1 1 d . . . 
C6 C 0.14806(13) 0.54555(13) -0.09639(11) 0.0220(4) Uani 1 1 d . . . 
C7 C 0.20513(13) 0.60969(13) -0.09922(11) 0.0217(4) Uani 1 1 d . . . 
C8 C 0.23594(12) 0.64068(12) -0.03310(13) 0.0209(4) Uani 1 1 d . . . 
C9 C 0.21357(12) 0.60986(12) 0.04109(11) 0.0184(4) Uani 1 1 d . . . 
C10 C 0.24584(12) 0.64014(12) 0.10936(12) 0.0177(4) Uani 1 1 d . . . 
H10 H 0.2847 0.6826 0.1071 0.021 Uiso 1 1 calc R . . 
C11 C 0.22233(12) 0.60929(12) 0.18204(11) 0.0163(4) Uani 1 1 d . . . 
C12 C 0.25310(10) 0.64217(10) 0.25170(13) 0.0160(3) Uani 1 1 d . . . 
C13 C 0.22551(12) 0.61294(12) 0.32437(11) 0.0164(4) Uani 1 1 d . . . 
C14 C 0.25216(12) 0.64831(13) 0.39408(12) 0.0186(4) Uani 1 1 d . . . 
H14 H 0.2903 0.6915 0.3923 0.022 Uiso 1 1 calc R . . 
C15 C 0.22404(12) 0.62159(12) 0.46492(12) 0.0183(4) Uani 1 1 d . . . 
C16 C 0.24995(12) 0.65723(13) 0.53644(12) 0.0209(4) Uani 1 1 d . . . 
C17 C 0.22210(13) 0.63056(13) 0.60549(12) 0.0229(5) Uani 1 1 d . . . 
C18 C 0.16642(13) 0.56511(14) 0.60859(11) 0.0224(5) Uani 1 1 d . . . 
C19 C 0.14028(12) 0.52937(13) 0.54322(12) 0.0209(4) Uani 1 1 d . . . 
C20 C 0.16704(12) 0.55552(12) 0.46811(11) 0.0185(4) Uani 1 1 d . . . 
C21 C 0.14150(12) 0.51906(12) 0.40020(12) 0.0181(4) Uani 1 1 d . . . 
H21 H 0.1045 0.4750 0.4028 0.022 Uiso 1 1 calc R . . 
C22 C 0.16913(11) 0.54588(12) 0.32718(11) 0.0165(4) Uani 1 1 d . . . 
C23 C 0.09198(11) 0.43883(11) 0.25903(11) 0.0179(4) Uani 1 1 d . . . 
C24 C 0.05395(11) 0.37634(11) 0.25691(12) 0.0200(4) Uani 1 1 d . . . 
C25 C -0.05140(13) 0.26157(13) 0.34475(12) 0.0215(4) Uani 1 1 d . . . 
H25 H -0.0679 0.2035 0.3488 0.026 Uiso 1 1 calc R . . 
C26 C -0.12826(13) 0.31458(13) 0.35426(12) 0.0229(5) Uani 1 1 d . . . 
H26A H -0.1234 0.3651 0.3237 0.028 Uiso 1 1 calc R . . 
H26B H -0.1773 0.2849 0.3370 0.028 Uiso 1 1 calc R . . 
C27 C -0.13289(14) 0.33324(15) 0.44071(13) 0.0291(5) Uani 1 1 d . . . 
H27A H -0.1676 0.3810 0.4510 0.035 Uiso 1 1 calc R . . 
H27B H -0.1538 0.2864 0.4704 0.035 Uiso 1 1 calc R . . 
C28 C -0.04418(14) 0.35032(15) 0.45978(13) 0.0315(5) Uani 1 1 d . . . 
H28A H -0.0344 0.3473 0.5163 0.038 Uiso 1 1 calc R . . 
H28B H -0.0277 0.4045 0.4409 0.038 Uiso 1 1 calc R . . 
C29 C 0.00196(14) 0.28305(15) 0.41688(13) 0.0293(5) Uani 1 1 d . . . 
H29A H 0.0089 0.2351 0.4506 0.035 Uiso 1 1 calc R . . 
H29B H 0.0563 0.3023 0.4005 0.035 Uiso 1 1 calc R . . 
C30 C 0.08411(12) 0.19696(12) 0.23443(13) 0.0265(5) Uani 1 1 d . . . 
H30 H 0.1204 0.2164 0.1918 0.032 Uiso 1 1 calc R A 1 
C31 C 0.13815(16) 0.17334(16) 0.30351(18) 0.0460(7) Uani 0.718(17) 1 d PDU B 1 
H31A H 0.1065 0.1756 0.3522 0.055 Uiso 0.718(17) 1 calc PR B 1 
H31B H 0.1845 0.2113 0.3079 0.055 Uiso 0.718(17) 1 calc PR B 1 
C32 C 0.1695(3) 0.0859(3) 0.2893(4) 0.0358(11) Uani 0.718(17) 1 d PDU B 1 
H32A H 0.1579 0.0509 0.3345 0.043 Uiso 0.718(17) 1 calc PR B 1 
H32B H 0.2288 0.0859 0.2795 0.043 Uiso 0.718(17) 1 calc PR B 1 
C33 C 0.12225(16) 0.05642(15) 0.21661(16) 0.0394(6) Uani 0.718(17) 1 d PDU B 1 
H33A H 0.1568 0.0597 0.1697 0.047 Uiso 0.718(17) 1 calc PR B 1 
H33B H 0.1039 -0.0002 0.2233 0.047 Uiso 0.718(17) 1 calc PR B 1 
C31' C 0.13815(16) 0.17334(16) 0.30351(18) 0.0460(7) Uani 0.282(17) 1 d PDU B 2 
H31C H 0.1061 0.1547 0.3486 0.055 Uiso 0.282(17) 1 calc PR B 2 
H31D H 0.1751 0.2177 0.3193 0.055 Uiso 0.282(17) 1 calc PR B 2 
C32' C 0.1850(7) 0.1014(8) 0.2622(12) 0.043(2) Uani 0.282(17) 1 d PDU B 2 
H32C H 0.2278 0.1228 0.2275 0.051 Uiso 0.282(17) 1 calc PR B 2 
H32D H 0.2105 0.0655 0.3010 0.051 Uiso 0.282(17) 1 calc PR B 2 
C33' C 0.12225(16) 0.05642(15) 0.21661(16) 0.0394(6) Uani 0.282(17) 1 d PDU B 2 
H33C H 0.1065 0.0059 0.2436 0.047 Uiso 0.282(17) 1 calc PR B 2 
H33D H 0.1433 0.0424 0.1646 0.047 Uiso 0.282(17) 1 calc PR B 2 
C34 C 0.04940(14) 0.11389(13) 0.21006(14) 0.0284(5) Uani 1 1 d . B . 
H34A H 0.0049 0.0969 0.2451 0.034 Uiso 1 1 calc R C 1 
H34B H 0.0286 0.1156 0.1563 0.034 Uiso 1 1 calc R C 1 
C35 C -0.06350(13) 0.27754(13) 0.16217(12) 0.0229(4) Uani 1 1 d . . . 
H35 H -0.0907 0.2235 0.1586 0.028 Uiso 1 1 calc R B . 
C36 C -0.01587(15) 0.29069(16) 0.08621(13) 0.0318(5) Uani 1 1 d . B . 
H36A H 0.0219 0.3371 0.0909 0.038 Uiso 1 1 calc R . . 
H36B H 0.0155 0.2417 0.0721 0.038 Uiso 1 1 calc R . . 
C37 C -0.08218(15) 0.30792(16) 0.02631(13) 0.0369(6) Uani 1 1 d . . . 
H37A H -0.1020 0.2568 0.0030 0.044 Uiso 1 1 calc R B . 
H37B H -0.0610 0.3431 -0.0155 0.044 Uiso 1 1 calc R . . 
C38 C -0.15122(17) 0.35085(16) 0.07061(13) 0.0356(6) Uani 1 1 d . B . 
H38A H -0.1542 0.4086 0.0557 0.043 Uiso 1 1 calc R . . 
H38B H -0.2042 0.3250 0.0592 0.043 Uiso 1 1 calc R . . 
C39 C -0.13022(14) 0.34244(16) 0.15730(13) 0.0310(5) Uani 1 1 d . B . 
H39A H -0.1103 0.3946 0.1783 0.037 Uiso 1 1 calc R . . 
H39B H -0.1787 0.3256 0.1872 0.037 Uiso 1 1 calc R . . 
C40 C 0.31143(11) 0.70649(11) 0.24946(12) 0.0178(4) Uani 1 1 d . . . 
C41 C 0.36081(11) 0.76041(11) 0.24831(13) 0.0195(4) Uani 1 1 d . . . 
C42 C 0.53981(12) 0.78560(12) 0.23627(12) 0.0231(4) Uani 1 1 d . . . 
H42 H 0.5839 0.8272 0.2374 0.028 Uiso 1 1 calc R D 1 
C43 C 0.55800(17) 0.72334(16) 0.30111(15) 0.0404(6) Uani 0.546(9) 1 d PDU E 1 
H43A H 0.5089 0.7131 0.3328 0.048 Uiso 0.546(9) 1 calc PR E 1 
H43B H 0.6021 0.7429 0.3353 0.048 Uiso 0.546(9) 1 calc PR E 1 
C44 C 0.5848(5) 0.6443(4) 0.2567(4) 0.0548(15) Uani 0.546(9) 1 d PDU E 1 
H44A H 0.6294 0.6166 0.2847 0.066 Uiso 0.546(9) 1 calc PR E 1 
H44B H 0.5386 0.6064 0.2515 0.066 Uiso 0.546(9) 1 calc PR E 1 
C45 C 0.6123(2) 0.6714(2) 0.18060(19) 0.0611(8) Uani 0.546(9) 1 d PDU E 1 
H45A H 0.6111 0.6267 0.1424 0.073 Uiso 0.546(9) 1 calc PR E 1 
H45B H 0.6679 0.6942 0.1830 0.073 Uiso 0.546(9) 1 calc PR E 1 
C43' C 0.55800(17) 0.72334(16) 0.30111(15) 0.0404(6) Uani 0.454(9) 1 d PDU E 2 
H43C H 0.5738 0.7509 0.3498 0.048 Uiso 0.454(9) 1 calc PR E 2 
H43D H 0.5102 0.6886 0.3112 0.048 Uiso 0.454(9) 1 calc PR E 2 
C44' C 0.6288(5) 0.6737(5) 0.2683(4) 0.0482(17) Uani 0.454(9) 1 d PDU E 2 
H44C H 0.6293 0.6184 0.2904 0.058 Uiso 0.454(9) 1 calc PR E 2 
H44D H 0.6815 0.7002 0.2794 0.058 Uiso 0.454(9) 1 calc PR E 2 
C45' C 0.6123(2) 0.6714(2) 0.18060(19) 0.0611(8) Uani 0.454(9) 1 d PDU E 2 
H45C H 0.6633 0.6816 0.1517 0.073 Uiso 0.454(9) 1 calc PR E 2 
H45D H 0.5914 0.6174 0.1656 0.073 Uiso 0.454(9) 1 calc PR E 2 
C46 C 0.55026(14) 0.73583(14) 0.16137(14) 0.0320(5) Uani 1 1 d . E . 
H46A H 0.4980 0.7109 0.1458 0.038 Uiso 1 1 calc R F 1 
H46B H 0.5699 0.7706 0.1186 0.038 Uiso 1 1 calc R F 1 
C47 C 0.43457(13) 0.89656(13) 0.34123(12) 0.0221(4) Uani 1 1 d . . . 
H47 H 0.4781 0.9388 0.3401 0.026 Uiso 1 1 calc R E . 
C48 C 0.35399(16) 0.94012(16) 0.35737(14) 0.0363(6) Uani 1 1 d . E . 
H48A H 0.3072 0.9035 0.3488 0.044 Uiso 1 1 calc R . . 
H48B H 0.3479 0.9884 0.3239 0.044 Uiso 1 1 calc R . . 
C49 C 0.36052(18) 0.9645(2) 0.44314(15) 0.0491(7) Uani 1 1 d . . . 
H49A H 0.3863 1.0184 0.4482 0.059 Uiso 1 1 calc R E . 
H49B H 0.3060 0.9665 0.4673 0.059 Uiso 1 1 calc R . . 
C50 C 0.41249(19) 0.90006(16) 0.48159(14) 0.0436(7) Uani 1 1 d . E . 
H50A H 0.3793 0.8669 0.5174 0.052 Uiso 1 1 calc R . . 
H50B H 0.4573 0.9254 0.5113 0.052 Uiso 1 1 calc R . . 
C51 C 0.44678(17) 0.84708(15) 0.41559(12) 0.0340(6) Uani 1 1 d . E . 
H51A H 0.5052 0.8357 0.4241 0.041 Uiso 1 1 calc R . . 
H51B H 0.4171 0.7950 0.4125 0.041 Uiso 1 1 calc R . . 
C52 C 0.41679(13) 0.90882(13) 0.16288(12) 0.0224(4) Uani 1 1 d . . . 
H52 H 0.4550 0.9558 0.1661 0.027 Uiso 1 1 calc R E . 
C53 C 0.42538(16) 0.87231(16) 0.08136(13) 0.0349(6) Uani 1 1 d . E . 
H53A H 0.4051 0.8159 0.0805 0.042 Uiso 1 1 calc R . . 
H53B H 0.4829 0.8726 0.0647 0.042 Uiso 1 1 calc R . . 
C54 C 0.37308(18) 0.92713(18) 0.02757(15) 0.0474(7) Uani 1 1 d . . . 
H54A H 0.4083 0.9588 -0.0077 0.057 Uiso 1 1 calc R E . 
H54B H 0.3356 0.8939 -0.0040 0.057 Uiso 1 1 calc R . . 
C55 C 0.32549(17) 0.98321(16) 0.08082(14) 0.0396(6) Uani 1 1 d . E . 
H55A H 0.2684 0.9880 0.0634 0.047 Uiso 1 1 calc R . . 
H55B H 0.3503 1.0378 0.0819 0.047 Uiso 1 1 calc R . . 
C56 C 0.32997(14) 0.94353(15) 0.16059(14) 0.0323(5) Uani 1 1 d . E . 
H56A H 0.2889 0.9001 0.1658 0.039 Uiso 1 1 calc R . . 
H56B H 0.3216 0.9838 0.2023 0.039 Uiso 1 1 calc R . . 
 
loop_ 
 _atom_site_aniso_label 
 _atom_site_aniso_U_11 
 _atom_site_aniso_U_22 
 _atom_site_aniso_U_33 
 _atom_site_aniso_U_23 
 _atom_site_aniso_U_13 
 _atom_site_aniso_U_12 
Si1 0.0178(2) 0.0164(2) 0.0220(2) 0.0002(3) 0.0017(3) -0.0029(2) 
Si2 0.0179(2) 0.0164(2) 0.0175(2) 0.0004(2) 0.0009(2) -0.0018(2) 
F1 0.0340(7) 0.0321(7) 0.0221(6) -0.0017(5) -0.0034(5) -0.0112(6) 
F2 0.0321(7) 0.0404(8) 0.0162(6) -0.0020(5) -0.0038(5) 0.0025(6) 
F3 0.0309(7) 0.0401(8) 0.0144(6) 0.0067(5) 0.0049(5) 0.0038(6) 
F4 0.0288(7) 0.0299(7) 0.0215(6) 0.0037(5) 0.0051(5) -0.0067(6) 
F5 0.0335(7) 0.0312(7) 0.0232(6) -0.0024(6) -0.0039(6) -0.0087(6) 
F6 0.0372(7) 0.0421(8) 0.0149(6) -0.0056(6) -0.0041(5) -0.0011(6) 
F7 0.0303(6) 0.0405(8) 0.0142(6) 0.0032(5) 0.0043(5) 0.0028(6) 
F8 0.0277(6) 0.0322(7) 0.0219(6) 0.0045(6) 0.0034(5) -0.0070(6) 
C1 0.0147(8) 0.0159(8) 0.0183(9) 0.0009(8) 0.0012(8) 0.0012(7) 
C2 0.0158(9) 0.0144(9) 0.0177(9) -0.0012(8) 0.0016(7) 0.0027(8) 
C3 0.0176(10) 0.0175(10) 0.0187(10) 0.0006(8) -0.0012(8) 0.0001(8) 
C4 0.0188(9) 0.0185(10) 0.0160(9) 0.0010(8) 0.0008(8) 0.0018(8) 
C5 0.0206(10) 0.0219(10) 0.0210(10) -0.0013(8) -0.0004(8) -0.0006(8) 
C6 0.0231(10) 0.0282(11) 0.0147(9) -0.0016(9) -0.0033(8) 0.0056(9) 
C7 0.0240(11) 0.0268(11) 0.0143(9) 0.0045(8) 0.0037(8) 0.0068(10) 
C8 0.0199(10) 0.0205(10) 0.0222(11) 0.0029(8) 0.0016(9) 0.0031(9) 
C9 0.0211(10) 0.0177(9) 0.0163(10) 0.0018(8) 0.0022(8) 0.0036(8) 
C10 0.0187(10) 0.0162(9) 0.0184(10) 0.0005(8) 0.0019(8) 0.0015(8) 
C11 0.0158(9) 0.0147(9) 0.0184(10) 0.0003(7) 0.0022(8) 0.0026(8) 
C12 0.0150(8) 0.0151(8) 0.0178(8) 0.0004(9) 0.0007(9) 0.0010(6) 
C13 0.0161(9) 0.0148(9) 0.0182(10) 0.0010(8) 0.0018(8) 0.0022(8) 
C14 0.0180(10) 0.0184(9) 0.0194(10) -0.0017(8) -0.0028(8) -0.0010(8) 
C15 0.0183(9) 0.0189(9) 0.0176(10) -0.0013(8) 0.0005(8) 0.0025(8) 
C16 0.0225(10) 0.0216(10) 0.0186(10) -0.0010(9) -0.0038(8) 0.0016(9) 
C17 0.0240(11) 0.0272(11) 0.0174(10) -0.0035(9) -0.0051(9) 0.0045(9) 
C18 0.0232(10) 0.0320(12) 0.0121(9) 0.0033(8) 0.0023(8) 0.0054(10) 
C19 0.0190(9) 0.0226(10) 0.0210(10) 0.0031(9) 0.0034(8) -0.0006(9) 
C20 0.0181(9) 0.0209(10) 0.0164(9) 0.0015(8) 0.0007(8) 0.0054(8) 
C21 0.0165(9) 0.0175(10) 0.0204(10) 0.0020(8) 0.0023(8) -0.0006(8) 
C22 0.0156(9) 0.0156(9) 0.0183(9) -0.0004(8) 0.0001(8) 0.0020(8) 
C23 0.0192(9) 0.0195(9) 0.0150(9) -0.0007(8) 0.0023(8) 0.0022(7) 
C24 0.0190(9) 0.0218(9) 0.0191(9) 0.0002(9) 0.0014(9) 0.0005(8) 
C25 0.0212(10) 0.0191(10) 0.0241(10) 0.0034(8) 0.0011(9) -0.0017(9) 
C26 0.0220(10) 0.0227(10) 0.0242(11) -0.0022(9) 0.0009(9) -0.0033(9) 
C27 0.0316(12) 0.0310(12) 0.0248(11) -0.0046(10) 0.0079(10) -0.0071(10) 
C28 0.0346(12) 0.0369(13) 0.0230(11) -0.0048(10) -0.0018(10) -0.0083(11) 
C29 0.0291(12) 0.0361(13) 0.0227(11) 0.0069(10) -0.0016(9) -0.0016(11) 
C30 0.0201(10) 0.0182(9) 0.0412(14) -0.0042(9) 0.0068(9) -0.0014(8) 
C31 0.0323(13) 0.0352(13) 0.0705(18) -0.0170(13) -0.0165(13) 0.0098(11) 
C32 0.028(2) 0.0291(19) 0.051(2) -0.0021(18) 0.0010(18) 0.0060(15) 
C33 0.0432(14) 0.0240(11) 0.0511(14) -0.0035(11) 0.0022(11) 0.0064(11) 
C31' 0.0323(13) 0.0352(13) 0.0705(18) -0.0170(13) -0.0165(13) 0.0098(11) 
C32' 0.031(4) 0.030(4) 0.066(4) 0.000(4) -0.010(4) 0.007(3) 
C33' 0.0432(14) 0.0240(11) 0.0511(14) -0.0035(11) 0.0022(11) 0.0064(11) 
C34 0.0301(12) 0.0213(10) 0.0339(12) -0.0037(10) -0.0003(10) -0.0019(10) 
C35 0.0234(10) 0.0224(10) 0.0230(10) -0.0009(9) 0.0015(9) -0.0068(9) 
C36 0.0372(13) 0.0370(13) 0.0211(11) -0.0048(10) 0.0051(10) -0.0081(11) 
C37 0.0418(14) 0.0463(14) 0.0224(11) -0.0010(11) 0.0028(10) -0.0146(12) 
C38 0.0470(15) 0.0363(14) 0.0237(12) 0.0044(10) -0.0065(11) -0.0025(12) 
C39 0.0285(12) 0.0428(14) 0.0218(11) 0.0016(10) 0.0004(9) 0.0065(11) 
C40 0.0195(9) 0.0193(9) 0.0147(8) -0.0008(9) 0.0002(9) 0.0010(7) 
C41 0.0227(9) 0.0195(9) 0.0164(8) -0.0003(9) 0.0009(9) 0.0004(7) 
C42 0.0199(9) 0.0219(10) 0.0276(12) -0.0020(9) 0.0014(8) -0.0011(8) 
C43 0.0430(14) 0.0420(13) 0.0362(13) 0.0082(11) 0.0028(11) 0.0198(12) 
C44 0.061(3) 0.039(3) 0.064(3) 0.013(2) 0.011(3) 0.026(2) 
C45 0.0663(19) 0.0571(18) 0.0600(18) -0.0123(15) -0.0059(15) 0.0311(16) 
C43' 0.0430(14) 0.0420(13) 0.0362(13) 0.0082(11) 0.0028(11) 0.0198(12) 
C44' 0.050(3) 0.045(3) 0.050(3) -0.001(3) -0.007(3) 0.030(3) 
C45' 0.0663(19) 0.0571(18) 0.0600(18) -0.0123(15) -0.0059(15) 0.0311(16) 
C46 0.0287(12) 0.0321(12) 0.0353(13) -0.0063(10) 0.0013(10) 0.0073(10) 
C47 0.0222(10) 0.0214(10) 0.0226(10) -0.0012(8) 0.0026(9) -0.0040(9) 
C48 0.0342(13) 0.0410(14) 0.0337(13) -0.0136(11) -0.0002(11) 0.0055(12) 
C49 0.0469(16) 0.0630(19) 0.0373(14) -0.0223(14) 0.0069(13) 0.0048(15) 
C50 0.0662(18) 0.0400(14) 0.0245(12) -0.0058(11) 0.0069(12) -0.0126(14) 
C51 0.0491(15) 0.0350(13) 0.0180(10) -0.0018(10) -0.0033(10) -0.0027(12) 
C52 0.0247(11) 0.0224(10) 0.0201(10) 0.0029(9) -0.0004(9) -0.0060(9) 
C53 0.0441(15) 0.0376(13) 0.0231(12) 0.0005(10) -0.0002(10) 0.0011(12) 
C54 0.0579(18) 0.0579(18) 0.0266(13) 0.0104(13) -0.0086(13) 0.0065(15) 
C55 0.0447(15) 0.0387(14) 0.0353(13) 0.0103(11) -0.0111(12) 0.0017(12) 
C56 0.0308(12) 0.0339(13) 0.0322(12) 0.0077(10) -0.0071(10) 0.0037(10) 
 
_geom_special_details 
; 
 All esds (except the esd in the dihedral angle between two l.s. planes) 
 are estimated using the full covariance matrix.  The cell esds are taken 
 into account individually in the estimation of esds in distances, angles 
 and torsion angles; correlations between esds in cell parameters are only 
 used when they are defined by crystal symmetry.  An approximate (isotropic) 
 treatment of cell esds is used for estimating esds involving l.s. planes. 
; 
 
loop_ 
 _geom_bond_atom_site_label_1 
 _geom_bond_atom_site_label_2 
 _geom_bond_distance 
 _geom_bond_site_symmetry_2 
 _geom_bond_publ_flag 
Si1 C24 1.8568(19) . ? 
Si1 C25 1.876(2) . ? 
Si1 C30 1.881(2) . ? 
Si1 C35 1.882(2) . ? 
Si2 C41 1.8532(19) . ? 
Si2 C47 1.879(2) . ? 
Si2 C42 1.881(2) . ? 
Si2 C52 1.881(2) . ? 
F1 C5 1.353(2) . ? 
F2 C6 1.343(2) . ? 
F3 C7 1.341(2) . ? 
F4 C8 1.351(2) . ? 
F5 C16 1.345(2) . ? 
F6 C17 1.338(2) . ? 
F7 C18 1.343(2) . ? 
F8 C19 1.346(2) . ? 
C1 C22 1.412(3) . ? 
C1 C2 1.424(3) . ? 
C1 C23 1.433(3) . ? 
C2 C3 1.412(3) . ? 
C2 C11 1.444(3) . ? 
C3 C4 1.386(3) . ? 
C3 H3 0.9500 . ? 
C4 C5 1.423(3) . ? 
C4 C9 1.442(3) . ? 
C5 C6 1.345(3) . ? 
C6 C7 1.417(3) . ? 
C7 C8 1.350(3) . ? 
C8 C9 1.426(3) . ? 
C9 C10 1.386(3) . ? 
C10 C11 1.408(3) . ? 
C10 H10 0.9500 . ? 
C11 C12 1.413(3) . ? 
C12 C13 1.419(3) . ? 
C12 C40 1.432(2) . ? 
C13 C14 1.407(3) . ? 
C13 C22 1.445(3) . ? 
C14 C15 1.380(3) . ? 
C14 H14 0.9500 . ? 
C15 C16 1.432(3) . ? 
C15 C20 1.440(3) . ? 
C16 C17 1.351(3) . ? 
C17 C18 1.418(3) . ? 
C18 C19 1.344(3) . ? 
C19 C20 1.436(3) . ? 
C20 C21 1.383(3) . ? 
C21 C22 1.411(3) . ? 
C21 H21 0.9500 . ? 
C23 C24 1.207(3) . ? 
C25 C26 1.547(3) . ? 
C25 C29 1.564(3) . ? 
C25 H25 1.0000 . ? 
C26 C27 1.525(3) . ? 
C26 H26A 0.9900 . ? 
C26 H26B 0.9900 . ? 
C27 C28 1.523(3) . ? 
C27 H27A 0.9900 . ? 
C27 H27B 0.9900 . ? 
C28 C29 1.536(3) . ? 
C28 H28A 0.9900 . ? 
C28 H28B 0.9900 . ? 
C29 H29A 0.9900 . ? 
C29 H29B 0.9900 . ? 
C30 C31 1.538(3) . ? 
C30 C34 1.544(3) . ? 
C30 H30 1.0000 . ? 
C31 C32 1.553(5) . ? 
C31 H31A 0.9900 . ? 
C31 H31B 0.9900 . ? 
C32 C33 1.555(5) . ? 
C32 H32A 0.9900 . ? 
C32 H32B 0.9900 . ? 
C33 C34 1.533(3) . ? 
C33 H33A 0.9900 . ? 
C33 H33B 0.9900 . ? 
C32' H32C 0.9900 . ? 
C32' H32D 0.9900 . ? 
C34 H34A 0.9900 . ? 
C34 H34B 0.9900 . ? 
C35 C39 1.537(3) . ? 
C35 C36 1.543(3) . ? 
C35 H35 1.0000 . ? 
C36 C37 1.530(3) . ? 
C36 H36A 0.9900 . ? 
C36 H36B 0.9900 . ? 
C37 C38 1.542(4) . ? 
C37 H37A 0.9900 . ? 
C37 H37B 0.9900 . ? 
C38 C39 1.542(3) . ? 
C38 H38A 0.9900 . ? 
C38 H38B 0.9900 . ? 
C39 H39A 0.9900 . ? 
C39 H39B 0.9900 . ? 
C40 C41 1.206(2) . ? 
C42 C46 1.542(3) . ? 
C42 C43 1.549(3) . ? 
C42 H42 1.0000 . ? 
C43 C44 1.577(6) . ? 
C43 H43A 0.9900 . ? 
C43 H43B 0.9900 . ? 
C44 C45 1.459(7) . ? 
C44 H44A 0.9900 . ? 
C44 H44B 0.9900 . ? 
C45 C46 1.512(4) . ? 
C45 H45A 0.9900 . ? 
C45 H45B 0.9900 . ? 
C44' H44C 0.9900 . ? 
C44' H44D 0.9900 . ? 
C46 H46A 0.9900 . ? 
C46 H46B 0.9900 . ? 
C47 C48 1.534(3) . ? 
C47 C51 1.535(3) . ? 
C47 H47 1.0000 . ? 
C48 C49 1.538(3) . ? 
C48 H48A 0.9900 . ? 
C48 H48B 0.9900 . ? 
C49 C50 1.518(4) . ? 
C49 H49A 0.9900 . ? 
C49 H49B 0.9900 . ? 
C50 C51 1.543(3) . ? 
C50 H50A 0.9900 . ? 
C50 H50B 0.9900 . ? 
C51 H51A 0.9900 . ? 
C51 H51B 0.9900 . ? 
C52 C53 1.537(3) . ? 
C52 C56 1.540(3) . ? 
C52 H52 1.0000 . ? 
C53 C54 1.556(4) . ? 
C53 H53A 0.9900 . ? 
C53 H53B 0.9900 . ? 
C54 C55 1.522(4) . ? 
C54 H54A 0.9900 . ? 
C54 H54B 0.9900 . ? 
C55 C56 1.526(3) . ? 
C55 H55A 0.9900 . ? 
C55 H55B 0.9900 . ? 
C56 H56A 0.9900 . ? 
C56 H56B 0.9900 . ? 
 
loop_ 
 _geom_angle_atom_site_label_1 
 _geom_angle_atom_site_label_2 
 _geom_angle_atom_site_label_3 
 _geom_angle 
 _geom_angle_site_symmetry_1 
 _geom_angle_site_symmetry_3 
 _geom_angle_publ_flag 
C24 Si1 C25 106.06(10) . . ? 
C24 Si1 C30 108.26(9) . . ? 
C25 Si1 C30 112.28(10) . . ? 
C24 Si1 C35 107.35(9) . . ? 
C25 Si1 C35 114.95(9) . . ? 
C30 Si1 C35 107.65(10) . . ? 
C41 Si2 C47 107.88(9) . . ? 
C41 Si2 C42 105.99(9) . . ? 
C47 Si2 C42 111.35(9) . . ? 
C41 Si2 C52 107.18(9) . . ? 
C47 Si2 C52 111.03(9) . . ? 
C42 Si2 C52 113.05(9) . . ? 
C22 C1 C2 120.31(16) . . ? 
C22 C1 C23 120.81(18) . . ? 
C2 C1 C23 118.88(18) . . ? 
C3 C2 C1 121.18(18) . . ? 
C3 C2 C11 119.18(17) . . ? 
C1 C2 C11 119.64(17) . . ? 
C4 C3 C2 121.26(18) . . ? 
C4 C3 H3 119.4 . . ? 
C2 C3 H3 119.4 . . ? 
C3 C4 C5 122.67(18) . . ? 
C3 C4 C9 119.50(18) . . ? 
C5 C4 C9 117.83(17) . . ? 
C6 C5 F1 119.56(18) . . ? 
C6 C5 C4 122.13(19) . . ? 
F1 C5 C4 118.30(18) . . ? 
F2 C6 C5 121.6(2) . . ? 
F2 C6 C7 118.26(18) . . ? 
C5 C6 C7 120.17(19) . . ? 
F3 C7 C8 121.4(2) . . ? 
F3 C7 C6 118.37(18) . . ? 
C8 C7 C6 120.23(18) . . ? 
C7 C8 F4 120.00(19) . . ? 
C7 C8 C9 121.80(19) . . ? 
F4 C8 C9 118.19(18) . . ? 
C10 C9 C8 122.39(19) . . ? 
C10 C9 C4 119.77(18) . . ? 
C8 C9 C4 117.85(18) . . ? 
C9 C10 C11 121.44(19) . . ? 
C9 C10 H10 119.3 . . ? 
C11 C10 H10 119.3 . . ? 
C10 C11 C12 121.36(18) . . ? 
C10 C11 C2 118.83(18) . . ? 
C12 C11 C2 119.82(17) . . ? 
C11 C12 C13 120.45(15) . . ? 
C11 C12 C40 120.14(19) . . ? 
C13 C12 C40 119.39(19) . . ? 
C14 C13 C12 120.99(18) . . ? 
C14 C13 C22 119.29(18) . . ? 
C12 C13 C22 119.72(18) . . ? 
C15 C14 C13 121.35(19) . . ? 
C15 C14 H14 119.3 . . ? 
C13 C14 H14 119.3 . . ? 
C14 C15 C16 122.17(19) . . ? 
C14 C15 C20 119.65(18) . . ? 
C16 C15 C20 118.18(18) . . ? 
F5 C16 C17 119.89(18) . . ? 
F5 C16 C15 118.42(18) . . ? 
C17 C16 C15 121.69(19) . . ? 
F6 C17 C16 121.4(2) . . ? 
F6 C17 C18 118.49(18) . . ? 
C16 C17 C18 120.08(19) . . ? 
F7 C18 C19 121.5(2) . . ? 
F7 C18 C17 117.80(18) . . ? 
C19 C18 C17 120.66(19) . . ? 
C18 C19 F8 119.91(18) . . ? 
C18 C19 C20 121.85(19) . . ? 
F8 C19 C20 118.24(18) . . ? 
C21 C20 C19 122.75(19) . . ? 
C21 C20 C15 119.70(18) . . ? 
C19 C20 C15 117.54(18) . . ? 
C20 C21 C22 121.48(19) . . ? 
C20 C21 H21 119.3 . . ? 
C22 C21 H21 119.3 . . ? 
C21 C22 C1 121.67(18) . . ? 
C21 C22 C13 118.51(18) . . ? 
C1 C22 C13 119.81(17) . . ? 
C24 C23 C1 175.3(2) . . ? 
C23 C24 Si1 175.06(17) . . ? 
C26 C25 C29 104.25(17) . . ? 
C26 C25 Si1 114.46(14) . . ? 
C29 C25 Si1 113.01(14) . . ? 
C26 C25 H25 108.3 . . ? 
C29 C25 H25 108.3 . . ? 
Si1 C25 H25 108.3 . . ? 
C27 C26 C25 105.02(17) . . ? 
C27 C26 H26A 110.7 . . ? 
C25 C26 H26A 110.7 . . ? 
C27 C26 H26B 110.7 . . ? 
C25 C26 H26B 110.7 . . ? 
H26A C26 H26B 108.8 . . ? 
C28 C27 C26 101.59(17) . . ? 
C28 C27 H27A 111.5 . . ? 
C26 C27 H27A 111.5 . . ? 
C28 C27 H27B 111.5 . . ? 
C26 C27 H27B 111.5 . . ? 
H27A C27 H27B 109.3 . . ? 
C27 C28 C29 103.63(18) . . ? 
C27 C28 H28A 111.0 . . ? 
C29 C28 H28A 111.0 . . ? 
C27 C28 H28B 111.0 . . ? 
C29 C28 H28B 111.0 . . ? 
H28A C28 H28B 109.0 . . ? 
C28 C29 C25 105.68(18) . . ? 
C28 C29 H29A 110.6 . . ? 
C25 C29 H29A 110.6 . . ? 
C28 C29 H29B 110.6 . . ? 
C25 C29 H29B 110.6 . . ? 
H29A C29 H29B 108.7 . . ? 
C31 C30 C34 101.51(18) . . ? 
C31 C30 Si1 118.00(16) . . ? 
C34 C30 Si1 113.32(14) . . ? 
C31 C30 H30 107.8 . . ? 
C34 C30 H30 107.8 . . ? 
Si1 C30 H30 107.8 . . ? 
C30 C31 C32 107.8(3) . . ? 
C30 C31 H31A 110.1 . . ? 
C32 C31 H31A 110.1 . . ? 
C30 C31 H31B 110.1 . . ? 
C32 C31 H31B 110.1 . . ? 
H31A C31 H31B 108.5 . . ? 
C31 C32 C33 104.6(3) . . ? 
C31 C32 H32A 110.8 . . ? 
C33 C32 H32A 110.8 . . ? 
C31 C32 H32B 110.8 . . ? 
C33 C32 H32B 110.8 . . ? 
H32A C32 H32B 108.9 . . ? 
C34 C33 C32 104.9(2) . . ? 
C34 C33 H33A 110.8 . . ? 
C32 C33 H33A 110.8 . . ? 
C34 C33 H33B 110.8 . . ? 
C32 C33 H33B 110.8 . . ? 
H33A C33 H33B 108.9 . . ? 
H32C C32' H32D 108.7 . . ? 
C33 C34 C30 103.94(18) . . ? 
C33 C34 H34A 111.0 . . ? 
C30 C34 H34A 111.0 . . ? 
C33 C34 H34B 111.0 . . ? 
C30 C34 H34B 111.0 . . ? 
H34A C34 H34B 109.0 . . ? 
C39 C35 C36 102.61(18) . . ? 
C39 C35 Si1 118.20(15) . . ? 
C36 C35 Si1 113.12(15) . . ? 
C39 C35 H35 107.5 . . ? 
C36 C35 H35 107.5 . . ? 
Si1 C35 H35 107.5 . . ? 
C37 C36 C35 103.78(18) . . ? 
C37 C36 H36A 111.0 . . ? 
C35 C36 H36A 111.0 . . ? 
C37 C36 H36B 111.0 . . ? 
C35 C36 H36B 111.0 . . ? 
H36A C36 H36B 109.0 . . ? 
C36 C37 C38 106.01(19) . . ? 
C36 C37 H37A 110.5 . . ? 
C38 C37 H37A 110.5 . . ? 
C36 C37 H37B 110.5 . . ? 
C38 C37 H37B 110.5 . . ? 
H37A C37 H37B 108.7 . . ? 
C39 C38 C37 105.9(2) . . ? 
C39 C38 H38A 110.5 . . ? 
C37 C38 H38A 110.5 . . ? 
C39 C38 H38B 110.5 . . ? 
C37 C38 H38B 110.5 . . ? 
H38A C38 H38B 108.7 . . ? 
C35 C39 C38 106.02(19) . . ? 
C35 C39 H39A 110.5 . . ? 
C38 C39 H39A 110.5 . . ? 
C35 C39 H39B 110.5 . . ? 
C38 C39 H39B 110.5 . . ? 
H39A C39 H39B 108.7 . . ? 
C41 C40 C12 179.3(2) . . ? 
C40 C41 Si2 177.63(17) . . ? 
C46 C42 C43 103.31(18) . . ? 
C46 C42 Si2 115.74(15) . . ? 
C43 C42 Si2 114.58(15) . . ? 
C46 C42 H42 107.6 . . ? 
C43 C42 H42 107.6 . . ? 
Si2 C42 H42 107.6 . . ? 
C42 C43 C44 104.6(3) . . ? 
C42 C43 H43A 110.8 . . ? 
C44 C43 H43A 110.8 . . ? 
C42 C43 H43B 110.8 . . ? 
C44 C43 H43B 110.8 . . ? 
H43A C43 H43B 108.9 . . ? 
C45 C44 C43 105.7(4) . . ? 
C45 C44 H44A 110.6 . . ? 
C43 C44 H44A 110.6 . . ? 
C45 C44 H44B 110.6 . . ? 
C43 C44 H44B 110.6 . . ? 
H44A C44 H44B 108.7 . . ? 
C44 C45 C46 101.8(3) . . ? 
C44 C45 H45A 111.4 . . ? 
C46 C45 H45A 111.4 . . ? 
C44 C45 H45B 111.4 . . ? 
C46 C45 H45B 111.4 . . ? 
H45A C45 H45B 109.3 . . ? 
H44C C44' H44D 109.0 . . ? 
C45 C46 C42 105.5(2) . . ? 
C45 C46 H46A 110.6 . . ? 
C42 C46 H46A 110.6 . . ? 
C45 C46 H46B 110.6 . . ? 
C42 C46 H46B 110.6 . . ? 
H46A C46 H46B 108.8 . . ? 
C48 C47 C51 102.18(19) . . ? 
C48 C47 Si2 115.59(15) . . ? 
C51 C47 Si2 117.02(15) . . ? 
C48 C47 H47 107.1 . . ? 
C51 C47 H47 107.1 . . ? 
Si2 C47 H47 107.1 . . ? 
C47 C48 C49 103.7(2) . . ? 
C47 C48 H48A 111.0 . . ? 
C49 C48 H48A 111.0 . . ? 
C47 C48 H48B 111.0 . . ? 
C49 C48 H48B 111.0 . . ? 
H48A C48 H48B 109.0 . . ? 
C50 C49 C48 106.1(2) . . ? 
C50 C49 H49A 110.5 . . ? 
C48 C49 H49A 110.5 . . ? 
C50 C49 H49B 110.5 . . ? 
C48 C49 H49B 110.5 . . ? 
H49A C49 H49B 108.7 . . ? 
C49 C50 C51 106.3(2) . . ? 
C49 C50 H50A 110.5 . . ? 
C51 C50 H50A 110.5 . . ? 
C49 C50 H50B 110.5 . . ? 
C51 C50 H50B 110.5 . . ? 
H50A C50 H50B 108.7 . . ? 
C47 C51 C50 105.5(2) . . ? 
C47 C51 H51A 110.6 . . ? 
C50 C51 H51A 110.6 . . ? 
C47 C51 H51B 110.6 . . ? 
C50 C51 H51B 110.6 . . ? 
H51A C51 H51B 108.8 . . ? 
C53 C52 C56 102.00(18) . . ? 
C53 C52 Si2 116.75(16) . . ? 
C56 C52 Si2 115.69(15) . . ? 
C53 C52 H52 107.3 . . ? 
C56 C52 H52 107.3 . . ? 
Si2 C52 H52 107.3 . . ? 
C52 C53 C54 105.5(2) . . ? 
C52 C53 H53A 110.6 . . ? 
C54 C53 H53A 110.6 . . ? 
C52 C53 H53B 110.6 . . ? 
C54 C53 H53B 110.6 . . ? 
H53A C53 H53B 108.8 . . ? 
C55 C54 C53 106.2(2) . . ? 
C55 C54 H54A 110.5 . . ? 
C53 C54 H54A 110.5 . . ? 
C55 C54 H54B 110.5 . . ? 
C53 C54 H54B 110.5 . . ? 
H54A C54 H54B 108.7 . . ? 
C54 C55 C56 105.0(2) . . ? 
C54 C55 H55A 110.7 . . ? 
C56 C55 H55A 110.7 . . ? 
C54 C55 H55B 110.7 . . ? 
C56 C55 H55B 110.7 . . ? 
H55A C55 H55B 108.8 . . ? 
C55 C56 C52 103.2(2) . . ? 
C55 C56 H56A 111.1 . . ? 
C52 C56 H56A 111.1 . . ? 
C55 C56 H56B 111.1 . . ? 
C52 C56 H56B 111.1 . . ? 
H56A C56 H56B 109.1 . . ? 
 
loop_ 
 _geom_torsion_atom_site_label_1 
 _geom_torsion_atom_site_label_2 
 _geom_torsion_atom_site_label_3 
 _geom_torsion_atom_site_label_4 
 _geom_torsion 
 _geom_torsion_site_symmetry_1 
 _geom_torsion_site_symmetry_2 
 _geom_torsion_site_symmetry_3 
 _geom_torsion_site_symmetry_4 
 _geom_torsion_publ_flag 
C22 C1 C2 C3 -174.37(19) . . . . ? 
C23 C1 C2 C3 6.8(3) . . . . ? 
C22 C1 C2 C11 5.0(3) . . . . ? 
C23 C1 C2 C11 -173.87(17) . . . . ? 
C1 C2 C3 C4 179.57(18) . . . . ? 
C11 C2 C3 C4 0.2(3) . . . . ? 
C2 C3 C4 C5 179.88(19) . . . . ? 
C2 C3 C4 C9 0.9(3) . . . . ? 
C3 C4 C5 C6 -178.5(2) . . . . ? 
C9 C4 C5 C6 0.5(3) . . . . ? 
C3 C4 C5 F1 0.4(3) . . . . ? 
C9 C4 C5 F1 179.41(17) . . . . ? 
F1 C5 C6 F2 -0.2(3) . . . . ? 
C4 C5 C6 F2 178.76(19) . . . . ? 
F1 C5 C6 C7 -179.20(18) . . . . ? 
C4 C5 C6 C7 -0.3(3) . . . . ? 
F2 C6 C7 F3 -0.1(3) . . . . ? 
C5 C6 C7 F3 178.93(19) . . . . ? 
F2 C6 C7 C8 -179.49(18) . . . . ? 
C5 C6 C7 C8 -0.4(3) . . . . ? 
F3 C7 C8 F4 0.4(3) . . . . ? 
C6 C7 C8 F4 179.71(17) . . . . ? 
F3 C7 C8 C9 -178.43(18) . . . . ? 
C6 C7 C8 C9 0.9(3) . . . . ? 
C7 C8 C9 C10 178.8(2) . . . . ? 
F4 C8 C9 C10 0.0(3) . . . . ? 
C7 C8 C9 C4 -0.7(3) . . . . ? 
F4 C8 C9 C4 -179.51(16) . . . . ? 
C3 C4 C9 C10 -0.5(3) . . . . ? 
C5 C4 C9 C10 -179.52(18) . . . . ? 
C3 C4 C9 C8 179.04(18) . . . . ? 
C5 C4 C9 C8 0.0(3) . . . . ? 
C8 C9 C10 C11 179.42(19) . . . . ? 
C4 C9 C10 C11 -1.1(3) . . . . ? 
C9 C10 C11 C12 -177.71(18) . . . . ? 
C9 C10 C11 C2 2.2(3) . . . . ? 
C3 C2 C11 C10 -1.7(3) . . . . ? 
C1 C2 C11 C10 178.91(18) . . . . ? 
C3 C2 C11 C12 178.15(17) . . . . ? 
C1 C2 C11 C12 -1.2(3) . . . . ? 
C10 C11 C12 C13 176.79(19) . . . . ? 
C2 C11 C12 C13 -3.1(3) . . . . ? 
C10 C11 C12 C40 -2.0(3) . . . . ? 
C2 C11 C12 C40 178.07(16) . . . . ? 
C11 C12 C13 C14 -176.31(19) . . . . ? 
C40 C12 C13 C14 2.5(3) . . . . ? 
C11 C12 C13 C22 3.6(3) . . . . ? 
C40 C12 C13 C22 -177.52(16) . . . . ? 
C12 C13 C14 C15 178.33(18) . . . . ? 
C22 C13 C14 C15 -1.6(3) . . . . ? 
C13 C14 C15 C16 -179.50(19) . . . . ? 
C13 C14 C15 C20 0.8(3) . . . . ? 
C14 C15 C16 F5 0.2(3) . . . . ? 
C20 C15 C16 F5 179.88(17) . . . . ? 
C14 C15 C16 C17 -179.9(2) . . . . ? 
C20 C15 C16 C17 -0.2(3) . . . . ? 
F5 C16 C17 F6 -0.7(3) . . . . ? 
C15 C16 C17 F6 179.45(19) . . . . ? 
F5 C16 C17 C18 -179.42(18) . . . . ? 
C15 C16 C17 C18 0.7(3) . . . . ? 
F6 C17 C18 F7 -0.4(3) . . . . ? 
C16 C17 C18 F7 178.43(19) . . . . ? 
F6 C17 C18 C19 -179.33(19) . . . . ? 
C16 C17 C18 C19 -0.5(3) . . . . ? 
F7 C18 C19 F8 0.2(3) . . . . ? 
C17 C18 C19 F8 179.12(18) . . . . ? 
F7 C18 C19 C20 -179.02(18) . . . . ? 
C17 C18 C19 C20 -0.1(3) . . . . ? 
C18 C19 C20 C21 179.3(2) . . . . ? 
F8 C19 C20 C21 0.1(3) . . . . ? 
C18 C19 C20 C15 0.5(3) . . . . ? 
F8 C19 C20 C15 -178.69(17) . . . . ? 
C14 C15 C20 C21 0.5(3) . . . . ? 
C16 C15 C20 C21 -179.21(19) . . . . ? 
C14 C15 C20 C19 179.34(19) . . . . ? 
C16 C15 C20 C19 -0.4(3) . . . . ? 
C19 C20 C21 C22 -179.73(19) . . . . ? 
C15 C20 C21 C22 -1.0(3) . . . . ? 
C20 C21 C22 C1 -178.80(18) . . . . ? 
C20 C21 C22 C13 0.1(3) . . . . ? 
C2 C1 C22 C21 174.47(19) . . . . ? 
C23 C1 C22 C21 -6.7(3) . . . . ? 
C2 C1 C22 C13 -4.4(3) . . . . ? 
C23 C1 C22 C13 174.38(17) . . . . ? 
C14 C13 C22 C21 1.1(3) . . . . ? 
C12 C13 C22 C21 -178.80(17) . . . . ? 
C14 C13 C22 C1 -179.91(17) . . . . ? 
C12 C13 C22 C1 0.1(3) . . . . ? 
C22 C1 C23 C24 -124(3) . . . . ? 
C2 C1 C23 C24 55(3) . . . . ? 
C1 C23 C24 Si1 15(5) . . . . ? 
C25 Si1 C24 C23 133(2) . . . . ? 
C30 Si1 C24 C23 12(2) . . . . ? 
C35 Si1 C24 C23 -104(2) . . . . ? 
C24 Si1 C25 C26 72.65(16) . . . . ? 
C30 Si1 C25 C26 -169.30(14) . . . . ? 
C35 Si1 C25 C26 -45.78(17) . . . . ? 
C24 Si1 C25 C29 -46.49(17) . . . . ? 
C30 Si1 C25 C29 71.57(17) . . . . ? 
C35 Si1 C25 C29 -164.92(15) . . . . ? 
C29 C25 C26 C27 -23.3(2) . . . . ? 
Si1 C25 C26 C27 -147.23(15) . . . . ? 
C25 C26 C27 C28 41.6(2) . . . . ? 
C26 C27 C28 C29 -43.6(2) . . . . ? 
C27 C28 C29 C25 29.3(2) . . . . ? 
C26 C25 C29 C28 -3.7(2) . . . . ? 
Si1 C25 C29 C28 121.17(16) . . . . ? 
C24 Si1 C30 C31 74.4(2) . . . . ? 
C25 Si1 C30 C31 -42.3(2) . . . . ? 
C35 Si1 C30 C31 -169.84(17) . . . . ? 
C24 Si1 C30 C34 -167.21(16) . . . . ? 
C25 Si1 C30 C34 76.05(18) . . . . ? 
C35 Si1 C30 C34 -51.46(18) . . . . ? 
C34 C30 C31 C32 30.1(4) . . . . ? 
Si1 C30 C31 C32 154.6(3) . . . . ? 
C30 C31 C32 C33 -7.8(5) . . . . ? 
C31 C32 C33 C34 -18.1(5) . . . . ? 
C32 C33 C34 C30 37.4(4) . . . . ? 
C31 C30 C34 C33 -41.3(2) . . . . ? 
Si1 C30 C34 C33 -168.86(16) . . . . ? 
C24 Si1 C35 C39 -58.38(18) . . . . ? 
C25 Si1 C35 C39 59.33(18) . . . . ? 
C30 Si1 C35 C39 -174.73(16) . . . . ? 
C24 Si1 C35 C36 61.50(18) . . . . ? 
C25 Si1 C35 C36 179.21(16) . . . . ? 
C30 Si1 C35 C36 -54.85(18) . . . . ? 
C39 C35 C36 C37 -39.8(2) . . . . ? 
Si1 C35 C36 C37 -168.25(16) . . . . ? 
C35 C36 C37 C38 31.4(3) . . . . ? 
C36 C37 C38 C39 -10.7(3) . . . . ? 
C36 C35 C39 C38 33.3(2) . . . . ? 
Si1 C35 C39 C38 158.53(16) . . . . ? 
C37 C38 C39 C35 -14.3(3) . . . . ? 
C11 C12 C40 C41 -156(21) . . . . ? 
C13 C12 C40 C41 25(21) . . . . ? 
C12 C40 C41 Si2 62(24) . . . . ? 
C47 Si2 C41 C40 -109(5) . . . . ? 
C42 Si2 C41 C40 10(5) . . . . ? 
C52 Si2 C41 C40 131(5) . . . . ? 
C41 Si2 C42 C46 61.84(18) . . . . ? 
C47 Si2 C42 C46 178.90(16) . . . . ? 
C52 Si2 C42 C46 -55.28(18) . . . . ? 
C41 Si2 C42 C43 -58.27(18) . . . . ? 
C47 Si2 C42 C43 58.79(19) . . . . ? 
C52 Si2 C42 C43 -175.39(16) . . . . ? 
C46 C42 C43 C44 4.7(4) . . . . ? 
Si2 C42 C43 C44 131.5(4) . . . . ? 
C42 C43 C44 C45 22.3(6) . . . . ? 
C43 C44 C45 C46 -40.2(6) . . . . ? 
C44 C45 C46 C42 43.9(4) . . . . ? 
C43 C42 C46 C45 -29.3(3) . . . . ? 
Si2 C42 C46 C45 -155.35(19) . . . . ? 
C41 Si2 C47 C48 -61.44(19) . . . . ? 
C42 Si2 C47 C48 -177.35(17) . . . . ? 
C52 Si2 C47 C48 55.72(19) . . . . ? 
C41 Si2 C47 C51 59.00(19) . . . . ? 
C42 Si2 C47 C51 -56.91(19) . . . . ? 
C52 Si2 C47 C51 176.17(17) . . . . ? 
C51 C47 C48 C49 40.2(3) . . . . ? 
Si2 C47 C48 C49 168.44(18) . . . . ? 
C47 C48 C49 C50 -30.8(3) . . . . ? 
C48 C49 C50 C51 8.9(3) . . . . ? 
C48 C47 C51 C50 -34.9(2) . . . . ? 
Si2 C47 C51 C50 -162.21(17) . . . . ? 
C49 C50 C51 C47 16.3(3) . . . . ? 
C41 Si2 C52 C53 -66.90(18) . . . . ? 
C47 Si2 C52 C53 175.50(17) . . . . ? 
C42 Si2 C52 C53 49.52(19) . . . . ? 
C41 Si2 C52 C56 53.16(18) . . . . ? 
C47 Si2 C52 C56 -64.44(18) . . . . ? 
C42 Si2 C52 C56 169.57(16) . . . . ? 
C56 C52 C53 C54 31.9(2) . . . . ? 
Si2 C52 C53 C54 159.01(17) . . . . ? 
C52 C53 C54 C55 -9.4(3) . . . . ? 
C53 C54 C55 C56 -17.2(3) . . . . ? 
C54 C55 C56 C52 37.4(3) . . . . ? 
C53 C52 C56 C55 -42.7(2) . . . . ? 
Si2 C52 C56 C55 -170.50(16) . . . . ? 
 
_diffrn_measured_fraction_theta_max    0.998 
_diffrn_reflns_theta_full              27.46 
_diffrn_measured_fraction_theta_full   0.998 
_refine_diff_density_max    0.267 
_refine_diff_density_min   -0.242 
_refine_diff_density_rms    0.050 
