 
data_k07477 
 
_audit_creation_method            SHELXL-97 
_chemical_name_systematic 
; 
 ? 
; 
_chemical_name_common             ? 
_chemical_melting_point           ? 
_chemical_formula_moiety 
 'C34 H38 S2 Si2' 
_chemical_formula_sum 
 'C34 H38 S2 Si2' 
_chemical_formula_weight          566.94 
 
loop_ 
 _atom_type_symbol 
 _atom_type_description 
 _atom_type_scat_dispersion_real 
 _atom_type_scat_dispersion_imag 
 _atom_type_scat_source 
 'C'  'C'   0.0033   0.0016 
 'International Tables Vol C Tables 4.2.6.8 and 6.1.1.4' 
 'H'  'H'   0.0000   0.0000 
 'International Tables Vol C Tables 4.2.6.8 and 6.1.1.4' 
 'Si'  'Si'   0.0817   0.0704 
 'International Tables Vol C Tables 4.2.6.8 and 6.1.1.4' 
 'S'  'S'   0.1246   0.1234 
 'International Tables Vol C Tables 4.2.6.8 and 6.1.1.4' 
 
_symmetry_cell_setting            monoclinic
_symmetry_space_group_name_H-M    'P 21/c'
_symmetry_space_group_name_Hall   '-P 2ybc'
 
loop_ 
 _symmetry_equiv_pos_as_xyz 
 'x, y, z' 
 '-x, y+1/2, -z+1/2' 
 '-x, -y, -z' 
 'x, -y-1/2, z-1/2' 
 
_cell_length_a                    17.2271(7) 
_cell_length_b                    6.4203(3) 
_cell_length_c                    15.5762(9) 
_cell_angle_alpha                 90.00 
_cell_angle_beta                  115.804(2) 
_cell_angle_gamma                 90.00 
_cell_volume                      1551.00(13) 
_cell_formula_units_Z             2 
_cell_measurement_temperature     90.0(2) 
_cell_measurement_reflns_used     3828
_cell_measurement_theta_min       1.00
_cell_measurement_theta_max       27.48
 
_exptl_crystal_description        block
_exptl_crystal_colour             yellow
_exptl_crystal_size_max           0.33 
_exptl_crystal_size_mid           0.14 
_exptl_crystal_size_min           0.07 
_exptl_crystal_density_meas       ? 
_exptl_crystal_density_diffrn     1.214 
_exptl_crystal_density_method     'not measured' 
_exptl_crystal_F_000              604 
_exptl_absorpt_coefficient_mu     0.271 
_exptl_absorpt_correction_type    multi-scan 
_exptl_absorpt_correction_T_min   0.916
_exptl_absorpt_correction_T_max   0.983 
_exptl_absorpt_process_details    'Scalepack (Otwinowski & Minor, 1997)' 
 
_exptl_special_details 
; 
 ? 
; 
 
_diffrn_ambient_temperature       90.0(2) 
_diffrn_radiation_wavelength      0.71073 
_diffrn_radiation_type            MoK\a 
_diffrn_radiation_source          'fine-focus sealed tube'    
_diffrn_radiation_monochromator   'graphite'                 
_diffrn_measurement_device_type   'Nonius KappaCCD diffractometer'  
_diffrn_measurement_method        '\w scans at fixed \c = 55\%'
_diffrn_detector_area_resol_mean  18
_diffrn_standards_number          0 
_diffrn_standards_interval_count  . 
_diffrn_standards_interval_time   . 
_diffrn_standards_decay_%         ? 
_diffrn_reflns_number             6611 
_diffrn_reflns_av_R_equivalents   0.0757 
_diffrn_reflns_av_sigmaI/netI     0.0998 
_diffrn_reflns_limit_h_min        -22 
_diffrn_reflns_limit_h_max        22 
_diffrn_reflns_limit_k_min        -8 
_diffrn_reflns_limit_k_max        8 
_diffrn_reflns_limit_l_min        -20 
_diffrn_reflns_limit_l_max        20 
_diffrn_reflns_theta_min          1.31 
_diffrn_reflns_theta_max          27.50 
_reflns_number_total              3560 
_reflns_number_gt                 2131 
_reflns_threshold_expression      >2\s(I)    
 
_computing_data_collection        'COLLECT (Nonius, 1998)'
_computing_cell_refinement        'SCALEPACK (Otwinowski & Minor, 1997)'
_computing_data_reduction         'DENZO-SMN (Otwinowski & Minor, 1997)'
_computing_structure_solution     'SHELXS-97 (Sheldrick, 1997)' 
_computing_structure_refinement   'SHELXL-97 (Sheldrick, 1997)' 
_computing_molecular_graphics     'XP in SHELXTL (Sheldrick, 1994)'
_computing_publication_material
; 
SHELX97-2 (Sheldrick, 1997) and local procedures 
; 

_publ_section_exptl_refinement
;
H atoms were found in difference Fourier maps and subsequently placed in 
idealized positions with constrained CÃ‘H distances of 0.99 \%A (CH~2~), 
0.98 \%A (CH~3~) and 0.95 \%A (C~Ar~H). U~iso~(H) values were set to either 
1.5U~eq~ of the attached C atom (CH~3~) or 1.2U~eq~.
;

 
_refine_special_details 
; 
 Refinement of F^2^ against ALL reflections.  The weighted R-factor wR and 
 goodness of fit S are based on F^2^, conventional R-factors R are based 
 on F, with F set to zero for negative F^2^. The threshold expression of 
 F^2^ > 2\s(F^2^) is used only for calculating R-factors(gt) etc. and is 
 not relevant to the choice of reflections for refinement.  R-factors based 
 on F^2^ are statistically about twice as large as those based on F, and R- 
 factors based on ALL data will be even larger. 
; 
 
_refine_ls_structure_factor_coef  Fsqd  
_refine_ls_matrix_type            full 
_refine_ls_weighting_scheme       calc  
_refine_ls_weighting_details 
 'calc w=1/[\s^2^(Fo^2^)+(0.0703P)^2^] where P=(Fo^2^+2Fc^2^)/3'         
_atom_sites_solution_primary      direct 
_atom_sites_solution_secondary    difmap 
_atom_sites_solution_hydrogens    geom 
_refine_ls_hydrogen_treatment     constr 
_refine_ls_extinction_method      none 
_refine_ls_extinction_coef        ? 
_refine_ls_number_reflns          3560 
_refine_ls_number_parameters      175 
_refine_ls_number_restraints      0 
_refine_ls_R_factor_all           0.1109 
_refine_ls_R_factor_gt            0.0531 
_refine_ls_wR_factor_ref          0.1419 
_refine_ls_wR_factor_gt           0.1206 
_refine_ls_goodness_of_fit_ref    0.990 
_refine_ls_restrained_S_all       0.990 
_refine_ls_shift/su_max           0.001 
_refine_ls_shift/su_mean          0.000 
 
loop_ 
 _atom_site_label 
 _atom_site_type_symbol 
 _atom_site_fract_x 
 _atom_site_fract_y 
 _atom_site_fract_z 
 _atom_site_U_iso_or_equiv 
 _atom_site_adp_type 
 _atom_site_occupancy 
 _atom_site_symmetry_multiplicity 
 _atom_site_calc_flag 
 _atom_site_refinement_flags 
 _atom_site_disorder_assembly 
 _atom_site_disorder_group 
Si1 Si 0.83728(4) 0.87635(12) 0.58253(5) 0.0238(2) Uani 1 1 d . . . 
C1 C 0.57776(15) 0.6037(4) 0.51283(16) 0.0180(6) Uani 1 1 d . . . 
C2 C 0.57802(15) 0.4214(4) 0.56167(15) 0.0182(6) Uani 1 1 d . . . 
S3 S 0.67191(4) 0.30029(11) 0.64404(4) 0.0234(2) Uani 1 1 d . . . 
C4 C 0.61177(15) 0.1036(4) 0.66425(16) 0.0194(6) Uani 1 1 d . . . 
C5 C 0.64560(16) -0.0626(4) 0.72694(17) 0.0254(6) Uani 1 1 d . . . 
H5 H 0.7061 -0.0759 0.7641 0.030 Uiso 1 1 calc R . . 
C6 C 0.58946(16) -0.2081(4) 0.73416(17) 0.0263(7) Uani 1 1 d . . . 
H6 H 0.6116 -0.3219 0.7770 0.032 Uiso 1 1 calc R . . 
C7 C 0.50110(16) -0.1892(4) 0.67937(17) 0.0241(6) Uani 1 1 d . . . 
H7 H 0.4635 -0.2907 0.6851 0.029 Uiso 1 1 calc R . . 
C8 C 0.46676(16) -0.0242(4) 0.61624(16) 0.0214(6) Uani 1 1 d . . . 
H8 H 0.4063 -0.0140 0.5784 0.026 Uiso 1 1 calc R . . 
C9 C 0.52216(15) 0.1267(4) 0.60892(16) 0.0183(6) Uani 1 1 d . . . 
C10 C 0.50250(15) 0.3132(4) 0.55056(16) 0.0182(6) Uani 1 1 d . . . 
C11 C 0.65912(16) 0.6962(4) 0.52957(16) 0.0202(6) Uani 1 1 d . . . 
C12 C 0.72955(16) 0.7682(4) 0.54724(17) 0.0236(6) Uani 1 1 d . . . 
C13 C 0.82946(16) 1.1273(4) 0.52001(17) 0.0277(7) Uani 1 1 d . . . 
H13A H 0.7970 1.2267 0.5407 0.033 Uiso 1 1 calc R . . 
H13B H 0.8885 1.1836 0.5414 0.033 Uiso 1 1 calc R . . 
C14 C 0.78662(18) 1.1209(5) 0.41096(18) 0.0405(8) Uani 1 1 d . . . 
H14A H 0.8205 1.0321 0.3888 0.061 Uiso 1 1 calc R . . 
H14B H 0.7837 1.2622 0.3859 0.061 Uiso 1 1 calc R . . 
H14C H 0.7282 1.0643 0.3883 0.061 Uiso 1 1 calc R . . 
C15 C 0.90184(15) 0.6806(4) 0.55340(19) 0.0296(7) Uani 1 1 d . . . 
H15A H 0.9048 0.5514 0.5894 0.036 Uiso 1 1 calc R . . 
H15B H 0.8712 0.6470 0.4846 0.036 Uiso 1 1 calc R . . 
C16 C 0.99336(17) 0.7478(5) 0.5753(2) 0.0344(7) Uani 1 1 d . . . 
H16A H 0.9915 0.8744 0.5393 0.052 Uiso 1 1 calc R . . 
H16B H 1.0221 0.6365 0.5569 0.052 Uiso 1 1 calc R . . 
H16C H 1.0254 0.7757 0.6437 0.052 Uiso 1 1 calc R . . 
C17 C 0.88456(16) 0.9245(5) 0.71299(17) 0.0345(8) Uani 1 1 d . . . 
H17A H 0.9438 0.9792 0.7339 0.041 Uiso 1 1 calc R . . 
H17B H 0.8502 1.0338 0.7255 0.041 Uiso 1 1 calc R . . 
C18 C 0.8886(2) 0.7336(5) 0.7736(2) 0.0487(9) Uani 1 1 d . . . 
H18A H 0.8299 0.6852 0.7576 0.073 Uiso 1 1 calc R . . 
H18B H 0.9174 0.7710 0.8413 0.073 Uiso 1 1 calc R . . 
H18C H 0.9210 0.6225 0.7606 0.073 Uiso 1 1 calc R . . 
 
loop_ 
 _atom_site_aniso_label 
 _atom_site_aniso_U_11 
 _atom_site_aniso_U_22 
 _atom_site_aniso_U_33 
 _atom_site_aniso_U_23 
 _atom_site_aniso_U_13 
 _atom_site_aniso_U_12 
Si1 0.0200(4) 0.0276(5) 0.0259(4) -0.0022(3) 0.0121(3) -0.0045(3) 
C1 0.0209(13) 0.0197(15) 0.0171(12) -0.0048(11) 0.0118(11) -0.0048(11) 
C2 0.0200(13) 0.0227(16) 0.0142(12) -0.0026(11) 0.0095(10) -0.0005(11) 
S3 0.0200(3) 0.0265(4) 0.0249(4) 0.0034(3) 0.0109(3) 0.0002(3) 
C4 0.0216(13) 0.0212(16) 0.0218(13) -0.0014(12) 0.0154(11) -0.0013(12) 
C5 0.0254(14) 0.0295(18) 0.0232(13) 0.0013(12) 0.0124(11) 0.0046(13) 
C6 0.0351(16) 0.0266(17) 0.0219(13) 0.0049(12) 0.0168(12) 0.0060(13) 
C7 0.0264(14) 0.0271(17) 0.0257(14) 0.0006(12) 0.0177(12) -0.0002(13) 
C8 0.0274(14) 0.0213(16) 0.0202(13) -0.0027(12) 0.0149(11) -0.0021(12) 
C9 0.0250(14) 0.0160(15) 0.0160(12) -0.0040(11) 0.0110(11) -0.0003(11) 
C10 0.0224(13) 0.0210(16) 0.0159(12) -0.0043(11) 0.0127(10) -0.0035(12) 
C11 0.0232(14) 0.0191(16) 0.0206(13) 0.0038(11) 0.0118(11) 0.0018(12) 
C12 0.0265(15) 0.0242(17) 0.0227(14) 0.0029(12) 0.0132(12) 0.0024(12) 
C13 0.0257(15) 0.0282(17) 0.0347(15) -0.0003(13) 0.0183(12) -0.0027(13) 
C14 0.0399(17) 0.045(2) 0.0352(17) 0.0079(15) 0.0148(14) -0.0063(16) 
C15 0.0266(15) 0.0270(18) 0.0405(16) -0.0007(13) 0.0195(13) -0.0042(13) 
C16 0.0265(15) 0.035(2) 0.0462(18) 0.0046(14) 0.0204(13) 0.0037(13) 
C17 0.0219(14) 0.054(2) 0.0304(15) -0.0005(15) 0.0135(12) -0.0044(14) 
C18 0.0422(19) 0.071(3) 0.0358(18) 0.0103(18) 0.0197(15) 0.0111(18) 
 
_geom_special_details 
; 
 All esds (except the esd in the dihedral angle between two l.s. planes) 
 are estimated using the full covariance matrix.  The cell esds are taken 
 into account individually in the estimation of esds in distances, angles 
 and torsion angles; correlations between esds in cell parameters are only 
 used when they are defined by crystal symmetry.  An approximate (isotropic) 
 treatment of cell esds is used for estimating esds involving l.s. planes. 
; 
 
loop_ 
 _geom_bond_atom_site_label_1 
 _geom_bond_atom_site_label_2 
 _geom_bond_distance 
 _geom_bond_site_symmetry_2 
 _geom_bond_publ_flag 
Si1 C12 1.828(3) . ? 
Si1 C17 1.857(3) . ? 
Si1 C13 1.857(3) . ? 
Si1 C15 1.860(3) . ? 
C1 C2 1.395(3) . ? 
C1 C10 1.408(3) 3_666 ? 
C1 C11 1.438(3) . ? 
C2 C10 1.418(3) . ? 
C2 S3 1.749(2) . ? 
S3 C4 1.746(2) . ? 
C4 C5 1.392(3) . ? 
C4 C9 1.410(3) . ? 
C5 C6 1.384(3) . ? 
C5 H5 0.9500 . ? 
C6 C7 1.389(3) . ? 
C6 H6 0.9500 . ? 
C7 C8 1.390(3) . ? 
C7 H7 0.9500 . ? 
C8 C9 1.399(3) . ? 
C8 H8 0.9500 . ? 
C9 C10 1.451(3) . ? 
C10 C1 1.408(3) 3_666 ? 
C11 C12 1.213(3) . ? 
C13 C14 1.530(3) . ? 
C13 H13A 0.9900 . ? 
C13 H13B 0.9900 . ? 
C14 H14A 0.9800 . ? 
C14 H14B 0.9800 . ? 
C14 H14C 0.9800 . ? 
C15 C16 1.523(3) . ? 
C15 H15A 0.9900 . ? 
C15 H15B 0.9900 . ? 
C16 H16A 0.9800 . ? 
C16 H16B 0.9800 . ? 
C16 H16C 0.9800 . ? 
C17 C18 1.529(4) . ? 
C17 H17A 0.9900 . ? 
C17 H17B 0.9900 . ? 
C18 H18A 0.9800 . ? 
C18 H18B 0.9800 . ? 
C18 H18C 0.9800 . ? 
 
loop_ 
 _geom_angle_atom_site_label_1 
 _geom_angle_atom_site_label_2 
 _geom_angle_atom_site_label_3 
 _geom_angle 
 _geom_angle_site_symmetry_1 
 _geom_angle_site_symmetry_3 
 _geom_angle_publ_flag 
C12 Si1 C17 107.26(12) . . ? 
C12 Si1 C13 109.85(12) . . ? 
C17 Si1 C13 109.06(13) . . ? 
C12 Si1 C15 107.86(12) . . ? 
C17 Si1 C15 110.82(13) . . ? 
C13 Si1 C15 111.88(12) . . ? 
C2 C1 C10 118.0(2) . 3_666 ? 
C2 C1 C11 118.4(2) . . ? 
C10 C1 C11 123.6(2) 3_666 . ? 
C1 C2 C10 124.1(2) . . ? 
C1 C2 S3 123.75(18) . . ? 
C10 C2 S3 112.20(19) . . ? 
C4 S3 C2 91.26(12) . . ? 
C5 C4 C9 121.5(2) . . ? 
C5 C4 S3 125.50(19) . . ? 
C9 C4 S3 113.03(19) . . ? 
C6 C5 C4 118.7(2) . . ? 
C6 C5 H5 120.6 . . ? 
C4 C5 H5 120.6 . . ? 
C5 C6 C7 120.6(3) . . ? 
C5 C6 H6 119.7 . . ? 
C7 C6 H6 119.7 . . ? 
C6 C7 C8 121.1(2) . . ? 
C6 C7 H7 119.5 . . ? 
C8 C7 H7 119.5 . . ? 
C7 C8 C9 119.3(2) . . ? 
C7 C8 H8 120.3 . . ? 
C9 C8 H8 120.3 . . ? 
C8 C9 C4 118.8(2) . . ? 
C8 C9 C10 129.8(2) . . ? 
C4 C9 C10 111.4(2) . . ? 
C1 C10 C2 117.9(2) 3_666 . ? 
C1 C10 C9 129.9(2) 3_666 . ? 
C2 C10 C9 112.1(2) . . ? 
C12 C11 C1 177.0(3) . . ? 
C11 C12 Si1 176.1(2) . . ? 
C14 C13 Si1 116.7(2) . . ? 
C14 C13 H13A 108.1 . . ? 
Si1 C13 H13A 108.1 . . ? 
C14 C13 H13B 108.1 . . ? 
Si1 C13 H13B 108.1 . . ? 
H13A C13 H13B 107.3 . . ? 
C13 C14 H14A 109.5 . . ? 
C13 C14 H14B 109.5 . . ? 
H14A C14 H14B 109.5 . . ? 
C13 C14 H14C 109.5 . . ? 
H14A C14 H14C 109.5 . . ? 
H14B C14 H14C 109.5 . . ? 
C16 C15 Si1 115.1(2) . . ? 
C16 C15 H15A 108.5 . . ? 
Si1 C15 H15A 108.5 . . ? 
C16 C15 H15B 108.5 . . ? 
Si1 C15 H15B 108.5 . . ? 
H15A C15 H15B 107.5 . . ? 
C15 C16 H16A 109.5 . . ? 
C15 C16 H16B 109.5 . . ? 
H16A C16 H16B 109.5 . . ? 
C15 C16 H16C 109.5 . . ? 
H16A C16 H16C 109.5 . . ? 
H16B C16 H16C 109.5 . . ? 
C18 C17 Si1 115.0(2) . . ? 
C18 C17 H17A 108.5 . . ? 
Si1 C17 H17A 108.5 . . ? 
C18 C17 H17B 108.5 . . ? 
Si1 C17 H17B 108.5 . . ? 
H17A C17 H17B 107.5 . . ? 
C17 C18 H18A 109.5 . . ? 
C17 C18 H18B 109.5 . . ? 
H18A C18 H18B 109.5 . . ? 
C17 C18 H18C 109.5 . . ? 
H18A C18 H18C 109.5 . . ? 
H18B C18 H18C 109.5 . . ? 
 
loop_ 
 _geom_torsion_atom_site_label_1 
 _geom_torsion_atom_site_label_2 
 _geom_torsion_atom_site_label_3 
 _geom_torsion_atom_site_label_4 
 _geom_torsion 
 _geom_torsion_site_symmetry_1 
 _geom_torsion_site_symmetry_2 
 _geom_torsion_site_symmetry_3 
 _geom_torsion_site_symmetry_4 
 _geom_torsion_publ_flag 
C10 C1 C2 C10 0.8(4) 3_666 . . . ? 
C11 C1 C2 C10 -179.0(2) . . . . ? 
C10 C1 C2 S3 -179.07(17) 3_666 . . . ? 
C11 C1 C2 S3 1.1(3) . . . . ? 
C1 C2 S3 C4 -179.9(2) . . . . ? 
C10 C2 S3 C4 0.24(18) . . . . ? 
C2 S3 C4 C5 -179.7(2) . . . . ? 
C2 S3 C4 C9 0.77(19) . . . . ? 
C9 C4 C5 C6 0.4(4) . . . . ? 
S3 C4 C5 C6 -179.10(19) . . . . ? 
C4 C5 C6 C7 0.4(4) . . . . ? 
C5 C6 C7 C8 -0.1(4) . . . . ? 
C6 C7 C8 C9 -0.9(4) . . . . ? 
C7 C8 C9 C4 1.7(3) . . . . ? 
C7 C8 C9 C10 -178.7(2) . . . . ? 
C5 C4 C9 C8 -1.4(3) . . . . ? 
S3 C4 C9 C8 178.10(17) . . . . ? 
C5 C4 C9 C10 178.9(2) . . . . ? 
S3 C4 C9 C10 -1.6(3) . . . . ? 
C1 C2 C10 C1 -0.8(4) . . . 3_666 ? 
S3 C2 C10 C1 179.08(17) . . . 3_666 ? 
C1 C2 C10 C9 179.0(2) . . . . ? 
S3 C2 C10 C9 -1.2(3) . . . . ? 
C8 C9 C10 C1 1.8(4) . . . 3_666 ? 
C4 C9 C10 C1 -178.5(2) . . . 3_666 ? 
C8 C9 C10 C2 -177.9(2) . . . . ? 
C4 C9 C10 C2 1.7(3) . . . . ? 
C12 Si1 C13 C14 -59.0(2) . . . . ? 
C17 Si1 C13 C14 -176.33(19) . . . . ? 
C15 Si1 C13 C14 60.7(2) . . . . ? 
C12 Si1 C15 C16 178.14(19) . . . . ? 
C17 Si1 C15 C16 -64.7(2) . . . . ? 
C13 Si1 C15 C16 57.2(2) . . . . ? 
C12 Si1 C17 C18 56.6(2) . . . . ? 
C13 Si1 C17 C18 175.50(19) . . . . ? 
C15 Si1 C17 C18 -60.9(2) . . . . ? 
 
_diffrn_measured_fraction_theta_max    0.997 
_diffrn_reflns_theta_full              27.50 
_diffrn_measured_fraction_theta_full   0.997 
_refine_diff_density_max    0.538 
_refine_diff_density_min   -0.341 
_refine_diff_density_rms    0.080 
