 
data_x12014nx 
 
_audit_creation_method            SHELXL-97 
_chemical_name_systematic 
; 
 ? 
; 
_chemical_name_common             ? 
_chemical_melting_point           ? 
_chemical_formula_moiety 
 'C50 H63 I S2 Si2' 
_chemical_formula_sum 
 'C50 H63 I S2 Si2' 
_chemical_formula_weight          911.20 
 
loop_ 
 _atom_type_symbol 
 _atom_type_description 
 _atom_type_scat_dispersion_real 
 _atom_type_scat_dispersion_imag 
 _atom_type_scat_source 
 'C'  'C'   0.0181   0.0091 
 'International Tables Vol C Tables 4.2.6.8 and 6.1.1.4' 
 'H'  'H'   0.0000   0.0000 
 'International Tables Vol C Tables 4.2.6.8 and 6.1.1.4' 
 'Si'  'Si'   0.2541   0.3302 
 'International Tables Vol C Tables 4.2.6.8 and 6.1.1.4' 
 'S'  'S'   0.3331   0.5567 
 'International Tables Vol C Tables 4.2.6.8 and 6.1.1.4' 
 'I'  'I'  -0.3257   6.8362 
 'International Tables Vol C Tables 4.2.6.8 and 6.1.1.4' 
 
_symmetry_cell_setting            monoclinic 
_symmetry_space_group_name_H-M    'P 21/c'
_symmetry_space_group_name_Hall   '-P 2ybc' 
 
loop_ 
 _symmetry_equiv_pos_as_xyz 
 'x, y, z' 
 '-x, y+1/2, -z+1/2' 
 '-x, -y, -z' 
 'x, -y-1/2, z-1/2' 
 
_cell_length_a                    17.2030(10) 
_cell_length_b                    9.2669(3) 
_cell_length_c                    29.6899(11) 
_cell_angle_alpha                 90.00 
_cell_angle_beta                  92.917(3) 
_cell_angle_gamma                 90.00 
_cell_volume                      4727.0(4) 
_cell_formula_units_Z             4 
_cell_measurement_temperature     90.0(2) 
_cell_measurement_reflns_used     9882 
_cell_measurement_theta_min       2.57 
_cell_measurement_theta_max       67.92 
 
_exptl_crystal_description        flake 
_exptl_crystal_colour             blue 
_exptl_crystal_size_max           0.18 
_exptl_crystal_size_mid           0.10 
_exptl_crystal_size_min           0.03 
_exptl_crystal_density_meas       ? 
_exptl_crystal_density_diffrn     1.280 
_exptl_crystal_density_method     'not measured' 
_exptl_crystal_F_000              1904 
_exptl_absorpt_coefficient_mu     6.864 
_exptl_absorpt_correction_type    multi-scan 
_exptl_absorpt_correction_T_min   0.437 
_exptl_absorpt_correction_T_max   0.806 
_exptl_absorpt_process_details    
;
SADABS in APEX2 (BrukerAXS, 2006) and XABS2 (Parkin et al., 1995)
;
 
_exptl_special_details 
; 
 ? 
; 
 
_diffrn_ambient_temperature       90.0(2) 
_diffrn_radiation_wavelength      1.54178 
_diffrn_radiation_type            CuK\a 
_diffrn_radiation_source          'fine-focus rotating anode' 
_diffrn_radiation_monochromator   'graded multilayer optics' 
_diffrn_measurement_device_type   'Bruker X8 Proteum diffractometer'
_diffrn_measurement_method        '\f and \w scans'            
_diffrn_detector_area_resol_mean  5.6
_diffrn_standards_number          0 
_diffrn_standards_interval_count  . 
_diffrn_standards_interval_time   . 
_diffrn_standards_decay_%         ? 
_diffrn_reflns_number             8451 
_diffrn_reflns_av_R_equivalents   0.0851 
_diffrn_reflns_av_sigmaI/netI     0.0529 
_diffrn_reflns_limit_h_min        -20 
_diffrn_reflns_limit_h_max        20 
_diffrn_reflns_limit_k_min        0 
_diffrn_reflns_limit_k_max        11 
_diffrn_reflns_limit_l_min        0 
_diffrn_reflns_limit_l_max        35 
_diffrn_reflns_theta_min          2.57 
_diffrn_reflns_theta_max          68.23 
_reflns_number_total              8451 
_reflns_number_gt                 7421 
_reflns_threshold_expression      >2\s(I)    
 
_computing_data_collection        'APEX2 (Bruker-AXS, 2006)'            
_computing_cell_refinement        'APEX2'
_computing_data_reduction         'APEX2'
_computing_structure_solution     'SHELXS-97 (Sheldrick, 2008)' 
_computing_structure_refinement   'SHELXL-97 (Sheldrick, 2008)' 
_computing_molecular_graphics     'XP in SHELXTL (Sheldrick, 2008)'
_computing_publication_material
; 
SHELX-97 (Sheldrick, 2008) and local procedures 
; 
 
_publ_section_exptl_refinement
;
H atoms were found in difference Fourier maps and subsequently placed 
in idealized positions with constrained distances of 0.98 \%A (RCH~3~), 
0.99 \%A (R~2~CH~2~), 1.00 \%A (R~3~CH), 0.95 \%A (C~sp2~H), and with 
U~iso~(H) values set to either 1.2U~eq~ or 1.5U~eq~ (RCH~3~) of the 
attached atom. 

To ensure satisfactory refinement of the disordered parts of the structure, 
a combination of constraints and restraints were needed.  The constraints 
(SHELXL97 commands EXYZ and EADP) were used to make the coordinates and/or 
displacement parameters of closely proximate atoms equal.  The restraints 
(SHELXL97 commands SAME, DELU, ISOR) were used to ensure similar geometries 
and displacement parameters of closely proximate, chemically similar 
groups. 
;

_refine_special_details 
; 
Refinement of F^2^ against all reflections.  The weighted R-value wR and 
goodness of fit S are based on F^2^. Conventional R-values R are based 
on F, with F set to zero for negative F^2^.  The threshold expression of 
F^2^ > 2\s(F^2^) is used only for calculating R-factors(gt) etc. and is 
not relevant to the choice of reflections for refinement.  R-values based 
on F^2^ are statistically about twice as large as those based on F, and  
R-values based on ALL data will be even larger. 
; 
 
_refine_ls_structure_factor_coef  Fsqd  
_refine_ls_matrix_type            full 
_refine_ls_weighting_scheme       calc  
_refine_ls_weighting_details 
 'calc w=1/[\s^2^(Fo^2^)+(0.0003P)^2^+36.8387P] where P=(Fo^2^+2Fc^2^)/3' 
_atom_sites_solution_primary      direct 
_atom_sites_solution_secondary    difmap 
_atom_sites_solution_hydrogens    geom 
_refine_ls_hydrogen_treatment     constr 
_refine_ls_extinction_method      none 
_refine_ls_extinction_coef        ? 
_refine_ls_number_reflns          8451 
_refine_ls_number_parameters      562 
_refine_ls_number_restraints      67 
_refine_ls_R_factor_all           0.0966 
_refine_ls_R_factor_gt            0.0871 
_refine_ls_wR_factor_ref          0.1982 
_refine_ls_wR_factor_gt           0.1934 
_refine_ls_goodness_of_fit_ref    1.249 
_refine_ls_restrained_S_all       1.244 
_refine_ls_shift/su_max           0.001 
_refine_ls_shift/su_mean          0.000 
 
loop_ 
 _atom_site_label 
 _atom_site_type_symbol 
 _atom_site_fract_x 
 _atom_site_fract_y 
 _atom_site_fract_z 
 _atom_site_U_iso_or_equiv 
 _atom_site_adp_type 
 _atom_site_occupancy 
 _atom_site_symmetry_multiplicity 
 _atom_site_calc_flag 
 _atom_site_refinement_flags 
 _atom_site_disorder_assembly 
 _atom_site_disorder_group 
Si1 Si 0.21032(11) 0.6563(2) 0.63380(7) 0.0321(4) Uani 1 1 d . . . 
Si2 Si 0.88123(11) 0.45549(18) 0.61989(6) 0.0287(4) Uani 1 1 d . B . 
C1 C 0.4628(4) 0.5887(6) 0.6148(2) 0.0238(13) Uani 1 1 d . B . 
C2 C 0.4906(4) 0.4905(6) 0.5824(2) 0.0220(13) Uani 1 1 d . . . 
C3 C 0.4407(4) 0.4253(6) 0.5498(2) 0.0258(14) Uani 1 1 d . . . 
H3A H 0.3870 0.4495 0.5486 0.031 Uiso 1 1 calc R . . 
C4 C 0.4680(4) 0.3257(6) 0.5191(2) 0.0282(14) Uani 1 1 d . B . 
C5 C 0.4177(4) 0.2575(7) 0.4861(2) 0.0277(14) Uani 1 1 d . . . 
H5 H 0.3637 0.2795 0.4845 0.033 Uiso 1 1 calc R A 1 
C6 C 0.4469(4) 0.1605(7) 0.4569(2) 0.0310(14) Uani 0.675(6) 1 d PU B 1 
S7 S 0.3953(3) 0.0660(5) 0.41349(13) 0.0341(9) Uani 0.675(6) 1 d PU B 1 
C8 C 0.4821(9) -0.015(3) 0.3989(8) 0.034(2) Uani 0.675(6) 1 d PU B 1 
I1 I 0.47947(17) -0.15527(11) 0.34378(3) 0.0402(4) Uani 0.675(6) 1 d PU B 1 
C9 C 0.545(2) 0.022(4) 0.4242(11) 0.0379(17) Uani 0.675(6) 1 d PU B 1 
H9 H 0.5955 -0.0151 0.4201 0.046 Uiso 0.675(6) 1 calc PR B 1 
C10 C 0.5278(4) 0.1262(7) 0.4584(2) 0.0303(14) Uani 0.675(6) 1 d PU B 1 
C6' C 0.4469(4) 0.1605(7) 0.4569(2) 0.0310(14) Uani 0.325(6) 1 d PU B 2 
C7' C 0.403(3) 0.085(5) 0.4226(15) 0.0341(9) Uani 0.325(6) 1 d PU B 2 
H7' H 0.3478 0.0891 0.4171 0.041 Uiso 0.325(6) 1 calc PR B 2 
I1' I 0.4316(4) -0.1359(3) 0.34257(7) 0.0507(13) Uani 0.325(6) 1 d PU B 2 
C8' C 0.457(2) 0.001(7) 0.3977(19) 0.034(2) Uani 0.325(6) 1 d PU B 2 
S9' S 0.5533(9) 0.0044(18) 0.4170(5) 0.0379(17) Uani 0.325(6) 1 d PU B 2 
C10' C 0.5278(4) 0.1262(7) 0.4584(2) 0.0303(14) Uani 0.325(6) 1 d PU B 2 
C11 C 0.5779(4) 0.1875(6) 0.4900(2) 0.0288(14) Uani 1 1 d . . . 
H11A H 0.6314 0.1614 0.4914 0.035 Uiso 1 1 calc R B 1 
C12 C 0.5500(4) 0.2905(7) 0.5208(2) 0.0260(14) Uani 1 1 d . B . 
C13 C 0.5990(4) 0.3587(6) 0.5527(2) 0.0253(13) Uani 1 1 d . . . 
H13A H 0.6530 0.3373 0.5533 0.030 Uiso 1 1 calc R B . 
C14 C 0.5723(4) 0.4576(6) 0.5839(2) 0.0220(13) Uani 1 1 d . B . 
C15 C 0.6232(4) 0.5206(6) 0.6175(2) 0.0246(13) Uani 1 1 d . . . 
C16 C 0.5941(4) 0.6137(6) 0.6506(2) 0.0263(14) Uani 1 1 d . B . 
C17 C 0.6438(4) 0.6708(7) 0.6859(2) 0.0277(14) Uani 1 1 d . . . 
H17A H 0.6977 0.6478 0.6873 0.033 Uiso 1 1 calc R B 1 
C18 C 0.6145(4) 0.7586(7) 0.7177(2) 0.0295(14) Uani 0.625(8) 1 d PU B 1 
C19 C 0.6529(18) 0.824(5) 0.7571(13) 0.038(5) Uani 0.625(8) 1 d PU B 1 
H19 H 0.7063 0.8087 0.7654 0.046 Uiso 0.625(8) 1 calc PR B 1 
C20 C 0.6048(9) 0.912(3) 0.7818(8) 0.034(3) Uani 0.625(8) 1 d PU B 1 
H20 H 0.6225 0.9675 0.8071 0.041 Uiso 0.625(8) 1 calc PR B 1 
S21 S 0.5088(4) 0.9073(13) 0.7607(3) 0.0311(12) Uani 0.625(8) 1 d PU B 1 
C22 C 0.5334(4) 0.7948(6) 0.7156(2) 0.0254(13) Uani 0.625(8) 1 d PU B 1 
C18' C 0.6145(4) 0.7586(7) 0.7177(2) 0.0295(14) Uani 0.375(8) 1 d PU B 2 
S19' S 0.6685(7) 0.834(3) 0.7619(5) 0.039(3) Uani 0.375(8) 1 d PU B 2 
C20' C 0.5816(17) 0.905(6) 0.7791(15) 0.034(3) Uani 0.375(8) 1 d PU B 2 
H20' H 0.5792 0.9515 0.8075 0.041 Uiso 0.375(8) 1 calc PR B 2 
C21' C 0.517(3) 0.891(8) 0.751(2) 0.031(7) Uani 0.375(8) 1 d PU B 2 
H21' H 0.4684 0.9386 0.7547 0.037 Uiso 0.375(8) 1 calc PR B 2 
C22' C 0.5334(4) 0.7948(6) 0.7156(2) 0.0254(13) Uani 0.375(8) 1 d PU B 2 
C23 C 0.4852(4) 0.7447(6) 0.6816(2) 0.0257(14) Uani 1 1 d . . . 
H23 H 0.4321 0.7733 0.6798 0.031 Uiso 1 1 calc R B 1 
C24 C 0.5132(4) 0.6503(6) 0.6485(2) 0.0241(13) Uani 1 1 d . B . 
C25 C 0.3819(4) 0.6176(6) 0.6159(2) 0.0260(14) Uani 1 1 d . . . 
C26 C 0.3145(4) 0.6376(7) 0.6210(2) 0.0305(15) Uani 1 1 d . C . 
C27 C 0.2062(4) 0.6913(8) 0.6961(2) 0.0370(17) Uani 1 1 d . C . 
H27A H 0.1588 0.7489 0.7009 0.044 Uiso 1 1 calc R . . 
H27B H 0.1995 0.5972 0.7113 0.044 Uiso 1 1 calc R . . 
C28 C 0.2751(5) 0.7685(8) 0.7201(2) 0.0387(17) Uani 1 1 d . . . 
H28A H 0.3229 0.7114 0.7145 0.046 Uiso 1 1 calc R C . 
C29 C 0.2870(6) 0.9209(9) 0.7014(3) 0.056(2) Uani 1 1 d . C . 
H29A H 0.2952 0.9151 0.6690 0.084 Uiso 1 1 calc R . . 
H29B H 0.3326 0.9652 0.7170 0.084 Uiso 1 1 calc R . . 
H29C H 0.2408 0.9797 0.7063 0.084 Uiso 1 1 calc R . . 
C30 C 0.2668(5) 0.7724(12) 0.7711(3) 0.059(3) Uani 1 1 d . C . 
H30A H 0.2625 0.6736 0.7826 0.089 Uiso 1 1 calc R . . 
H30B H 0.2199 0.8269 0.7779 0.089 Uiso 1 1 calc R . . 
H30C H 0.3126 0.8191 0.7857 0.089 Uiso 1 1 calc R . . 
C31 C 0.1582(4) 0.4824(7) 0.6204(3) 0.0350(16) Uani 1 1 d . C . 
H31A H 0.1038 0.4930 0.6293 0.042 Uiso 1 1 calc R . . 
H31B H 0.1564 0.4692 0.5873 0.042 Uiso 1 1 calc R . . 
C32 C 0.1914(4) 0.3432(8) 0.6423(3) 0.0398(17) Uani 1 1 d . . . 
H32A H 0.2123 0.3677 0.6734 0.048 Uiso 1 1 calc R C . 
C33 C 0.1275(5) 0.2292(9) 0.6465(3) 0.053(2) Uani 1 1 d . C . 
H33A H 0.1506 0.1396 0.6585 0.080 Uiso 1 1 calc R . . 
H33B H 0.1023 0.2105 0.6167 0.080 Uiso 1 1 calc R . . 
H33C H 0.0887 0.2645 0.6669 0.080 Uiso 1 1 calc R . . 
C34 C 0.2575(5) 0.2809(8) 0.6166(3) 0.047(2) Uani 1 1 d . C . 
H34A H 0.2796 0.1975 0.6330 0.070 Uiso 1 1 calc R . . 
H34B H 0.2978 0.3544 0.6137 0.070 Uiso 1 1 calc R . . 
H34C H 0.2377 0.2505 0.5866 0.070 Uiso 1 1 calc R . . 
C35 C 0.1637(5) 0.8082(8) 0.6000(3) 0.0384(17) Uani 0.789(15) 1 d PU C 1 
H35A H 0.1085 0.7835 0.5928 0.046 Uiso 0.789(15) 1 calc PR C 1 
H35B H 0.1648 0.8963 0.6189 0.046 Uiso 0.789(15) 1 calc PR C 1 
C36 C 0.2035(6) 0.8426(10) 0.5549(3) 0.040(3) Uani 0.789(15) 1 d PDU C 1 
H36 H 0.2580 0.8750 0.5626 0.048 Uiso 0.789(15) 1 calc PR C 1 
C37 C 0.1599(9) 0.9675(11) 0.5306(4) 0.060(4) Uani 0.789(15) 1 d PDU C 1 
H37A H 0.1881 0.9971 0.5043 0.091 Uiso 0.789(15) 1 calc PR C 1 
H37B H 0.1563 1.0494 0.5513 0.091 Uiso 0.789(15) 1 calc PR C 1 
H37C H 0.1074 0.9357 0.5208 0.091 Uiso 0.789(15) 1 calc PR C 1 
C38 C 0.2069(6) 0.7155(13) 0.5236(3) 0.039(2) Uani 0.789(15) 1 d PDU C 1 
H38A H 0.1549 0.6732 0.5191 0.059 Uiso 0.789(15) 1 calc PR C 1 
H38B H 0.2429 0.6432 0.5367 0.059 Uiso 0.789(15) 1 calc PR C 1 
H38C H 0.2251 0.7474 0.4945 0.059 Uiso 0.789(15) 1 calc PR C 1 
C35' C 0.1637(5) 0.8082(8) 0.6000(3) 0.0384(17) Uani 0.211(15) 1 d PU C 2 
H35C H 0.1146 0.8313 0.6143 0.046 Uiso 0.211(15) 1 calc PR C 2 
H35D H 0.1981 0.8930 0.6048 0.046 Uiso 0.211(15) 1 calc PR C 2 
C36' C 0.1450(15) 0.801(3) 0.5522(9) 0.025(8) Uiso 0.211(15) 1 d PDU C 2 
H36' H 0.1126 0.7127 0.5464 0.030 Uiso 0.211(15) 1 calc PR C 2 
C37' C 0.2206(17) 0.782(5) 0.5276(12) 0.030(9) Uiso 0.211(15) 1 d PDU C 2 
H37D H 0.2483 0.6963 0.5393 0.046 Uiso 0.211(15) 1 calc PR C 2 
H37E H 0.2535 0.8673 0.5325 0.046 Uiso 0.211(15) 1 calc PR C 2 
H37F H 0.2082 0.7698 0.4952 0.046 Uiso 0.211(15) 1 calc PR C 2 
C38' C 0.0994(19) 0.929(3) 0.5338(11) 0.035(9) Uiso 0.211(15) 1 d PDU C 2 
H38D H 0.0886 0.9159 0.5014 0.052 Uiso 0.211(15) 1 calc PR C 2 
H38E H 0.1298 1.0169 0.5392 0.052 Uiso 0.211(15) 1 calc PR C 2 
H38F H 0.0502 0.9357 0.5490 0.052 Uiso 0.211(15) 1 calc PR C 2 
C39 C 0.7052(4) 0.4914(6) 0.6191(2) 0.0281(14) Uani 1 1 d . B . 
C40 C 0.7745(4) 0.4751(7) 0.6206(2) 0.0322(15) Uani 1 1 d . . . 
C41 C 0.9282(4) 0.4749(7) 0.6785(2) 0.0308(15) Uani 1 1 d . . . 
H41A H 0.8948 0.4234 0.6994 0.037 Uiso 1 1 calc R B . 
H41B H 0.9784 0.4227 0.6789 0.037 Uiso 1 1 calc R . . 
C42 C 0.9442(5) 0.6240(8) 0.6980(3) 0.0384(17) Uani 1 1 d . B . 
H42A H 0.9752 0.6799 0.6764 0.046 Uiso 1 1 calc R . . 
C43 C 0.9917(5) 0.6130(9) 0.7431(3) 0.0437(19) Uani 1 1 d . . . 
H43A H 1.0410 0.5635 0.7384 0.066 Uiso 1 1 calc R B . 
H43B H 0.9621 0.5583 0.7647 0.066 Uiso 1 1 calc R . . 
H43C H 1.0024 0.7101 0.7549 0.066 Uiso 1 1 calc R . . 
C44 C 0.8685(5) 0.7060(8) 0.7052(3) 0.0450(19) Uani 1 1 d . . . 
H44A H 0.8381 0.7134 0.6765 0.068 Uiso 1 1 calc R B . 
H44B H 0.8808 0.8029 0.7167 0.068 Uiso 1 1 calc R . . 
H44C H 0.8382 0.6540 0.7271 0.068 Uiso 1 1 calc R . . 
C45 C 0.9229(4) 0.5980(7) 0.5829(2) 0.0339(16) Uani 1 1 d . . . 
H45A H 0.9116 0.6930 0.5963 0.041 Uiso 1 1 calc R B . 
H45B H 0.9802 0.5863 0.5846 0.041 Uiso 1 1 calc R . . 
C46 C 0.8968(4) 0.6046(8) 0.5330(3) 0.0392(17) Uani 1 1 d . B . 
H46A H 0.8989 0.5043 0.5207 0.047 Uiso 1 1 calc R . . 
C47 C 0.9508(6) 0.6975(9) 0.5066(3) 0.056(2) Uani 1 1 d . . . 
H47A H 1.0040 0.6595 0.5103 0.083 Uiso 1 1 calc R B . 
H47B H 0.9497 0.7968 0.5180 0.083 Uiso 1 1 calc R . . 
H47C H 0.9338 0.6962 0.4746 0.083 Uiso 1 1 calc R . . 
C48 C 0.8146(6) 0.6584(12) 0.5254(3) 0.068(3) Uani 1 1 d . . . 
H48A H 0.7784 0.5882 0.5375 0.102 Uiso 1 1 calc R B . 
H48B H 0.8027 0.6709 0.4930 0.102 Uiso 1 1 calc R . . 
H48C H 0.8090 0.7511 0.5408 0.102 Uiso 1 1 calc R . . 
C49 C 0.9079(4) 0.2727(7) 0.5984(2) 0.0309(15) Uani 1 1 d . . . 
H49A H 0.8825 0.2604 0.5680 0.037 Uiso 1 1 calc R B . 
H49B H 0.9648 0.2711 0.5949 0.037 Uiso 1 1 calc R . . 
C50 C 0.8867(5) 0.1409(7) 0.6273(3) 0.0381(17) Uani 1 1 d . B . 
H50A H 0.8963 0.1668 0.6598 0.046 Uiso 1 1 calc R . . 
C51 C 0.8018(5) 0.0993(8) 0.6197(3) 0.048(2) Uani 1 1 d . . . 
H51A H 0.7904 0.0164 0.6388 0.072 Uiso 1 1 calc R B . 
H51B H 0.7912 0.0737 0.5879 0.072 Uiso 1 1 calc R . . 
H51C H 0.7688 0.1809 0.6275 0.072 Uiso 1 1 calc R . . 
C52 C 0.9380(5) 0.0123(8) 0.6169(4) 0.057(2) Uani 1 1 d . . . 
H52A H 0.9225 -0.0711 0.6346 0.086 Uiso 1 1 calc R B . 
H52B H 0.9925 0.0362 0.6247 0.086 Uiso 1 1 calc R . . 
H52C H 0.9318 -0.0107 0.5847 0.086 Uiso 1 1 calc R . . 
 
loop_ 
 _atom_site_aniso_label 
 _atom_site_aniso_U_11 
 _atom_site_aniso_U_22 
 _atom_site_aniso_U_33 
 _atom_site_aniso_U_23 
 _atom_site_aniso_U_13 
 _atom_site_aniso_U_12 
Si1 0.0319(10) 0.0259(9) 0.0387(10) 0.0006(8) 0.0033(8) 0.0033(8) 
Si2 0.0306(10) 0.0172(8) 0.0384(10) 0.0005(7) 0.0032(8) 0.0012(7) 
C1 0.030(4) 0.013(3) 0.029(3) 0.004(2) 0.005(3) -0.001(3) 
C2 0.026(3) 0.013(3) 0.027(3) 0.003(2) 0.003(3) -0.001(2) 
C3 0.037(4) 0.016(3) 0.025(3) 0.006(2) 0.002(3) -0.001(3) 
C4 0.045(4) 0.016(3) 0.024(3) 0.004(2) 0.003(3) -0.005(3) 
C5 0.031(4) 0.019(3) 0.032(3) 0.003(3) 0.000(3) -0.003(3) 
C6 0.047(4) 0.016(3) 0.030(3) 0.002(2) 0.001(3) -0.008(3) 
S7 0.054(2) 0.0193(18) 0.028(2) -0.0026(12) -0.0017(16) -0.0068(13) 
C8 0.065(8) 0.012(7) 0.024(4) 0.000(4) 0.005(8) -0.007(9) 
I1 0.0739(12) 0.0171(4) 0.0296(4) -0.0017(3) 0.0032(5) -0.0077(5) 
C9 0.065(4) 0.017(4) 0.032(5) -0.003(3) 0.002(3) 0.003(3) 
C10 0.049(4) 0.016(3) 0.027(3) 0.002(2) 0.007(3) -0.004(3) 
C6' 0.047(4) 0.016(3) 0.030(3) 0.002(2) 0.001(3) -0.008(3) 
C7' 0.054(2) 0.0193(18) 0.028(2) -0.0026(12) -0.0017(16) -0.0068(13) 
I1' 0.100(4) 0.0214(9) 0.0304(9) -0.0019(6) 0.0009(12) -0.0159(13) 
C8' 0.065(8) 0.012(7) 0.024(4) 0.000(4) 0.005(8) -0.007(9) 
S9' 0.065(4) 0.017(4) 0.032(5) -0.003(3) 0.002(3) 0.003(3) 
C10' 0.049(4) 0.016(3) 0.027(3) 0.002(2) 0.007(3) -0.004(3) 
C11 0.038(4) 0.013(3) 0.035(4) 0.001(3) 0.004(3) 0.002(3) 
C12 0.036(4) 0.016(3) 0.025(3) 0.004(2) 0.001(3) -0.002(3) 
C13 0.032(4) 0.013(3) 0.032(3) 0.002(2) 0.004(3) 0.003(3) 
C14 0.029(3) 0.013(3) 0.024(3) 0.006(2) 0.005(3) -0.001(2) 
C15 0.030(4) 0.015(3) 0.028(3) 0.004(2) 0.002(3) 0.001(3) 
C16 0.035(4) 0.012(3) 0.032(3) 0.003(2) 0.002(3) -0.006(3) 
C17 0.027(3) 0.021(3) 0.035(4) 0.002(3) -0.005(3) -0.004(3) 
C18 0.039(4) 0.014(3) 0.035(3) 0.000(2) 0.001(3) -0.005(3) 
C19 0.039(9) 0.022(11) 0.052(13) -0.002(8) -0.011(7) 0.002(9) 
C20 0.046(7) 0.026(4) 0.031(4) -0.007(3) 0.001(6) -0.009(9) 
S21 0.048(2) 0.020(3) 0.026(3) -0.0029(18) 0.0033(18) 0.0002(17) 
C22 0.035(3) 0.013(3) 0.028(3) 0.001(2) 0.005(3) -0.002(3) 
C18' 0.039(4) 0.014(3) 0.035(3) 0.000(2) 0.001(3) -0.005(3) 
S19' 0.051(5) 0.033(5) 0.033(4) -0.014(3) -0.001(4) 0.001(5) 
C20' 0.046(7) 0.026(4) 0.031(4) -0.007(3) 0.001(6) -0.009(9) 
C21' 0.048(10) 0.018(19) 0.03(2) 0.000(12) 0.002(12) 0.001(11) 
C22' 0.035(3) 0.013(3) 0.028(3) 0.001(2) 0.005(3) -0.002(3) 
C23 0.036(4) 0.007(3) 0.035(3) 0.001(2) 0.007(3) 0.004(2) 
C24 0.031(3) 0.017(3) 0.024(3) 0.004(2) 0.002(3) 0.004(3) 
C25 0.035(4) 0.016(3) 0.027(3) 0.000(2) -0.001(3) -0.003(3) 
C26 0.040(4) 0.023(3) 0.028(3) -0.002(3) -0.001(3) -0.004(3) 
C27 0.027(4) 0.038(4) 0.046(4) -0.002(3) 0.010(3) 0.007(3) 
C28 0.044(4) 0.039(4) 0.034(4) -0.005(3) 0.008(3) 0.011(3) 
C29 0.073(7) 0.038(5) 0.056(5) -0.012(4) -0.009(5) 0.015(4) 
C30 0.054(5) 0.085(7) 0.039(5) -0.015(5) 0.002(4) 0.013(5) 
C31 0.030(4) 0.029(4) 0.046(4) 0.002(3) 0.005(3) 0.003(3) 
C32 0.044(4) 0.032(4) 0.044(4) 0.005(3) -0.001(3) 0.001(3) 
C33 0.037(5) 0.038(4) 0.087(7) 0.021(4) 0.019(4) 0.008(4) 
C34 0.047(5) 0.028(4) 0.065(5) 0.005(4) 0.007(4) -0.002(3) 
C35 0.042(4) 0.027(4) 0.046(4) 0.000(3) 0.004(3) 0.010(3) 
C36 0.044(6) 0.028(5) 0.048(5) 0.001(4) 0.000(4) -0.013(4) 
C37 0.096(11) 0.029(5) 0.056(7) 0.003(4) -0.002(6) 0.007(6) 
C38 0.044(6) 0.031(6) 0.042(5) -0.001(4) -0.003(4) -0.001(5) 
C35' 0.042(4) 0.027(4) 0.046(4) 0.000(3) 0.004(3) 0.010(3) 
C39 0.040(4) 0.015(3) 0.029(3) 0.000(2) 0.003(3) 0.001(3) 
C40 0.039(4) 0.020(3) 0.037(4) -0.002(3) 0.000(3) 0.000(3) 
C41 0.024(3) 0.026(3) 0.043(4) -0.002(3) 0.003(3) -0.005(3) 
C42 0.044(4) 0.028(4) 0.043(4) -0.003(3) 0.005(3) -0.001(3) 
C43 0.037(4) 0.042(4) 0.051(5) -0.011(4) -0.006(4) 0.001(3) 
C44 0.051(5) 0.030(4) 0.054(5) -0.010(3) 0.000(4) 0.002(4) 
C45 0.031(4) 0.025(3) 0.047(4) 0.003(3) 0.009(3) -0.002(3) 
C46 0.037(4) 0.034(4) 0.046(4) 0.005(3) 0.001(3) 0.004(3) 
C47 0.068(6) 0.046(5) 0.054(5) 0.016(4) 0.018(5) 0.007(4) 
C48 0.060(6) 0.090(8) 0.054(6) 0.034(5) 0.003(5) 0.001(6) 
C49 0.022(3) 0.029(4) 0.042(4) 0.001(3) 0.003(3) -0.005(3) 
C50 0.050(5) 0.022(3) 0.042(4) 0.001(3) -0.002(3) 0.006(3) 
C51 0.047(5) 0.030(4) 0.068(6) 0.004(4) 0.015(4) 0.000(4) 
C52 0.057(6) 0.019(4) 0.096(7) 0.000(4) -0.003(5) 0.009(4) 
 
_geom_special_details 
; 
 All esds (except the esd in the dihedral angle between two l.s. planes) 
 are estimated using the full covariance matrix.  The cell esds are taken 
 into account individually in the estimation of esds in distances, angles 
 and torsion angles; correlations between esds in cell parameters are only 
 used when they are defined by crystal symmetry.  An approximate (isotropic) 
 treatment of cell esds is used for estimating esds involving l.s. planes. 
; 
 
loop_ 
 _geom_bond_atom_site_label_1 
 _geom_bond_atom_site_label_2 
 _geom_bond_distance 
 _geom_bond_site_symmetry_2 
 _geom_bond_publ_flag 
Si1 C26 1.859(8) . ? 
Si1 C31 1.877(7) . ? 
Si1 C35 1.884(7) . ? 
Si1 C27 1.884(7) . ? 
Si2 C40 1.846(8) . ? 
Si2 C49 1.875(7) . ? 
Si2 C45 1.884(7) . ? 
Si2 C41 1.888(7) . ? 
C1 C24 1.413(9) . ? 
C1 C25 1.418(9) . ? 
C1 C2 1.423(9) . ? 
C2 C3 1.398(9) . ? 
C2 C14 1.437(9) . ? 
C3 C4 1.396(9) . ? 
C3 H3A 0.9500 . ? 
C4 C5 1.421(9) . ? 
C4 C12 1.445(10) . ? 
C5 C6 1.363(9) . ? 
C5 H5 0.9500 . ? 
C6 C10 1.427(10) . ? 
C6 S7 1.759(7) . ? 
S7 C8 1.746(15) . ? 
C8 C9 1.33(4) . ? 
C8 I1 2.089(17) . ? 
C9 C10 1.44(2) . ? 
C9 H9 0.9500 . ? 
C10 C11 1.364(10) . ? 
C7' C8' 1.45(6) . ? 
C7' H7' 0.9500 . ? 
I1' C8' 2.10(4) . ? 
C8' S9' 1.72(4) . ? 
C11 C12 1.423(9) . ? 
C11 H11A 0.9500 . ? 
C12 C13 1.388(9) . ? 
C13 C14 1.397(9) . ? 
C13 H13A 0.9500 . ? 
C14 C15 1.419(9) . ? 
C15 C16 1.418(9) . ? 
C15 C39 1.434(9) . ? 
C16 C17 1.420(9) . ? 
C16 C24 1.431(9) . ? 
C17 C18 1.364(9) . ? 
C17 H17A 0.9500 . ? 
C18 C22 1.432(10) . ? 
C18 C19 1.45(3) . ? 
C19 C20 1.39(4) . ? 
C19 H19 0.9500 . ? 
C20 S21 1.736(16) . ? 
C20 H20 0.9500 . ? 
S21 C22 1.764(7) . ? 
C22 C23 1.357(9) . ? 
S19' C20' 1.73(4) . ? 
C20' C21' 1.36(6) . ? 
C20' H20' 0.9500 . ? 
C21' H21' 0.9500 . ? 
C23 C24 1.417(8) . ? 
C23 H23 0.9500 . ? 
C25 C26 1.191(10) . ? 
C27 C28 1.529(11) . ? 
C27 H27A 0.9900 . ? 
C27 H27B 0.9900 . ? 
C28 C30 1.528(10) . ? 
C28 C29 1.536(12) . ? 
C28 H28A 1.0000 . ? 
C29 H29A 0.9800 . ? 
C29 H29B 0.9800 . ? 
C29 H29C 0.9800 . ? 
C30 H30A 0.9800 . ? 
C30 H30B 0.9800 . ? 
C30 H30C 0.9800 . ? 
C31 C32 1.541(10) . ? 
C31 H31A 0.9900 . ? 
C31 H31B 0.9900 . ? 
C32 C34 1.514(11) . ? 
C32 C33 1.534(11) . ? 
C32 H32A 1.0000 . ? 
C33 H33A 0.9800 . ? 
C33 H33B 0.9800 . ? 
C33 H33C 0.9800 . ? 
C34 H34A 0.9800 . ? 
C34 H34B 0.9800 . ? 
C34 H34C 0.9800 . ? 
C35 C36 1.567(12) . ? 
C35 H35A 0.9900 . ? 
C35 H35B 0.9900 . ? 
C36 C38 1.504(14) . ? 
C36 C37 1.539(14) . ? 
C36 H36 1.0000 . ? 
C37 H37A 0.9800 . ? 
C37 H37B 0.9800 . ? 
C37 H37C 0.9800 . ? 
C38 H38A 0.9800 . ? 
C38 H38B 0.9800 . ? 
C38 H38C 0.9800 . ? 
C36' C38' 1.51(2) . ? 
C36' C37' 1.53(2) . ? 
C36' H36' 1.0000 . ? 
C37' H37D 0.9800 . ? 
C37' H37E 0.9800 . ? 
C37' H37F 0.9800 . ? 
C38' H38D 0.9800 . ? 
C38' H38E 0.9800 . ? 
C38' H38F 0.9800 . ? 
C39 C40 1.201(10) . ? 
C41 C42 1.519(9) . ? 
C41 H41A 0.9900 . ? 
C41 H41B 0.9900 . ? 
C42 C44 1.533(11) . ? 
C42 C43 1.535(10) . ? 
C42 H42A 1.0000 . ? 
C43 H43A 0.9800 . ? 
C43 H43B 0.9800 . ? 
C43 H43C 0.9800 . ? 
C44 H44A 0.9800 . ? 
C44 H44B 0.9800 . ? 
C44 H44C 0.9800 . ? 
C45 C46 1.525(10) . ? 
C45 H45A 0.9900 . ? 
C45 H45B 0.9900 . ? 
C46 C48 1.506(12) . ? 
C46 C47 1.515(11) . ? 
C46 H46A 1.0000 . ? 
C47 H47A 0.9800 . ? 
C47 H47B 0.9800 . ? 
C47 H47C 0.9800 . ? 
C48 H48A 0.9800 . ? 
C48 H48B 0.9800 . ? 
C48 H48C 0.9800 . ? 
C49 C50 1.546(10) . ? 
C49 H49A 0.9900 . ? 
C49 H49B 0.9900 . ? 
C50 C51 1.517(11) . ? 
C50 C52 1.523(10) . ? 
C50 H50A 1.0000 . ? 
C51 H51A 0.9800 . ? 
C51 H51B 0.9800 . ? 
C51 H51C 0.9800 . ? 
C52 H52A 0.9800 . ? 
C52 H52B 0.9800 . ? 
C52 H52C 0.9800 . ? 
 
loop_ 
 _geom_angle_atom_site_label_1 
 _geom_angle_atom_site_label_2 
 _geom_angle_atom_site_label_3 
 _geom_angle 
 _geom_angle_site_symmetry_1 
 _geom_angle_site_symmetry_3 
 _geom_angle_publ_flag 
C26 Si1 C31 109.4(3) . . ? 
C26 Si1 C35 110.4(3) . . ? 
C31 Si1 C35 110.1(3) . . ? 
C26 Si1 C27 107.6(3) . . ? 
C31 Si1 C27 108.3(3) . . ? 
C35 Si1 C27 111.0(3) . . ? 
C40 Si2 C49 110.7(3) . . ? 
C40 Si2 C45 110.2(3) . . ? 
C49 Si2 C45 109.1(3) . . ? 
C40 Si2 C41 111.1(3) . . ? 
C49 Si2 C41 107.4(3) . . ? 
C45 Si2 C41 108.2(3) . . ? 
C24 C1 C25 118.4(6) . . ? 
C24 C1 C2 121.4(6) . . ? 
C25 C1 C2 120.0(6) . . ? 
C3 C2 C1 121.8(6) . . ? 
C3 C2 C14 119.7(6) . . ? 
C1 C2 C14 118.5(6) . . ? 
C4 C3 C2 121.6(6) . . ? 
C4 C3 H3A 119.2 . . ? 
C2 C3 H3A 119.2 . . ? 
C3 C4 C5 122.1(7) . . ? 
C3 C4 C12 119.1(6) . . ? 
C5 C4 C12 118.8(6) . . ? 
C6 C5 C4 120.1(7) . . ? 
C6 C5 H5 120.0 . . ? 
C4 C5 H5 120.0 . . ? 
C5 C6 C10 121.1(6) . . ? 
C5 C6 S7 127.3(6) . . ? 
C10 C6 S7 111.6(5) . . ? 
C8 S7 C6 89.4(7) . . ? 
C9 C8 S7 115.4(15) . . ? 
C9 C8 I1 126.1(13) . . ? 
S7 C8 I1 118.5(8) . . ? 
C8 C9 C10 113(2) . . ? 
C8 C9 H9 123.7 . . ? 
C10 C9 H9 123.7 . . ? 
C11 C10 C6 120.7(6) . . ? 
C11 C10 C9 128.2(15) . . ? 
C6 C10 C9 111.1(15) . . ? 
C8' C7' H7' 126.5 . . ? 
C7' C8' S9' 117(3) . . ? 
C7' C8' I1' 127(3) . . ? 
S9' C8' I1' 115.5(18) . . ? 
C10 C11 C12 119.9(7) . . ? 
C10 C11 H11A 120.0 . . ? 
C12 C11 H11A 120.0 . . ? 
C13 C12 C11 122.1(6) . . ? 
C13 C12 C4 118.6(6) . . ? 
C11 C12 C4 119.3(6) . . ? 
C12 C13 C14 122.9(6) . . ? 
C12 C13 H13A 118.6 . . ? 
C14 C13 H13A 118.6 . . ? 
C13 C14 C15 121.6(6) . . ? 
C13 C14 C2 118.2(6) . . ? 
C15 C14 C2 120.1(5) . . ? 
C16 C15 C14 120.7(6) . . ? 
C16 C15 C39 118.3(6) . . ? 
C14 C15 C39 121.1(6) . . ? 
C15 C16 C17 121.1(6) . . ? 
C15 C16 C24 119.4(6) . . ? 
C17 C16 C24 119.5(6) . . ? 
C18 C17 C16 120.2(6) . . ? 
C18 C17 H17A 119.9 . . ? 
C16 C17 H17A 119.9 . . ? 
C17 C18 C22 120.2(6) . . ? 
C17 C18 C19 129.8(16) . . ? 
C22 C18 C19 110.0(15) . . ? 
C20 C19 C18 114(2) . . ? 
C20 C19 H19 122.9 . . ? 
C18 C19 H19 122.9 . . ? 
C19 C20 S21 112.0(16) . . ? 
C19 C20 H20 124.0 . . ? 
S21 C20 H20 124.0 . . ? 
C20 S21 C22 91.6(8) . . ? 
C23 C22 C18 120.7(6) . . ? 
C23 C22 S21 127.3(6) . . ? 
C18 C22 S21 112.0(5) . . ? 
C21' C20' S19' 119(3) . . ? 
C21' C20' H20' 120.7 . . ? 
S19' C20' H20' 120.7 . . ? 
C20' C21' H21' 125.7 . . ? 
C22 C23 C24 120.7(6) . . ? 
C22 C23 H23 119.7 . . ? 
C24 C23 H23 119.7 . . ? 
C1 C24 C23 121.5(6) . . ? 
C1 C24 C16 119.8(6) . . ? 
C23 C24 C16 118.7(6) . . ? 
C26 C25 C1 173.7(7) . . ? 
C25 C26 Si1 174.4(6) . . ? 
C28 C27 Si1 118.1(5) . . ? 
C28 C27 H27A 107.8 . . ? 
Si1 C27 H27A 107.8 . . ? 
C28 C27 H27B 107.8 . . ? 
Si1 C27 H27B 107.8 . . ? 
H27A C27 H27B 107.1 . . ? 
C30 C28 C27 111.3(7) . . ? 
C30 C28 C29 111.0(7) . . ? 
C27 C28 C29 112.1(7) . . ? 
C30 C28 H28A 107.4 . . ? 
C27 C28 H28A 107.4 . . ? 
C29 C28 H28A 107.4 . . ? 
C28 C29 H29A 109.5 . . ? 
C28 C29 H29B 109.5 . . ? 
H29A C29 H29B 109.5 . . ? 
C28 C29 H29C 109.5 . . ? 
H29A C29 H29C 109.5 . . ? 
H29B C29 H29C 109.5 . . ? 
C28 C30 H30A 109.5 . . ? 
C28 C30 H30B 109.5 . . ? 
H30A C30 H30B 109.5 . . ? 
C28 C30 H30C 109.5 . . ? 
H30A C30 H30C 109.5 . . ? 
H30B C30 H30C 109.5 . . ? 
C32 C31 Si1 117.8(5) . . ? 
C32 C31 H31A 107.8 . . ? 
Si1 C31 H31A 107.8 . . ? 
C32 C31 H31B 107.8 . . ? 
Si1 C31 H31B 107.8 . . ? 
H31A C31 H31B 107.2 . . ? 
C34 C32 C33 109.8(7) . . ? 
C34 C32 C31 112.3(6) . . ? 
C33 C32 C31 111.0(6) . . ? 
C34 C32 H32A 107.9 . . ? 
C33 C32 H32A 107.9 . . ? 
C31 C32 H32A 107.9 . . ? 
C32 C33 H33A 109.5 . . ? 
C32 C33 H33B 109.5 . . ? 
H33A C33 H33B 109.5 . . ? 
C32 C33 H33C 109.5 . . ? 
H33A C33 H33C 109.5 . . ? 
H33B C33 H33C 109.5 . . ? 
C32 C34 H34A 109.5 . . ? 
C32 C34 H34B 109.5 . . ? 
H34A C34 H34B 109.5 . . ? 
C32 C34 H34C 109.5 . . ? 
H34A C34 H34C 109.5 . . ? 
H34B C34 H34C 109.5 . . ? 
C36 C35 Si1 114.5(6) . . ? 
C36 C35 H35A 108.6 . . ? 
Si1 C35 H35A 108.6 . . ? 
C36 C35 H35B 108.6 . . ? 
Si1 C35 H35B 108.6 . . ? 
H35A C35 H35B 107.6 . . ? 
C38 C36 C37 109.5(8) . . ? 
C38 C36 C35 113.6(8) . . ? 
C37 C36 C35 109.2(9) . . ? 
C38 C36 H36 108.1 . . ? 
C37 C36 H36 108.1 . . ? 
C35 C36 H36 108.1 . . ? 
C38' C36' C37' 111(2) . . ? 
C38' C36' H36' 107.6 . . ? 
C37' C36' H36' 107.6 . . ? 
C36' C37' H37D 109.5 . . ? 
C36' C37' H37E 109.5 . . ? 
H37D C37' H37E 109.5 . . ? 
C36' C37' H37F 109.5 . . ? 
H37D C37' H37F 109.5 . . ? 
H37E C37' H37F 109.5 . . ? 
C36' C38' H38D 109.5 . . ? 
C36' C38' H38E 109.5 . . ? 
H38D C38' H38E 109.5 . . ? 
C36' C38' H38F 109.5 . . ? 
H38D C38' H38F 109.5 . . ? 
H38E C38' H38F 109.5 . . ? 
C40 C39 C15 176.3(7) . . ? 
C39 C40 Si2 176.9(6) . . ? 
C42 C41 Si2 120.0(5) . . ? 
C42 C41 H41A 107.3 . . ? 
Si2 C41 H41A 107.3 . . ? 
C42 C41 H41B 107.3 . . ? 
Si2 C41 H41B 107.3 . . ? 
H41A C41 H41B 106.9 . . ? 
C41 C42 C44 111.4(6) . . ? 
C41 C42 C43 110.6(6) . . ? 
C44 C42 C43 109.3(6) . . ? 
C41 C42 H42A 108.5 . . ? 
C44 C42 H42A 108.5 . . ? 
C43 C42 H42A 108.5 . . ? 
C42 C43 H43A 109.5 . . ? 
C42 C43 H43B 109.5 . . ? 
H43A C43 H43B 109.5 . . ? 
C42 C43 H43C 109.5 . . ? 
H43A C43 H43C 109.5 . . ? 
H43B C43 H43C 109.5 . . ? 
C42 C44 H44A 109.5 . . ? 
C42 C44 H44B 109.5 . . ? 
H44A C44 H44B 109.5 . . ? 
C42 C44 H44C 109.5 . . ? 
H44A C44 H44C 109.5 . . ? 
H44B C44 H44C 109.5 . . ? 
C46 C45 Si2 119.5(5) . . ? 
C46 C45 H45A 107.5 . . ? 
Si2 C45 H45A 107.5 . . ? 
C46 C45 H45B 107.5 . . ? 
Si2 C45 H45B 107.5 . . ? 
H45A C45 H45B 107.0 . . ? 
C48 C46 C47 109.3(7) . . ? 
C48 C46 C45 112.8(7) . . ? 
C47 C46 C45 111.5(7) . . ? 
C48 C46 H46A 107.7 . . ? 
C47 C46 H46A 107.7 . . ? 
C45 C46 H46A 107.7 . . ? 
C46 C47 H47A 109.5 . . ? 
C46 C47 H47B 109.5 . . ? 
H47A C47 H47B 109.5 . . ? 
C46 C47 H47C 109.5 . . ? 
H47A C47 H47C 109.5 . . ? 
H47B C47 H47C 109.5 . . ? 
C46 C48 H48A 109.5 . . ? 
C46 C48 H48B 109.5 . . ? 
H48A C48 H48B 109.5 . . ? 
C46 C48 H48C 109.5 . . ? 
H48A C48 H48C 109.5 . . ? 
H48B C48 H48C 109.5 . . ? 
C50 C49 Si2 117.1(5) . . ? 
C50 C49 H49A 108.0 . . ? 
Si2 C49 H49A 108.0 . . ? 
C50 C49 H49B 108.0 . . ? 
Si2 C49 H49B 108.0 . . ? 
H49A C49 H49B 107.3 . . ? 
C51 C50 C52 109.5(6) . . ? 
C51 C50 C49 111.8(6) . . ? 
C52 C50 C49 110.5(7) . . ? 
C51 C50 H50A 108.3 . . ? 
C52 C50 H50A 108.3 . . ? 
C49 C50 H50A 108.3 . . ? 
C50 C51 H51A 109.5 . . ? 
C50 C51 H51B 109.5 . . ? 
H51A C51 H51B 109.5 . . ? 
C50 C51 H51C 109.5 . . ? 
H51A C51 H51C 109.5 . . ? 
H51B C51 H51C 109.5 . . ? 
C50 C52 H52A 109.5 . . ? 
C50 C52 H52B 109.5 . . ? 
H52A C52 H52B 109.5 . . ? 
C50 C52 H52C 109.5 . . ? 
H52A C52 H52C 109.5 . . ? 
H52B C52 H52C 109.5 . . ? 
 
loop_ 
 _geom_torsion_atom_site_label_1 
 _geom_torsion_atom_site_label_2 
 _geom_torsion_atom_site_label_3 
 _geom_torsion_atom_site_label_4 
 _geom_torsion 
 _geom_torsion_site_symmetry_1 
 _geom_torsion_site_symmetry_2 
 _geom_torsion_site_symmetry_3 
 _geom_torsion_site_symmetry_4 
 _geom_torsion_publ_flag 
C24 C1 C2 C3 177.9(6) . . . . ? 
C25 C1 C2 C3 3.1(9) . . . . ? 
C24 C1 C2 C14 -1.7(9) . . . . ? 
C25 C1 C2 C14 -176.5(5) . . . . ? 
C1 C2 C3 C4 -178.0(6) . . . . ? 
C14 C2 C3 C4 1.6(9) . . . . ? 
C2 C3 C4 C5 179.3(6) . . . . ? 
C2 C3 C4 C12 -0.7(9) . . . . ? 
C3 C4 C5 C6 -179.8(6) . . . . ? 
C12 C4 C5 C6 0.1(9) . . . . ? 
C4 C5 C6 C10 -0.4(9) . . . . ? 
C4 C5 C6 S7 -179.3(5) . . . . ? 
C5 C6 S7 C8 179.0(12) . . . . ? 
C10 C6 S7 C8 0.0(11) . . . . ? 
C6 S7 C8 C9 1(3) . . . . ? 
C6 S7 C8 I1 -177.8(16) . . . . ? 
S7 C8 C9 C10 -1(4) . . . . ? 
I1 C8 C9 C10 177(2) . . . . ? 
C5 C6 C10 C11 1.4(10) . . . . ? 
S7 C6 C10 C11 -179.5(5) . . . . ? 
C5 C6 C10 C9 -179.6(19) . . . . ? 
S7 C6 C10 C9 0(2) . . . . ? 
C8 C9 C10 C11 180(2) . . . . ? 
C8 C9 C10 C6 1(4) . . . . ? 
C6 C10 C11 C12 -2.1(9) . . . . ? 
C9 C10 C11 C12 179(2) . . . . ? 
C10 C11 C12 C13 -178.1(6) . . . . ? 
C10 C11 C12 C4 1.8(9) . . . . ? 
C3 C4 C12 C13 -0.9(9) . . . . ? 
C5 C4 C12 C13 179.2(6) . . . . ? 
C3 C4 C12 C11 179.1(6) . . . . ? 
C5 C4 C12 C11 -0.8(9) . . . . ? 
C11 C12 C13 C14 -178.4(6) . . . . ? 
C4 C12 C13 C14 1.6(9) . . . . ? 
C12 C13 C14 C15 177.0(6) . . . . ? 
C12 C13 C14 C2 -0.7(9) . . . . ? 
C3 C2 C14 C13 -0.9(8) . . . . ? 
C1 C2 C14 C13 178.7(5) . . . . ? 
C3 C2 C14 C15 -178.6(5) . . . . ? 
C1 C2 C14 C15 1.0(8) . . . . ? 
C13 C14 C15 C16 -176.0(6) . . . . ? 
C2 C14 C15 C16 1.6(9) . . . . ? 
C13 C14 C15 C39 3.5(9) . . . . ? 
C2 C14 C15 C39 -178.8(5) . . . . ? 
C14 C15 C16 C17 176.4(6) . . . . ? 
C39 C15 C16 C17 -3.2(9) . . . . ? 
C14 C15 C16 C24 -3.5(9) . . . . ? 
C39 C15 C16 C24 176.9(5) . . . . ? 
C15 C16 C17 C18 -179.1(6) . . . . ? 
C24 C16 C17 C18 0.8(9) . . . . ? 
C16 C17 C18 C22 -0.6(9) . . . . ? 
C16 C17 C18 C19 178(3) . . . . ? 
C17 C18 C19 C20 178(2) . . . . ? 
C22 C18 C19 C20 -3(5) . . . . ? 
C18 C19 C20 S21 5(5) . . . . ? 
C19 C20 S21 C22 -3(3) . . . . ? 
C17 C18 C22 C23 -1.2(9) . . . . ? 
C19 C18 C22 C23 -180(2) . . . . ? 
C17 C18 C22 S21 179.2(7) . . . . ? 
C19 C18 C22 S21 1(2) . . . . ? 
C20 S21 C22 C23 -178.0(12) . . . . ? 
C20 S21 C22 C18 1.5(13) . . . . ? 
C18 C22 C23 C24 2.9(9) . . . . ? 
S21 C22 C23 C24 -177.7(8) . . . . ? 
C25 C1 C24 C23 -3.2(9) . . . . ? 
C2 C1 C24 C23 -178.1(5) . . . . ? 
C25 C1 C24 C16 174.7(5) . . . . ? 
C2 C1 C24 C16 -0.1(9) . . . . ? 
C22 C23 C24 C1 175.3(6) . . . . ? 
C22 C23 C24 C16 -2.7(9) . . . . ? 
C15 C16 C24 C1 2.8(9) . . . . ? 
C17 C16 C24 C1 -177.1(6) . . . . ? 
C15 C16 C24 C23 -179.3(5) . . . . ? 
C17 C16 C24 C23 0.8(9) . . . . ? 
C24 C1 C25 C26 -52(6) . . . . ? 
C2 C1 C25 C26 123(6) . . . . ? 
C1 C25 C26 Si1 -22(11) . . . . ? 
C31 Si1 C26 C25 -68(6) . . . . ? 
C35 Si1 C26 C25 170(6) . . . . ? 
C27 Si1 C26 C25 49(6) . . . . ? 
C26 Si1 C27 C28 28.9(6) . . . . ? 
C31 Si1 C27 C28 147.1(5) . . . . ? 
C35 Si1 C27 C28 -92.0(6) . . . . ? 
Si1 C27 C28 C30 -173.3(6) . . . . ? 
Si1 C27 C28 C29 61.7(8) . . . . ? 
C26 Si1 C31 C32 54.2(6) . . . . ? 
C35 Si1 C31 C32 175.7(5) . . . . ? 
C27 Si1 C31 C32 -62.8(6) . . . . ? 
Si1 C31 C32 C34 -82.5(8) . . . . ? 
Si1 C31 C32 C33 154.2(6) . . . . ? 
C26 Si1 C35 C36 25.8(7) . . . . ? 
C31 Si1 C35 C36 -95.1(6) . . . . ? 
C27 Si1 C35 C36 145.0(6) . . . . ? 
Si1 C35 C36 C38 57.2(10) . . . . ? 
Si1 C35 C36 C37 179.8(7) . . . . ? 
C16 C15 C39 C40 -50(11) . . . . ? 
C14 C15 C39 C40 130(11) . . . . ? 
C15 C39 C40 Si2 -63(19) . . . . ? 
C49 Si2 C40 C39 -99(12) . . . . ? 
C45 Si2 C40 C39 21(12) . . . . ? 
C41 Si2 C40 C39 141(12) . . . . ? 
C40 Si2 C41 C42 -82.0(6) . . . . ? 
C49 Si2 C41 C42 156.8(5) . . . . ? 
C45 Si2 C41 C42 39.1(6) . . . . ? 
Si2 C41 C42 C44 65.5(8) . . . . ? 
Si2 C41 C42 C43 -172.8(5) . . . . ? 
C40 Si2 C45 C46 -60.0(6) . . . . ? 
C49 Si2 C45 C46 61.7(6) . . . . ? 
C41 Si2 C45 C46 178.3(5) . . . . ? 
Si2 C45 C46 C48 71.6(8) . . . . ? 
Si2 C45 C46 C47 -165.0(5) . . . . ? 
C40 Si2 C49 C50 -65.0(6) . . . . ? 
C45 Si2 C49 C50 173.6(5) . . . . ? 
C41 Si2 C49 C50 56.5(6) . . . . ? 
Si2 C49 C50 C51 80.2(7) . . . . ? 
Si2 C49 C50 C52 -157.5(6) . . . . ? 
 
_diffrn_measured_fraction_theta_max    0.977 
_diffrn_reflns_theta_full              68.23 
_diffrn_measured_fraction_theta_full   0.977 
_refine_diff_density_max    0.544 
_refine_diff_density_min   -0.844 
_refine_diff_density_rms    0.109 
