 
data_x07117x 
 
_audit_creation_method            SHELXL-97 
_chemical_name_systematic 
; 
 ? 
; 
_chemical_name_common             ? 
_chemical_melting_point           ? 
_chemical_formula_moiety 
 'C38 H42 S2 Si2' 
_chemical_formula_sum 
 'C38 H42 S2 Si2' 
_chemical_formula_weight          619.04 
 
loop_ 
 _atom_type_symbol 
 _atom_type_description 
 _atom_type_scat_dispersion_real 
 _atom_type_scat_dispersion_imag 
 _atom_type_scat_source 
 'C'  'C'   0.0181   0.0091 
 'International Tables Vol C Tables 4.2.6.8 and 6.1.1.4' 
 'H'  'H'   0.0000   0.0000 
 'International Tables Vol C Tables 4.2.6.8 and 6.1.1.4' 
 'Si'  'Si'   0.2541   0.3302 
 'International Tables Vol C Tables 4.2.6.8 and 6.1.1.4' 
 'S'  'S'   0.3331   0.5567 
 'International Tables Vol C Tables 4.2.6.8 and 6.1.1.4' 
 
_symmetry_cell_setting            triclinic
_symmetry_space_group_name_H-M    'P -1'
_symmetry_space_group_name_Hall   '-P 1'
 
loop_ 
 _symmetry_equiv_pos_as_xyz 
 'x, y, z' 
 '-x, -y, -z' 
 
_cell_length_a                    7.2504(6) 
_cell_length_b                    10.5561(8) 
_cell_length_c                    11.2290(7) 
_cell_angle_alpha                 94.585(4) 
_cell_angle_beta                  90.296(4) 
_cell_angle_gamma                 102.419(4) 
_cell_volume                      836.41(11) 
_cell_formula_units_Z             1 
_cell_measurement_temperature     90.0(2) 
_cell_measurement_reflns_used     4818
_cell_measurement_theta_min       3.95
_cell_measurement_theta_max       68.82
 
_exptl_crystal_description        lath
_exptl_crystal_colour             red
_exptl_crystal_size_max           0.22 
_exptl_crystal_size_mid           0.06 
_exptl_crystal_size_min           0.01 
_exptl_crystal_density_meas       ? 
_exptl_crystal_density_diffrn     1.229 
_exptl_crystal_density_method     'not measured' 
_exptl_crystal_F_000              330 
_exptl_absorpt_coefficient_mu     2.310 
_exptl_absorpt_correction_type    multi-scan 
_exptl_absorpt_correction_T_min   0.624
_exptl_absorpt_correction_T_max   0.979 
_exptl_absorpt_process_details    'Sadabs in APEX2 (BrukerAXS, 2006)' 
 
_exptl_special_details 
; 
 ? 
; 
 
_diffrn_ambient_temperature       90.0(2) 
_diffrn_radiation_wavelength      1.54178 
_diffrn_radiation_type            CuK\a 
_diffrn_radiation_source          'fine-focus rotating anode' 
_diffrn_radiation_monochromator   'graded multilayer optics' 
_diffrn_measurement_device_type   'Bruker X8 Proteum diffractometer'
_diffrn_measurement_method        '\f and \w scans'            
_diffrn_detector_area_resol_mean  18
_diffrn_standards_number          0 
_diffrn_standards_interval_count  . 
_diffrn_standards_interval_time   . 
_diffrn_standards_decay_%         ? 
_diffrn_reflns_number             3074 
_diffrn_reflns_av_R_equivalents   0.0455
_diffrn_reflns_av_sigmaI/netI     0.0443 
_diffrn_reflns_limit_h_min        -8 
_diffrn_reflns_limit_h_max        8 
_diffrn_reflns_limit_k_min        -12 
_diffrn_reflns_limit_k_max        12 
_diffrn_reflns_limit_l_min        0 
_diffrn_reflns_limit_l_max        13 
_diffrn_reflns_theta_min          3.95 
_diffrn_reflns_theta_max          69.26 
_reflns_number_total              3074 
_reflns_number_gt                 2342 
_reflns_threshold_expression      >2\s(I)    
 
_computing_data_collection        'APEX2 (Bruker-AXS, 2006)'            
_computing_cell_refinement        'APEX2'            
_computing_data_reduction         'APEX2'            
_computing_structure_solution     'SHELXS-97 (Sheldrick, 1997)' 
_computing_structure_refinement   'SHELXL-97 (Sheldrick, 1997)' 
_computing_molecular_graphics     'XP in SHELXTL (Sheldrick, 1994)'
_computing_publication_material
; 
SHELX97-2 (Sheldrick, 1997) and local procedures 
; 
 
_refine_special_details 
; 
 Refinement of F^2^ against ALL reflections.  The weighted R-factor wR and 
 goodness of fit S are based on F^2^, conventional R-factors R are based 
 on F, with F set to zero for negative F^2^. The threshold expression of 
 F^2^ > 2\s(F^2^) is used only for calculating R-factors(gt) etc. and is 
 not relevant to the choice of reflections for refinement.  R-factors based 
 on F^2^ are statistically about twice as large as those based on F, and R- 
 factors based on ALL data will be even larger.
 
 The restraints used in this refinement were to ensure similar geometries
 and thermal parameters for the disordered groups (instructions SAME, SIMU
 and DELU in SHELXL97). 
;

_publ_section_exptl_refinement
;
H atoms were found in difference Fourier maps and subsequently placed in
idealized positions with constrained C-H distances of 0.98 \%A (RCH~3~),
0.99 \%A (R~2~CH~2~) and 0.95 \%A (C~sp2~H) with U~iso~(H) values set to 
either 1.5U~eq~ (RCH~3~) or 1.2U~eq~ of the attached atom.
;
 
 
_refine_ls_structure_factor_coef  Fsqd  
_refine_ls_matrix_type            full 
_refine_ls_weighting_scheme       calc  
_refine_ls_weighting_details 
 'calc w=1/[\s^2^(Fo^2^)+(0.0717P)^2^+0.9236P] where P=(Fo^2^+2Fc^2^)/3' 
_atom_sites_solution_primary      direct 
_atom_sites_solution_secondary    difmap 
_atom_sites_solution_hydrogens    geom 
_refine_ls_hydrogen_treatment     constr 
_refine_ls_extinction_method      none 
_refine_ls_extinction_coef        ? 
_refine_ls_number_reflns          3074 
_refine_ls_number_parameters      239 
_refine_ls_number_restraints      124 
_refine_ls_R_factor_all           0.0770 
_refine_ls_R_factor_gt            0.0523 
_refine_ls_wR_factor_ref          0.1547 
_refine_ls_wR_factor_gt           0.1311 
_refine_ls_goodness_of_fit_ref    1.025 
_refine_ls_restrained_S_all       1.012 
_refine_ls_shift/su_max           0.001 
_refine_ls_shift/su_mean          0.000 
 
loop_ 
 _atom_site_label 
 _atom_site_type_symbol 
 _atom_site_fract_x 
 _atom_site_fract_y 
 _atom_site_fract_z 
 _atom_site_U_iso_or_equiv 
 _atom_site_adp_type 
 _atom_site_occupancy 
 _atom_site_symmetry_multiplicity 
 _atom_site_calc_flag 
 _atom_site_refinement_flags 
 _atom_site_disorder_assembly 
 _atom_site_disorder_group 
Si1 Si 0.22000(11) 0.21276(7) 0.90944(6) 0.0327(2) Uani 1 1 d . . . 
C1 C 0.4479(4) 0.4347(3) 0.6030(2) 0.0353(7) Uani 1 1 d . . . 
C2 C 0.6002(4) 0.4077(3) 0.5365(2) 0.0357(6) Uani 1 1 d . B . 
C3 C 0.7029(4) 0.3169(3) 0.5708(2) 0.0379(7) Uani 1 1 d . . . 
H3 H 0.6685 0.2722 0.6402 0.046 Uiso 1 1 calc R A 1 
C4 C 0.8511(4) 0.2928(3) 0.5054(2) 0.0385(7) Uani 0.50 1 d PDU B 1 
S5 S 0.9979(6) 0.1864(4) 0.5251(4) 0.0395(7) Uani 0.50 1 d PDU B 1 
C6 C 1.1336(9) 0.2335(6) 0.4023(5) 0.0376(15) Uani 0.50 1 d PDU B 1 
C7 C 1.065(3) 0.324(2) 0.343(2) 0.031(2) Uani 0.50 1 d PDU B 1 
H7 H 1.1183 0.3584 0.2722 0.037 Uiso 0.50 1 calc PR B 1 
C8 C 0.9040(4) 0.3594(3) 0.4006(2) 0.0383(6) Uani 0.50 1 d PDU B 1 
C4' C 0.8511(4) 0.2928(3) 0.5054(2) 0.0385(7) Uani 0.50 1 d PDU B 2 
C5' C 0.972(2) 0.2084(16) 0.5348(18) 0.043(3) Uani 0.50 1 d PDU B 2 
H5' H 0.9626 0.1621 0.6044 0.052 Uiso 0.50 1 calc PR B 2 
C6' C 1.1045(10) 0.2039(6) 0.4487(5) 0.0387(15) Uani 0.50 1 d PDU B 2 
S7' S 1.0903(8) 0.3093(6) 0.3378(6) 0.0405(8) Uani 0.50 1 d PDU B 2 
C8' C 0.9040(4) 0.3594(3) 0.4006(2) 0.0383(6) Uani 0.50 1 d PDU B 2 
C9 C 0.8069(4) 0.4476(3) 0.3653(2) 0.0373(7) Uani 1 1 d . . . 
H9 H 0.8431 0.4913 0.2956 0.045 Uiso 1 1 calc R B 1 
C10 C 0.6537(4) 0.4743(3) 0.4313(2) 0.0355(6) Uani 1 1 d . . . 
C11 C 0.3906(4) 0.3663(3) 0.7059(2) 0.0364(7) Uani 1 1 d . . . 
C12 C 0.3358(4) 0.3083(3) 0.7905(2) 0.0352(6) Uani 1 1 d . . . 
C13 C 0.0282(5) 0.2914(4) 0.9665(3) 0.0537(9) Uani 1 1 d . . . 
H13A H -0.0336 0.2436 1.0330 0.064 Uiso 1 1 calc R . . 
H13B H 0.0844 0.3816 0.9988 0.064 Uiso 1 1 calc R . . 
C14 C -0.1206(5) 0.2950(4) 0.8717(3) 0.0609(10) Uani 1 1 d . . . 
H14A H -0.0599 0.3396 0.8042 0.091 Uiso 1 1 calc R . . 
H14B H -0.2134 0.3419 0.9058 0.091 Uiso 1 1 calc R . . 
H14C H -0.1843 0.2059 0.8439 0.091 Uiso 1 1 calc R . . 
C15 C 0.3942(5) 0.2082(3) 1.0294(3) 0.0424(7) Uani 1 1 d . . . 
H15A H 0.3300 0.1521 1.0901 0.051 Uiso 1 1 calc R . . 
H15B H 0.4942 0.1669 0.9947 0.051 Uiso 1 1 calc R . . 
C16 C 0.4869(5) 0.3389(3) 1.0917(3) 0.0468(8) Uani 1 1 d . . . 
H16A H 0.5531 0.3952 1.0330 0.070 Uiso 1 1 calc R . . 
H16B H 0.5774 0.3269 1.1526 0.070 Uiso 1 1 calc R . . 
H16C H 0.3901 0.3795 1.1297 0.070 Uiso 1 1 calc R . . 
C17 C 0.1256(5) 0.0456(3) 0.8391(3) 0.0459(8) Uani 1 1 d . . . 
H17A H 0.0573 -0.0086 0.8998 0.055 Uiso 1 1 calc R . . 
H17B H 0.0338 0.0497 0.7748 0.055 Uiso 1 1 calc R . . 
C18 C 0.2767(6) -0.0184(4) 0.7877(4) 0.0628(10) Uani 1 1 d . . . 
H18A H 0.3485 0.0365 0.7300 0.094 Uiso 1 1 calc R . . 
H18B H 0.2183 -0.1035 0.7474 0.094 Uiso 1 1 calc R . . 
H18C H 0.3618 -0.0299 0.8521 0.094 Uiso 1 1 calc R . . 
C19 C 1.2924(12) 0.1747(7) 0.3728(7) 0.0446(16) Uani 0.50 1 d P B 1 
H19 H 1.3618 0.2015 0.3043 0.054 Uiso 0.50 1 calc PR B 1 
C20 C 1.3486(13) 0.0874(8) 0.4327(9) 0.0505(18) Uani 0.50 1 d P B 1 
H20A H 1.2832 0.0579 0.5017 0.061 Uiso 0.50 1 calc PR B 1 
H20B H 1.4546 0.0539 0.4069 0.061 Uiso 0.50 1 calc PR B 1 
C19' C 1.2417(11) 0.1295(7) 0.4488(6) 0.0451(15) Uani 0.50 1 d P B 2 
H19' H 1.2389 0.0752 0.5126 0.054 Uiso 0.50 1 calc PR B 2 
C20' C 1.3739(14) 0.1264(10) 0.3703(9) 0.054(2) Uani 0.50 1 d P B 2 
H20C H 1.3830 0.1787 0.3047 0.065 Uiso 0.50 1 calc PR B 2 
H20D H 1.4607 0.0717 0.3790 0.065 Uiso 0.50 1 calc PR B 2 
 
loop_ 
 _atom_site_aniso_label 
 _atom_site_aniso_U_11 
 _atom_site_aniso_U_22 
 _atom_site_aniso_U_33 
 _atom_site_aniso_U_23 
 _atom_site_aniso_U_13 
 _atom_site_aniso_U_12 
Si1 0.0325(4) 0.0355(4) 0.0309(4) 0.0055(3) 0.0024(3) 0.0078(3) 
C1 0.0422(17) 0.0295(13) 0.0294(12) 0.0022(10) -0.0051(11) -0.0026(12) 
C2 0.0391(16) 0.0300(13) 0.0328(13) 0.0024(11) -0.0057(12) -0.0036(12) 
C3 0.0401(17) 0.0337(14) 0.0350(14) 0.0054(11) -0.0053(12) -0.0038(12) 
C4 0.0423(16) 0.0311(13) 0.0372(13) 0.0011(11) -0.0078(12) -0.0023(12) 
S5 0.0414(13) 0.0379(14) 0.0371(12) 0.0036(10) -0.0008(9) 0.0041(9) 
C6 0.041(3) 0.038(3) 0.031(3) 0.004(3) -0.004(3) 0.002(3) 
C7 0.033(4) 0.031(4) 0.028(4) 0.003(3) 0.002(3) 0.007(3) 
C8 0.0419(16) 0.0340(13) 0.0333(13) -0.0015(11) -0.0073(11) -0.0024(12) 
C4' 0.0423(16) 0.0311(13) 0.0372(13) 0.0011(11) -0.0078(12) -0.0023(12) 
C5' 0.050(5) 0.036(5) 0.034(4) 0.003(4) -0.002(4) -0.011(4) 
C6' 0.049(4) 0.031(3) 0.032(3) 0.001(3) -0.008(3) 0.000(3) 
S7' 0.0415(18) 0.0393(17) 0.0371(12) 0.0022(12) -0.0019(11) 0.0013(10) 
C8' 0.0419(16) 0.0340(13) 0.0333(13) -0.0015(11) -0.0073(11) -0.0024(12) 
C9 0.0432(17) 0.0327(14) 0.0304(13) 0.0030(11) -0.0048(12) -0.0043(12) 
C10 0.0390(16) 0.0319(14) 0.0306(13) 0.0011(11) -0.0046(11) -0.0026(12) 
C11 0.0402(17) 0.0301(13) 0.0358(14) 0.0015(11) -0.0056(12) 0.0015(12) 
C12 0.0365(16) 0.0345(14) 0.0343(13) 0.0035(11) -0.0019(12) 0.0069(12) 
C13 0.054(2) 0.065(2) 0.0458(17) 0.0072(16) 0.0075(15) 0.0205(17) 
C14 0.042(2) 0.084(3) 0.064(2) 0.0131(19) 0.0118(17) 0.0289(19) 
C15 0.0465(19) 0.0441(16) 0.0373(15) 0.0069(12) -0.0009(13) 0.0104(14) 
C16 0.049(2) 0.0489(18) 0.0394(15) -0.0020(13) -0.0048(14) 0.0068(15) 
C17 0.0472(19) 0.0437(17) 0.0439(16) 0.0078(13) -0.0009(14) 0.0016(14) 
C18 0.071(3) 0.048(2) 0.068(2) -0.0164(17) -0.0100(19) 0.0158(18) 
C19 0.048(5) 0.036(4) 0.047(4) 0.000(3) -0.003(3) 0.002(3) 
C20 0.050(5) 0.050(4) 0.052(4) 0.005(4) 0.009(4) 0.011(4) 
C19' 0.053(5) 0.036(3) 0.045(4) -0.004(3) -0.002(3) 0.009(3) 
C20' 0.072(7) 0.044(5) 0.047(5) -0.005(4) -0.004(5) 0.014(4) 
 
_geom_special_details 
; 
 All esds (except the esd in the dihedral angle between two l.s. planes) 
 are estimated using the full covariance matrix.  The cell esds are taken 
 into account individually in the estimation of esds in distances, angles 
 and torsion angles; correlations between esds in cell parameters are only 
 used when they are defined by crystal symmetry.  An approximate (isotropic) 
 treatment of cell esds is used for estimating esds involving l.s. planes. 
; 
 
loop_ 
 _geom_bond_atom_site_label_1 
 _geom_bond_atom_site_label_2 
 _geom_bond_distance 
 _geom_bond_site_symmetry_2 
 _geom_bond_publ_flag 
Si1 C12 1.835(3) . ? 
Si1 C15 1.852(3) . ? 
Si1 C13 1.858(4) . ? 
Si1 C17 1.860(3) . ? 
C1 C2 1.403(4) . ? 
C1 C10 1.405(4) 2_666 ? 
C1 C11 1.428(4) . ? 
C2 C3 1.409(4) . ? 
C2 C10 1.435(4) . ? 
C3 C4 1.362(4) . ? 
C3 H3 0.9500 . ? 
C4 C8 1.432(4) . ? 
C4 S5 1.730(5) . ? 
S5 C6 1.741(7) . ? 
C6 C7 1.377(18) . ? 
C6 C19 1.449(12) . ? 
C7 C8 1.445(16) . ? 
C7 H7 0.9500 . ? 
C8 C9 1.362(4) . ? 
C5' C6' 1.370(17) . ? 
C5' H5' 0.9500 . ? 
C6' C19' 1.394(11) . ? 
C6' S7' 1.752(7) . ? 
C9 C10 1.404(4) . ? 
C9 H9 0.9500 . ? 
C10 C1 1.405(4) 2_666 ? 
C11 C12 1.194(4) . ? 
C13 C14 1.520(5) . ? 
C13 H13A 0.9900 . ? 
C13 H13B 0.9900 . ? 
C14 H14A 0.9800 . ? 
C14 H14B 0.9800 . ? 
C14 H14C 0.9800 . ? 
C15 C16 1.512(4) . ? 
C15 H15A 0.9900 . ? 
C15 H15B 0.9900 . ? 
C16 H16A 0.9800 . ? 
C16 H16B 0.9800 . ? 
C16 H16C 0.9800 . ? 
C17 C18 1.500(5) . ? 
C17 H17A 0.9900 . ? 
C17 H17B 0.9900 . ? 
C18 H18A 0.9800 . ? 
C18 H18B 0.9800 . ? 
C18 H18C 0.9800 . ? 
C19 C20 1.313(12) . ? 
C19 H19 0.9500 . ? 
C20 H20A 0.9500 . ? 
C20 H20B 0.9500 . ? 
C19' C20' 1.309(13) . ? 
C19' H19' 0.9500 . ? 
C20' H20C 0.9500 . ? 
C20' H20D 0.9500 . ? 
 
loop_ 
 _geom_angle_atom_site_label_1 
 _geom_angle_atom_site_label_2 
 _geom_angle_atom_site_label_3 
 _geom_angle 
 _geom_angle_site_symmetry_1 
 _geom_angle_site_symmetry_3 
 _geom_angle_publ_flag 
C12 Si1 C15 110.01(14) . . ? 
C12 Si1 C13 107.22(15) . . ? 
C15 Si1 C13 111.37(15) . . ? 
C12 Si1 C17 106.32(13) . . ? 
C15 Si1 C17 109.92(14) . . ? 
C13 Si1 C17 111.84(17) . . ? 
C2 C1 C10 121.3(3) . 2_666 ? 
C2 C1 C11 119.8(3) . . ? 
C10 C1 C11 118.8(3) 2_666 . ? 
C1 C2 C3 121.5(3) . . ? 
C1 C2 C10 119.5(3) . . ? 
C3 C2 C10 119.0(3) . . ? 
C4 C3 C2 120.6(3) . . ? 
C4 C3 H3 119.7 . . ? 
C2 C3 H3 119.7 . . ? 
C3 C4 C8 120.2(3) . . ? 
C3 C4 S5 130.4(3) . . ? 
C8 C4 S5 109.4(3) . . ? 
C4 S5 C6 93.5(3) . . ? 
C7 C6 C19 128.7(9) . . ? 
C7 C6 S5 111.7(8) . . ? 
C19 C6 S5 119.6(5) . . ? 
C6 C7 C8 112.3(14) . . ? 
C6 C7 H7 123.9 . . ? 
C8 C7 H7 123.9 . . ? 
C9 C8 C4 120.4(3) . . ? 
C9 C8 C7 126.6(8) . . ? 
C4 C8 C7 113.0(8) . . ? 
C6' C5' H5' 124.7 . . ? 
C5' C6' C19' 125.4(9) . . ? 
C5' C6' S7' 112.3(7) . . ? 
C19' C6' S7' 122.3(5) . . ? 
C8 C9 C10 120.5(3) . . ? 
C8 C9 H9 119.7 . . ? 
C10 C9 H9 119.7 . . ? 
C9 C10 C1 121.5(3) . 2_666 ? 
C9 C10 C2 119.3(3) . . ? 
C1 C10 C2 119.2(3) 2_666 . ? 
C12 C11 C1 177.6(3) . . ? 
C11 C12 Si1 172.1(3) . . ? 
C14 C13 Si1 113.3(2) . . ? 
C14 C13 H13A 108.9 . . ? 
Si1 C13 H13A 108.9 . . ? 
C14 C13 H13B 108.9 . . ? 
Si1 C13 H13B 108.9 . . ? 
H13A C13 H13B 107.7 . . ? 
C13 C14 H14A 109.5 . . ? 
C13 C14 H14B 109.5 . . ? 
H14A C14 H14B 109.5 . . ? 
C13 C14 H14C 109.5 . . ? 
H14A C14 H14C 109.5 . . ? 
H14B C14 H14C 109.5 . . ? 
C16 C15 Si1 115.4(2) . . ? 
C16 C15 H15A 108.4 . . ? 
Si1 C15 H15A 108.4 . . ? 
C16 C15 H15B 108.4 . . ? 
Si1 C15 H15B 108.4 . . ? 
H15A C15 H15B 107.5 . . ? 
C15 C16 H16A 109.5 . . ? 
C15 C16 H16B 109.5 . . ? 
H16A C16 H16B 109.5 . . ? 
C15 C16 H16C 109.5 . . ? 
H16A C16 H16C 109.5 . . ? 
H16B C16 H16C 109.5 . . ? 
C18 C17 Si1 113.1(2) . . ? 
C18 C17 H17A 109.0 . . ? 
Si1 C17 H17A 109.0 . . ? 
C18 C17 H17B 109.0 . . ? 
Si1 C17 H17B 109.0 . . ? 
H17A C17 H17B 107.8 . . ? 
C17 C18 H18A 109.5 . . ? 
C17 C18 H18B 109.5 . . ? 
H18A C18 H18B 109.5 . . ? 
C17 C18 H18C 109.5 . . ? 
H18A C18 H18C 109.5 . . ? 
H18B C18 H18C 109.5 . . ? 
C20 C19 C6 125.5(9) . . ? 
C20 C19 H19 117.2 . . ? 
C6 C19 H19 117.2 . . ? 
C19 C20 H20A 120.0 . . ? 
C19 C20 H20B 120.0 . . ? 
H20A C20 H20B 120.0 . . ? 
C20' C19' C6' 126.9(9) . . ? 
C20' C19' H19' 116.5 . . ? 
C6' C19' H19' 116.5 . . ? 
C19' C20' H20C 120.0 . . ? 
C19' C20' H20D 120.0 . . ? 
H20C C20' H20D 120.0 . . ? 
 
loop_ 
 _geom_torsion_atom_site_label_1 
 _geom_torsion_atom_site_label_2 
 _geom_torsion_atom_site_label_3 
 _geom_torsion_atom_site_label_4 
 _geom_torsion 
 _geom_torsion_site_symmetry_1 
 _geom_torsion_site_symmetry_2 
 _geom_torsion_site_symmetry_3 
 _geom_torsion_site_symmetry_4 
 _geom_torsion_publ_flag 
C10 C1 C2 C3 179.7(2) 2_666 . . . ? 
C11 C1 C2 C3 -2.0(4) . . . . ? 
C10 C1 C2 C10 0.0(4) 2_666 . . . ? 
C11 C1 C2 C10 178.3(2) . . . . ? 
C1 C2 C3 C4 -179.5(2) . . . . ? 
C10 C2 C3 C4 0.1(4) . . . . ? 
C2 C3 C4 C8 -0.1(4) . . . . ? 
C2 C3 C4 S5 -178.9(3) . . . . ? 
C3 C4 S5 C6 -178.5(3) . . . . ? 
C8 C4 S5 C6 2.6(4) . . . . ? 
C4 S5 C6 C7 -2.9(14) . . . . ? 
C4 S5 C6 C19 179.0(5) . . . . ? 
C19 C6 C7 C8 -179.7(10) . . . . ? 
S5 C6 C7 C8 2(2) . . . . ? 
C3 C4 C8 C9 0.1(4) . . . . ? 
S5 C4 C8 C9 179.1(3) . . . . ? 
C3 C4 C8 C7 179.2(13) . . . . ? 
S5 C4 C8 C7 -1.7(13) . . . . ? 
C6 C7 C8 C9 178.7(10) . . . . ? 
C6 C7 C8 C4 0(2) . . . . ? 
C4 C8 C9 C10 0.0(4) . . . . ? 
C7 C8 C9 C10 -179.0(15) . . . . ? 
C8 C9 C10 C1 179.6(2) . . . 2_666 ? 
C8 C9 C10 C2 0.0(4) . . . . ? 
C1 C2 C10 C9 179.6(2) . . . . ? 
C3 C2 C10 C9 -0.1(4) . . . . ? 
C1 C2 C10 C1 0.0(4) . . . 2_666 ? 
C3 C2 C10 C1 -179.7(2) . . . 2_666 ? 
C12 Si1 C13 C14 60.8(3) . . . . ? 
C15 Si1 C13 C14 -178.8(3) . . . . ? 
C17 Si1 C13 C14 -55.4(3) . . . . ? 
C12 Si1 C15 C16 61.4(3) . . . . ? 
C13 Si1 C15 C16 -57.3(3) . . . . ? 
C17 Si1 C15 C16 178.1(2) . . . . ? 
C12 Si1 C17 C18 60.9(3) . . . . ? 
C15 Si1 C17 C18 -58.1(3) . . . . ? 
C13 Si1 C17 C18 177.6(2) . . . . ? 
C7 C6 C19 C20 -179.0(17) . . . . ? 
S5 C6 C19 C20 -1.2(10) . . . . ? 
C5' C6' C19' C20' -177.4(12) . . . . ? 
S7' C6' C19' C20' -0.2(11) . . . . ? 
 
_diffrn_measured_fraction_theta_max    0.984 
_diffrn_reflns_theta_full              69.26 
_diffrn_measured_fraction_theta_full   0.984 
_refine_diff_density_max    0.393 
_refine_diff_density_min   -0.492 
_refine_diff_density_rms    0.064 
