 
data_x08060s 
 
_audit_creation_method            SHELXL-97 
_chemical_name_systematic 
; 
 ? 
; 
_chemical_name_common             ? 
_chemical_melting_point           ? 
_chemical_formula_moiety 
 'C40 H36 F2 S2 Si2' 
_chemical_formula_sum 
 'C40 H36 F2 S2 Si2' 
_chemical_formula_weight          674.99 
 
loop_ 
 _atom_type_symbol 
 _atom_type_description 
 _atom_type_scat_dispersion_real 
 _atom_type_scat_dispersion_imag 
 _atom_type_scat_source 
 'C'  'C'   0.0181   0.0091 
 'International Tables Vol C Tables 4.2.6.8 and 6.1.1.4' 
 'H'  'H'   0.0000   0.0000 
 'International Tables Vol C Tables 4.2.6.8 and 6.1.1.4' 
 'F'  'F'   0.0727   0.0534 
 'International Tables Vol C Tables 4.2.6.8 and 6.1.1.4' 
 'Si'  'Si'   0.2541   0.3302 
 'International Tables Vol C Tables 4.2.6.8 and 6.1.1.4' 
 'S'  'S'   0.3331   0.5567 
 'International Tables Vol C Tables 4.2.6.8 and 6.1.1.4' 
 
_symmetry_cell_setting            triclinic
_symmetry_space_group_name_H-M    'P -1'
_symmetry_space_group_name_Hall   '-P 1'
 
loop_ 
 _symmetry_equiv_pos_as_xyz 
 'x, y, z' 
 '-x, -y, -z' 
 
_cell_length_a                    7.3678(6) 
_cell_length_b                    10.3730(8) 
_cell_length_c                    12.1159(9) 
_cell_angle_alpha                 66.395(4) 
_cell_angle_beta                  87.518(4) 
_cell_angle_gamma                 76.878(4) 
_cell_volume                      825.16(11) 
_cell_formula_units_Z             1 
_cell_measurement_temperature     90.0(2) 
_cell_measurement_reflns_used     6300
_cell_measurement_theta_min       3.99
_cell_measurement_theta_max       68.95
 
_exptl_crystal_description        needle
_exptl_crystal_colour             red
_exptl_crystal_size_max           0.35 
_exptl_crystal_size_mid           0.03 
_exptl_crystal_size_min           0.01 
_exptl_crystal_density_meas       ? 
_exptl_crystal_density_diffrn     1.358 
_exptl_crystal_density_method     'not measured' 
_exptl_crystal_F_000              354 
_exptl_absorpt_coefficient_mu     2.484 
_exptl_absorpt_correction_type    multi-scan 
_exptl_absorpt_correction_T_min   0.591 
_exptl_absorpt_correction_T_max   0.976
_exptl_absorpt_process_details    'Sadabs in APEX2 (BrukerAXS, 2006)' 
 
_exptl_special_details 
; 
 ? 
; 
 
_diffrn_ambient_temperature       90.0(2) 
_diffrn_radiation_wavelength      1.54178 
_diffrn_radiation_type            CuK\a 
_diffrn_radiation_source          'fine-focus rotating anode' 
_diffrn_radiation_monochromator   'graded multilayer optics' 
_diffrn_measurement_device_type   'Bruker X8 Proteum diffractometer'
_diffrn_measurement_method        '\f and \w scans'            
_diffrn_detector_area_resol_mean  18
_diffrn_standards_number          0 
_diffrn_standards_interval_count  . 
_diffrn_standards_interval_time   . 
_diffrn_standards_decay_%         ? 
_diffrn_reflns_number             12259 
_diffrn_reflns_av_R_equivalents   0.0396 
_diffrn_reflns_av_sigmaI/netI     0.0327 
_diffrn_reflns_limit_h_min        -8 
_diffrn_reflns_limit_h_max        8 
_diffrn_reflns_limit_k_min        -11 
_diffrn_reflns_limit_k_max        12 
_diffrn_reflns_limit_l_min        0 
_diffrn_reflns_limit_l_max        14 
_diffrn_reflns_theta_min          3.99 
_diffrn_reflns_theta_max          68.95 
_reflns_number_total              3025 
_reflns_number_gt                 2632 
_reflns_threshold_expression      >2\s(I)    
 
_computing_data_collection        'APEX2 (Bruker-AXS, 2006)'            
_computing_cell_refinement        'APEX2 (Bruker-AXS, 2006)'            
_computing_data_reduction         'APEX2 (Bruker-AXS, 2006)'            
_computing_structure_solution     'SHELXS-97 (Sheldrick, 2008)' 
_computing_structure_refinement   'SHELXL-97 (Sheldrick, 2008)' 
_computing_molecular_graphics     'XP in SHELXTL (Sheldrick, 2008)'
_computing_publication_material
; 
SHELX97-2 (Sheldrick, 2008) and local procedures 
; 

_publ_section_exptl_refinement
;
H atoms were found in difference Fourier maps and subsequently placed in
idealized positions with constrained C-H distances of 0.99 \%A (R~2~CH~2~),
1.00 \%A (R~3~CH) and 0.95 \%A (C~Ar~H) with U~iso~(H) values set to 
1.2U~eq~ of the attached atom.
;
 
_refine_special_details 
; 
 Refinement of F^2^ against ALL reflections.  The weighted R-factor wR and 
 goodness of fit S are based on F^2^, conventional R-factors R are based 
 on F, with F set to zero for negative F^2^. The threshold expression of 
 F^2^ > 2\s(F^2^) is used only for calculating R-factors(gt) etc. and is 
 not relevant to the choice of reflections for refinement.  R-factors based 
 on F^2^ are statistically about twice as large as those based on F, and R- 
 factors based on ALL data will be even larger. 
 
 Restraints were used on the disordered parts of this structure to ensure 
 that the geometry of the parts remained similar and chemically sensible.
; 
 
_refine_ls_structure_factor_coef  Fsqd  
_refine_ls_matrix_type            full 
_refine_ls_weighting_scheme       calc  
_refine_ls_weighting_details 
 'calc w=1/[\s^2^(Fo^2^)+(0.0584P)^2^+0.4199P] where P=(Fo^2^+2Fc^2^)/3' 
_atom_sites_solution_primary      direct 
_atom_sites_solution_secondary    difmap 
_atom_sites_solution_hydrogens    geom 
_refine_ls_hydrogen_treatment     constr 
_refine_ls_extinction_method      none 
_refine_ls_extinction_coef        ? 
_refine_ls_number_reflns          3025 
_refine_ls_number_parameters      245 
_refine_ls_number_restraints      145 
_refine_ls_R_factor_all           0.0450 
_refine_ls_R_factor_gt            0.0374 
_refine_ls_wR_factor_ref          0.1080 
_refine_ls_wR_factor_gt           0.1009 
_refine_ls_goodness_of_fit_ref    1.052 
_refine_ls_restrained_S_all       1.029 
_refine_ls_shift/su_max           0.001 
_refine_ls_shift/su_mean          0.000 
 
loop_ 
 _atom_site_label 
 _atom_site_type_symbol 
 _atom_site_fract_x 
 _atom_site_fract_y 
 _atom_site_fract_z 
 _atom_site_U_iso_or_equiv 
 _atom_site_adp_type 
 _atom_site_occupancy 
 _atom_site_symmetry_multiplicity 
 _atom_site_calc_flag 
 _atom_site_refinement_flags 
 _atom_site_disorder_assembly 
 _atom_site_disorder_group 
Si1 Si 0.51034(6) 1.10549(5) 0.20794(4) 0.02169(15) Uani 1 1 d . . . 
C1 C 0.4903(3) 0.64714(18) 0.42822(15) 0.0244(4) Uani 1 1 d . . . 
C2 C 0.3525(3) 0.58248(18) 0.41085(15) 0.0245(4) Uani 1 1 d . B . 
C3 C 0.2025(3) 0.66245(18) 0.32464(15) 0.0257(4) Uani 1 1 d . . . 
H3 H 0.1940 0.7621 0.2766 0.031 Uiso 1 1 calc R A 1 
C4 C 0.0700(3) 0.59725(19) 0.31015(15) 0.0263(4) Uani 0.549(3) 1 d PDU B 1 
S5 S -0.1223(4) 0.6753(3) 0.2069(2) 0.0309(5) Uani 0.549(3) 1 d PDU B 1 
C6 C -0.1842(10) 0.5104(6) 0.2632(7) 0.0296(13) Uani 0.549(3) 1 d PDU B 1 
F1 F -0.3396(4) 0.5053(4) 0.2131(3) 0.0412(7) Uani 0.549(3) 1 d PDU B 1 
C7 C -0.0733(19) 0.4022(16) 0.3534(16) 0.026(2) Uani 0.549(3) 1 d PDU B 1 
H7 H -0.0945 0.3076 0.3928 0.031 Uiso 0.549(3) 1 calc PR B 1 
C8 C 0.0806(3) 0.44739(19) 0.38274(16) 0.0258(4) Uani 0.549(3) 1 d PDU B 1 
C4' C 0.0700(3) 0.59725(19) 0.31015(15) 0.0263(4) Uani 0.451(3) 1 d PDU B 2 
C5' C -0.0911(18) 0.6594(15) 0.2308(11) 0.0250(19) Uani 0.451(3) 1 d PDU B 2 
H5' H -0.1260 0.7580 0.1763 0.030 Uiso 0.451(3) 1 calc PR B 2 
F1' F -0.3451(5) 0.5783(5) 0.1836(3) 0.0389(8) Uani 0.451(3) 1 d PDU B 2 
C6' C -0.1879(12) 0.5596(7) 0.2433(8) 0.0299(16) Uani 0.451(3) 1 d PDU B 2 
S7' S -0.0990(6) 0.3862(5) 0.3504(5) 0.0273(6) Uani 0.451(3) 1 d PDU B 2 
C8' C 0.0806(3) 0.44739(19) 0.38274(16) 0.0258(4) Uani 0.451(3) 1 d PDU B 2 
C9 C 0.2225(3) 0.36805(18) 0.46685(15) 0.0262(4) Uani 1 1 d . . . 
H9 H 0.2277 0.2688 0.5144 0.031 Uiso 1 1 calc R B 1 
C10 C 0.3624(3) 0.43235(18) 0.48407(15) 0.0243(4) Uani 1 1 d . . . 
C11 C 0.4851(3) 0.79572(18) 0.35430(16) 0.0252(4) Uani 1 1 d . . . 
C12 C 0.4866(3) 0.91914(19) 0.29294(16) 0.0257(4) Uani 1 1 d . . . 
C13 C 0.6999(3) 1.1290(2) 0.28687(17) 0.0303(4) Uani 1 1 d . . . 
H13 H 0.7200 1.2296 0.2544 0.036 Uiso 1 1 calc R . . 
C14 C 0.7381(3) 1.0465(2) 0.42230(18) 0.0350(5) Uani 1 1 d . . . 
H14A H 0.7732 1.0982 0.4684 0.042 Uiso 1 1 calc R . . 
H14B H 0.6617 0.9761 0.4658 0.042 Uiso 1 1 calc R . . 
C15 C 0.8748(3) 1.0111(2) 0.33891(18) 0.0380(5) Uani 1 1 d . . . 
H15A H 0.8833 0.9187 0.3309 0.046 Uiso 1 1 calc R . . 
H15B H 0.9947 1.0407 0.3335 0.046 Uiso 1 1 calc R . . 
C16 C 0.5681(3) 1.13277(19) 0.05194(16) 0.0261(4) Uani 1 1 d . . . 
H16 H 0.4673 1.1284 0.0017 0.031 Uiso 1 1 calc R . . 
C17 C 0.7648(3) 1.0809(2) 0.02194(19) 0.0358(5) Uani 1 1 d . . . 
H17A H 0.8616 1.0323 0.0889 0.043 Uiso 1 1 calc R . . 
H17B H 0.7810 1.0429 -0.0418 0.043 Uiso 1 1 calc R . . 
C18 C 0.6864(3) 1.2383(2) -0.01530(18) 0.0342(4) Uani 1 1 d . . . 
H18A H 0.6540 1.2979 -0.1021 0.041 Uiso 1 1 calc R . . 
H18B H 0.7345 1.2872 0.0286 0.041 Uiso 1 1 calc R . . 
C19 C 0.2913(2) 1.23146(18) 0.20879(16) 0.0248(4) Uani 1 1 d . . . 
H19 H 0.2504 1.2235 0.2906 0.030 Uiso 1 1 calc R . . 
C20 C 0.2468(3) 1.3827(2) 0.11123(19) 0.0371(5) Uani 1 1 d . . . 
H20A H 0.1867 1.4627 0.1349 0.045 Uiso 1 1 calc R . . 
H20B H 0.3353 1.4075 0.0463 0.045 Uiso 1 1 calc R . . 
C21 C 0.1357(3) 1.2802(2) 0.11446(19) 0.0378(5) Uani 1 1 d . . . 
H21A H 0.1546 1.2411 0.0515 0.045 Uiso 1 1 calc R . . 
H21B H 0.0060 1.2963 0.1400 0.045 Uiso 1 1 calc R . . 
 
loop_ 
 _atom_site_aniso_label 
 _atom_site_aniso_U_11 
 _atom_site_aniso_U_22 
 _atom_site_aniso_U_33 
 _atom_site_aniso_U_23 
 _atom_site_aniso_U_13 
 _atom_site_aniso_U_12 
Si1 0.0206(3) 0.0182(2) 0.0229(3) -0.00444(18) 0.00162(17) -0.00528(17) 
C1 0.0330(10) 0.0160(8) 0.0202(8) -0.0050(7) 0.0086(7) -0.0034(7) 
C2 0.0326(10) 0.0176(8) 0.0196(8) -0.0061(7) 0.0083(7) -0.0028(7) 
C3 0.0345(10) 0.0167(8) 0.0212(8) -0.0054(7) 0.0078(7) -0.0024(7) 
C4 0.0322(10) 0.0219(8) 0.0201(8) -0.0066(7) 0.0066(7) -0.0017(7) 
S5 0.0328(9) 0.0247(8) 0.0259(10) -0.0046(7) 0.0025(6) 0.0004(6) 
C6 0.027(2) 0.028(3) 0.030(3) -0.010(2) 0.0044(18) -0.003(2) 
F1 0.0359(14) 0.0339(15) 0.0424(16) -0.0074(14) -0.0034(11) 0.0003(14) 
C7 0.031(4) 0.019(3) 0.027(3) -0.008(2) 0.007(3) -0.006(3) 
C8 0.0323(10) 0.0215(8) 0.0224(8) -0.0095(7) 0.0094(7) -0.0040(7) 
C4' 0.0322(10) 0.0219(8) 0.0201(8) -0.0066(7) 0.0066(7) -0.0017(7) 
C5' 0.033(4) 0.021(3) 0.019(4) -0.007(3) 0.006(3) -0.007(3) 
F1' 0.0337(16) 0.040(2) 0.0364(18) -0.0106(17) -0.0048(13) -0.0043(17) 
C6' 0.026(2) 0.034(4) 0.023(3) -0.010(3) -0.001(2) 0.001(3) 
S7' 0.0268(11) 0.0283(13) 0.0289(8) -0.0126(8) 0.0055(7) -0.0091(7) 
C8' 0.0323(10) 0.0215(8) 0.0224(8) -0.0095(7) 0.0094(7) -0.0040(7) 
C9 0.0357(11) 0.0172(8) 0.0226(9) -0.0065(7) 0.0085(7) -0.0044(7) 
C10 0.0329(10) 0.0173(8) 0.0197(8) -0.0063(7) 0.0085(7) -0.0036(7) 
C11 0.0296(10) 0.0198(9) 0.0220(8) -0.0060(7) 0.0040(7) -0.0028(7) 
C12 0.0252(10) 0.0230(9) 0.0253(9) -0.0068(7) 0.0039(7) -0.0046(7) 
C13 0.0291(10) 0.0285(9) 0.0295(10) -0.0059(8) -0.0008(8) -0.0096(8) 
C14 0.0354(11) 0.0368(11) 0.0294(10) -0.0077(8) -0.0045(8) -0.0112(8) 
C15 0.0261(11) 0.0412(11) 0.0366(11) -0.0043(9) -0.0043(8) -0.0084(8) 
C16 0.0249(10) 0.0238(9) 0.0274(9) -0.0079(7) 0.0051(7) -0.0065(7) 
C17 0.0304(11) 0.0348(11) 0.0373(11) -0.0119(9) 0.0105(8) -0.0044(8) 
C18 0.0375(11) 0.0307(10) 0.0313(10) -0.0071(8) 0.0116(8) -0.0135(8) 
C19 0.0253(9) 0.0224(8) 0.0236(9) -0.0062(7) 0.0031(7) -0.0056(7) 
C20 0.0392(12) 0.0234(9) 0.0356(11) -0.0043(8) 0.0110(9) 0.0022(8) 
C21 0.0247(10) 0.0474(12) 0.0364(11) -0.0162(9) -0.0036(8) 0.0006(8) 
 
_geom_special_details 
; 
 All esds (except the esd in the dihedral angle between two l.s. planes) 
 are estimated using the full covariance matrix.  The cell esds are taken 
 into account individually in the estimation of esds in distances, angles 
 and torsion angles; correlations between esds in cell parameters are only 
 used when they are defined by crystal symmetry.  An approximate (isotropic) 
 treatment of cell esds is used for estimating esds involving l.s. planes. 
; 
 
loop_ 
 _geom_bond_atom_site_label_1 
 _geom_bond_atom_site_label_2 
 _geom_bond_distance 
 _geom_bond_site_symmetry_2 
 _geom_bond_publ_flag 
Si1 C19 1.8342(18) . ? 
Si1 C12 1.8361(18) . ? 
Si1 C13 1.8393(19) . ? 
Si1 C16 1.8412(18) . ? 
C1 C2 1.402(3) . ? 
C1 C10 1.407(3) 2_666 ? 
C1 C11 1.432(2) . ? 
C2 C3 1.411(3) . ? 
C2 C10 1.437(2) . ? 
C3 C4 1.360(3) . ? 
C3 H3 0.9500 . ? 
C4 C8 1.433(2) . ? 
C4 S5 1.746(3) . ? 
S5 C6 1.730(6) . ? 
C6 F1 1.340(7) . ? 
C6 C7 1.342(15) . ? 
C7 C8 1.429(12) . ? 
C7 H7 0.9500 . ? 
C8 C9 1.356(3) . ? 
C5' C6' 1.344(16) . ? 
C5' H5' 0.9500 . ? 
F1' C6' 1.326(8) . ? 
C6' S7' 1.737(8) . ? 
C9 C10 1.412(3) . ? 
C9 H9 0.9500 . ? 
C10 C1 1.407(3) 2_666 ? 
C11 C12 1.198(3) . ? 
C13 C15 1.514(3) . ? 
C13 C14 1.520(3) . ? 
C13 H13 1.0000 . ? 
C14 C15 1.487(3) . ? 
C14 H14A 0.9900 . ? 
C14 H14B 0.9900 . ? 
C15 H15A 0.9900 . ? 
C15 H15B 0.9900 . ? 
C16 C18 1.509(2) . ? 
C16 C17 1.510(3) . ? 
C16 H16 1.0000 . ? 
C17 C18 1.485(3) . ? 
C17 H17A 0.9900 . ? 
C17 H17B 0.9900 . ? 
C18 H18A 0.9900 . ? 
C18 H18B 0.9900 . ? 
C19 C21 1.504(3) . ? 
C19 C20 1.510(2) . ? 
C19 H19 1.0000 . ? 
C20 C21 1.469(3) . ? 
C20 H20A 0.9900 . ? 
C20 H20B 0.9900 . ? 
C21 H21A 0.9900 . ? 
C21 H21B 0.9900 . ? 
 
loop_ 
 _geom_angle_atom_site_label_1 
 _geom_angle_atom_site_label_2 
 _geom_angle_atom_site_label_3 
 _geom_angle 
 _geom_angle_site_symmetry_1 
 _geom_angle_site_symmetry_3 
 _geom_angle_publ_flag 
C19 Si1 C12 109.38(8) . . ? 
C19 Si1 C13 110.20(9) . . ? 
C12 Si1 C13 106.14(9) . . ? 
C19 Si1 C16 110.25(8) . . ? 
C12 Si1 C16 109.94(8) . . ? 
C13 Si1 C16 110.83(9) . . ? 
C2 C1 C10 121.15(16) . 2_666 ? 
C2 C1 C11 120.05(17) . . ? 
C10 C1 C11 118.79(17) 2_666 . ? 
C1 C2 C3 121.35(16) . . ? 
C1 C2 C10 119.26(17) . . ? 
C3 C2 C10 119.38(17) . . ? 
C4 C3 C2 120.15(16) . . ? 
C4 C3 H3 119.9 . . ? 
C2 C3 H3 119.9 . . ? 
C3 C4 C8 120.44(17) . . ? 
C3 C4 S5 127.27(17) . . ? 
C8 C4 S5 112.29(18) . . ? 
C6 S5 C4 88.8(3) . . ? 
F1 C6 C7 127.1(7) . . ? 
F1 C6 S5 116.3(4) . . ? 
C7 C6 S5 116.6(7) . . ? 
C6 C7 C8 111.4(10) . . ? 
C6 C7 H7 124.3 . . ? 
C8 C7 H7 124.3 . . ? 
C9 C8 C7 128.3(6) . . ? 
C9 C8 C4 120.71(17) . . ? 
C7 C8 C4 111.0(6) . . ? 
C6' C5' H5' 124.7 . . ? 
F1' C6' C5' 127.4(7) . . ? 
F1' C6' S7' 116.0(5) . . ? 
C5' C6' S7' 116.6(6) . . ? 
C8 C9 C10 120.29(16) . . ? 
C8 C9 H9 119.9 . . ? 
C10 C9 H9 119.9 . . ? 
C1 C10 C9 121.38(16) 2_666 . ? 
C1 C10 C2 119.60(17) 2_666 . ? 
C9 C10 C2 119.02(17) . . ? 
C12 C11 C1 178.0(2) . . ? 
C11 C12 Si1 174.20(17) . . ? 
C15 C13 C14 58.71(13) . . ? 
C15 C13 Si1 121.92(15) . . ? 
C14 C13 Si1 121.02(14) . . ? 
C15 C13 H13 114.6 . . ? 
C14 C13 H13 114.6 . . ? 
Si1 C13 H13 114.6 . . ? 
C15 C14 C13 60.44(13) . . ? 
C15 C14 H14A 117.7 . . ? 
C13 C14 H14A 117.7 . . ? 
C15 C14 H14B 117.7 . . ? 
C13 C14 H14B 117.7 . . ? 
H14A C14 H14B 114.8 . . ? 
C14 C15 C13 60.85(13) . . ? 
C14 C15 H15A 117.7 . . ? 
C13 C15 H15A 117.7 . . ? 
C14 C15 H15B 117.7 . . ? 
C13 C15 H15B 117.7 . . ? 
H15A C15 H15B 114.8 . . ? 
C18 C16 C17 58.94(13) . . ? 
C18 C16 Si1 119.65(14) . . ? 
C17 C16 Si1 121.03(14) . . ? 
C18 C16 H16 115.2 . . ? 
C17 C16 H16 115.2 . . ? 
Si1 C16 H16 115.2 . . ? 
C18 C17 C16 60.52(13) . . ? 
C18 C17 H17A 117.7 . . ? 
C16 C17 H17A 117.7 . . ? 
C18 C17 H17B 117.7 . . ? 
C16 C17 H17B 117.7 . . ? 
H17A C17 H17B 114.8 . . ? 
C17 C18 C16 60.55(13) . . ? 
C17 C18 H18A 117.7 . . ? 
C16 C18 H18A 117.7 . . ? 
C17 C18 H18B 117.7 . . ? 
C16 C18 H18B 117.7 . . ? 
H18A C18 H18B 114.8 . . ? 
C21 C19 C20 58.34(14) . . ? 
C21 C19 Si1 121.88(14) . . ? 
C20 C19 Si1 119.53(13) . . ? 
C21 C19 H19 115.1 . . ? 
C20 C19 H19 115.1 . . ? 
Si1 C19 H19 115.1 . . ? 
C21 C20 C19 60.64(13) . . ? 
C21 C20 H20A 117.7 . . ? 
C19 C20 H20A 117.7 . . ? 
C21 C20 H20B 117.7 . . ? 
C19 C20 H20B 117.7 . . ? 
H20A C20 H20B 114.8 . . ? 
C20 C21 C19 61.02(13) . . ? 
C20 C21 H21A 117.7 . . ? 
C19 C21 H21A 117.7 . . ? 
C20 C21 H21B 117.7 . . ? 
C19 C21 H21B 117.7 . . ? 
H21A C21 H21B 114.8 . . ? 
 
loop_ 
 _geom_torsion_atom_site_label_1 
 _geom_torsion_atom_site_label_2 
 _geom_torsion_atom_site_label_3 
 _geom_torsion_atom_site_label_4 
 _geom_torsion 
 _geom_torsion_site_symmetry_1 
 _geom_torsion_site_symmetry_2 
 _geom_torsion_site_symmetry_3 
 _geom_torsion_site_symmetry_4 
 _geom_torsion_publ_flag 
C10 C1 C2 C3 178.73(15) 2_666 . . . ? 
C11 C1 C2 C3 -2.6(3) . . . . ? 
C10 C1 C2 C10 0.0(3) 2_666 . . . ? 
C11 C1 C2 C10 178.59(15) . . . . ? 
C1 C2 C3 C4 -179.58(16) . . . . ? 
C10 C2 C3 C4 -0.8(3) . . . . ? 
C2 C3 C4 C8 0.5(3) . . . . ? 
C2 C3 C4 S5 -178.4(2) . . . . ? 
C3 C4 S5 C6 179.7(3) . . . . ? 
C8 C4 S5 C6 0.7(4) . . . . ? 
C4 S5 C6 F1 179.5(6) . . . . ? 
C4 S5 C6 C7 0.5(11) . . . . ? 
F1 C6 C7 C8 179.7(8) . . . . ? 
S5 C6 C7 C8 -1.5(17) . . . . ? 
C6 C7 C8 C9 -178.7(7) . . . . ? 
C6 C7 C8 C4 1.9(15) . . . . ? 
C3 C4 C8 C9 -0.1(3) . . . . ? 
S5 C4 C8 C9 179.01(18) . . . . ? 
C3 C4 C8 C7 179.3(8) . . . . ? 
S5 C4 C8 C7 -1.6(9) . . . . ? 
C7 C8 C9 C10 -179.3(10) . . . . ? 
C4 C8 C9 C10 0.0(3) . . . . ? 
C8 C9 C10 C1 179.16(16) . . . 2_666 ? 
C8 C9 C10 C2 -0.3(3) . . . . ? 
C1 C2 C10 C1 0.0(3) . . . 2_666 ? 
C3 C2 C10 C1 -178.76(15) . . . 2_666 ? 
C1 C2 C10 C9 179.50(15) . . . . ? 
C3 C2 C10 C9 0.7(2) . . . . ? 
C19 Si1 C13 C15 158.16(15) . . . . ? 
C12 Si1 C13 C15 39.82(18) . . . . ? 
C16 Si1 C13 C15 -79.51(17) . . . . ? 
C19 Si1 C13 C14 88.00(17) . . . . ? 
C12 Si1 C13 C14 -30.34(18) . . . . ? 
C16 Si1 C13 C14 -149.68(16) . . . . ? 
Si1 C13 C14 C15 110.89(18) . . . . ? 
Si1 C13 C15 C14 -109.39(17) . . . . ? 
C19 Si1 C16 C18 90.46(16) . . . . ? 
C12 Si1 C16 C18 -148.87(15) . . . . ? 
C13 Si1 C16 C18 -31.84(17) . . . . ? 
C19 Si1 C16 C17 159.95(14) . . . . ? 
C12 Si1 C16 C17 -79.38(16) . . . . ? 
C13 Si1 C16 C17 37.65(17) . . . . ? 
Si1 C16 C17 C18 -108.16(17) . . . . ? 
Si1 C16 C18 C17 110.46(17) . . . . ? 
C12 Si1 C19 C21 -88.36(17) . . . . ? 
C13 Si1 C19 C21 155.31(15) . . . . ? 
C16 Si1 C19 C21 32.64(17) . . . . ? 
C12 Si1 C19 C20 -157.38(15) . . . . ? 
C13 Si1 C19 C20 86.30(17) . . . . ? 
C16 Si1 C19 C20 -36.37(18) . . . . ? 
Si1 C19 C20 C21 111.34(17) . . . . ? 
Si1 C19 C21 C20 -107.36(16) . . . . ? 
 
_diffrn_measured_fraction_theta_max    0.988 
_diffrn_reflns_theta_full              68.95 
_diffrn_measured_fraction_theta_full   0.988 
_refine_diff_density_max    0.285 
_refine_diff_density_min   -0.430 
_refine_diff_density_rms    0.054 
