 
data_x10197 
 
_audit_creation_method            SHELXL-97 
_chemical_name_systematic 
; 
 ? 
; 
_chemical_name_common             ? 
_chemical_melting_point           ? 
_chemical_formula_moiety 
 'C50 H64 N2 O2 S2 Si2' 
_chemical_formula_sum 
 'C50 H64 N2 O2 S2 Si2' 
_chemical_formula_weight          845.33 
 
loop_ 
 _atom_type_symbol 
 _atom_type_description 
 _atom_type_scat_dispersion_real 
 _atom_type_scat_dispersion_imag 
 _atom_type_scat_source 
 'C'  'C'   0.0181   0.0091 
 'International Tables Vol C Tables 4.2.6.8 and 6.1.1.4' 
 'H'  'H'   0.0000   0.0000 
 'International Tables Vol C Tables 4.2.6.8 and 6.1.1.4' 
 'N'  'N'   0.0311   0.0180 
 'International Tables Vol C Tables 4.2.6.8 and 6.1.1.4' 
 'O'  'O'   0.0492   0.0322 
 'International Tables Vol C Tables 4.2.6.8 and 6.1.1.4' 
 'Si'  'Si'   0.2541   0.3302 
 'International Tables Vol C Tables 4.2.6.8 and 6.1.1.4' 
 'S'  'S'   0.3331   0.5567 
 'International Tables Vol C Tables 4.2.6.8 and 6.1.1.4' 
 
_symmetry_cell_setting            monoclinic 
_symmetry_space_group_name_H-M    'C c'
_symmetry_space_group_name_Hall   'C -2yc'
 
loop_ 
 _symmetry_equiv_pos_as_xyz 
 'x, y, z' 
 'x, -y, z+1/2' 
 'x+1/2, y+1/2, z' 
 'x+1/2, -y+1/2, z+1/2' 
 
_cell_length_a                    20.6206(6) 
_cell_length_b                    18.6812(5) 
_cell_length_c                    24.2736(7) 
_cell_angle_alpha                 90.00 
_cell_angle_beta                  100.4330(10) 
_cell_angle_gamma                 90.00 
_cell_volume                      9196.0(5) 
_cell_formula_units_Z             8 
_cell_measurement_temperature     90.0(2) 
_cell_measurement_reflns_used     9020 
_cell_measurement_theta_min       3.22
_cell_measurement_theta_max       68.17
 
_exptl_crystal_description        plate 
_exptl_crystal_colour             red
_exptl_crystal_size_max           0.15 
_exptl_crystal_size_mid           0.10 
_exptl_crystal_size_min           0.04 
_exptl_crystal_density_meas       ? 
_exptl_crystal_density_diffrn     1.221 
_exptl_crystal_density_method     'not measured' 
_exptl_crystal_F_000              3632 
_exptl_absorpt_coefficient_mu     1.859 
_exptl_absorpt_correction_type    multi-scan 
_exptl_absorpt_correction_T_min   0.683 
_exptl_absorpt_correction_T_max   0.929 
_exptl_absorpt_process_details    'Sadabs in APEX2 (BrukerAXS, 2006)' 
 
_exptl_special_details 
; 
 ? 
; 
 
_diffrn_ambient_temperature       90.0(2) 
_diffrn_radiation_wavelength      1.54178 
_diffrn_radiation_type            CuK\a 
_diffrn_radiation_source          'fine-focus rotating anode' 
_diffrn_radiation_monochromator   'graded multilayer optics' 
_diffrn_measurement_device_type   'Bruker X8 Proteum diffractometer'
_diffrn_measurement_method        '\f and \w scans'            
_diffrn_detector_area_resol_mean  5.6
_diffrn_standards_number          0 
_diffrn_standards_interval_count  . 
_diffrn_standards_interval_time   . 
_diffrn_standards_decay_%         ? 
_diffrn_reflns_number             59792 
_diffrn_reflns_av_R_equivalents   0.0443 
_diffrn_reflns_av_sigmaI/netI     0.0396 
_diffrn_reflns_limit_h_min        -24 
_diffrn_reflns_limit_h_max        24 
_diffrn_reflns_limit_k_min        -22 
_diffrn_reflns_limit_k_max        22 
_diffrn_reflns_limit_l_min        -28 
_diffrn_reflns_limit_l_max        29 
_diffrn_reflns_theta_min          3.22 
_diffrn_reflns_theta_max          68.44 
_reflns_number_total              15762 
_reflns_number_gt                 15221 
_reflns_threshold_expression      >2\s(I)    
 
_computing_data_collection        'APEX2 (Bruker-AXS, 2006)'            
_computing_cell_refinement        'APEX2'
_computing_data_reduction         'APEX2'
_computing_structure_solution     'SHELXS-97 (Sheldrick, 2008)' 
_computing_structure_refinement   'SHELXL-97 (Sheldrick, 2008)' 
_computing_molecular_graphics     'XP in SHELXTL (Sheldrick, 2008)'
_computing_publication_material
; 
SHELX-97 (Sheldrick, 2008) and local procedures 
; 
 
_publ_section_exptl_refinement
;
H atoms were found in difference Fourier maps and subsequently placed 
in idealized positions with constrained distances of  0.98 \%A (RCH~3~), 
0.99 \%A (R~2~CH~2~), 0.95 \%A (C~Ar~H), and with U~iso~(H) values set 
to either 1.2U~eq~ or 1.5U~eq~ (RCH~3~) of the attached atom. 

The structure is extensively disordered, in more than one way.  The 
thiophene groups are disordered by a roughly 180 degree flip.  This kind 
of disorder is common in ADTs that do not have large substituents at the 
ends, but is rare in ADTs with such large substituents.  The some of the 
n-propyl groups are also disordered.

To ensure proper refinement of the disordered groups, a number of 
constraints and restraints were used in the refinement.  The SHELXL-97 
commands used were EXYZ and EADP (constraints), as well as SAME, DELU 
(restraints). 

Flack's test indicates that this is an inversion twin, with non-equal 
sized components, roughly 59% : 41%.

;

_refine_special_details 
; 
 Refinement of F^2^ against ALL reflections.  The weighted R-factor wR and 
 goodness of fit S are based on F^2^, conventional R-factors R are based 
 on F, with F set to zero for negative F^2^. The threshold expression of 
 F^2^ > 2\s(F^2^) is used only for calculating R-factors(gt) etc. and is 
 not relevant to the choice of reflections for refinement.  R-factors based 
 on F^2^ are statistically about twice as large as those based on F, and R- 
 factors based on ALL data will be even larger. 
; 
 
_refine_ls_structure_factor_coef  Fsqd  
_refine_ls_matrix_type            full 
_refine_ls_weighting_scheme       calc  
_refine_ls_weighting_details 
 'calc w=1/[\s^2^(Fo^2^)+(0.0791P)^2^+14.5006P] where P=(Fo^2^+2Fc^2^)/3' 
_atom_sites_solution_primary      direct 
_atom_sites_solution_secondary    difmap 
_atom_sites_solution_hydrogens    geom 
_refine_ls_hydrogen_treatment     constr 
_refine_ls_extinction_method      none 
_refine_ls_extinction_coef        ? 
_refine_ls_abs_structure_details 
 'Flack H D (1983), Acta Cryst. A39, 876-881' 
_refine_ls_abs_structure_Flack    0.412(13) 
# Flack's test indicates that this is an inversion twin, with non-equal 
# sized components, roughly 59% : 41%.
_refine_ls_number_reflns          15762 
_refine_ls_number_parameters      1100 
_refine_ls_number_restraints      168 
_refine_ls_R_factor_all           0.0517 
_refine_ls_R_factor_gt            0.0499 
_refine_ls_wR_factor_ref          0.1347 
_refine_ls_wR_factor_gt           0.1324 
_refine_ls_goodness_of_fit_ref    1.042 
_refine_ls_restrained_S_all       1.058 
_refine_ls_shift/su_max           0.001 
_refine_ls_shift/su_mean          0.000 
 
loop_ 
 _atom_site_label 
 _atom_site_type_symbol 
 _atom_site_fract_x 
 _atom_site_fract_y 
 _atom_site_fract_z 
 _atom_site_U_iso_or_equiv 
 _atom_site_adp_type 
 _atom_site_occupancy 
 _atom_site_symmetry_multiplicity 
 _atom_site_calc_flag 
 _atom_site_refinement_flags 
 _atom_site_disorder_assembly 
 _atom_site_disorder_group 
Si1A Si 0.79241(5) 0.07754(5) 0.24353(4) 0.0344(2) Uani 1 1 d . . . 
Si2A Si 0.53715(4) 0.38341(5) 0.56155(4) 0.02505(19) Uani 1 1 d . B . 
N1A N 1.00231(14) 0.45044(15) 0.57514(11) 0.0299(6) Uani 1 1 d . B . 
N2A N 0.28752(14) 0.13665(15) 0.27484(11) 0.0256(6) Uani 1 1 d . B . 
O1A O 1.04017(12) 0.40658(13) 0.49991(11) 0.0329(5) Uani 1 1 d . B . 
O2A O 0.34478(13) 0.08968(14) 0.21300(10) 0.0355(6) Uani 1 1 d . B . 
C1A C 0.70245(16) 0.23072(17) 0.34646(13) 0.0219(6) Uani 1 1 d . B . 
C2A C 0.74117(15) 0.27409(16) 0.38770(12) 0.0208(6) Uani 1 1 d . B . 
C3A C 0.80921(16) 0.28457(17) 0.38804(13) 0.0242(6) Uani 1 1 d . . . 
H3A H 0.8293 0.2638 0.3596 0.029 Uiso 1 1 calc R A 1 
C4A C 0.84572(15) 0.32460(17) 0.42939(13) 0.0230(6) Uani 0.8900(14) 1 d PDU B 1 
S5A S 0.92935(4) 0.34304(5) 0.43643(4) 0.02307(19) Uani 0.8900(14) 1 d PDU B 1 
C6A C 0.92827(16) 0.38901(16) 0.49898(13) 0.0218(6) Uani 0.8900(14) 1 d PDU B 1 
C7A C 0.8674(2) 0.3906(2) 0.5131(2) 0.0234(8) Uani 0.8900(14) 1 d PDU B 1 
H7A H 0.8589 0.4125 0.5464 0.028 Uiso 0.8900(14) 1 calc PR B 1 
C8A C 0.81703(15) 0.35612(16) 0.47316(12) 0.0207(6) Uani 0.8900(14) 1 d PDU B 1 
C4C C 0.84572(15) 0.32460(17) 0.42939(13) 0.0230(6) Uani 0.1100(14) 1 d PDU B 2 
C5C C 0.9141(9) 0.3492(17) 0.4513(10) 0.02307(19) Uani 0.1100(14) 1 d PDU B 2 
H5C H 0.9485 0.3370 0.4318 0.028 Uiso 0.1100(14) 1 calc PR B 2 
C6C C 0.92827(16) 0.38901(16) 0.49898(13) 0.0218(6) Uani 0.1100(14) 1 d PDU B 2 
S7C S 0.8648(5) 0.4111(6) 0.5288(4) 0.0234(8) Uani 0.1100(14) 1 d PDU B 2 
C8C C 0.81703(15) 0.35612(16) 0.47316(12) 0.0207(6) Uani 0.1100(14) 1 d PDU B 2 
C9A C 0.75015(16) 0.34790(17) 0.47317(13) 0.0228(6) Uani 1 1 d . . . 
H9A H 0.7307 0.3696 0.5016 0.027 Uiso 1 1 calc R B 1 
C10A C 0.71104(15) 0.30704(16) 0.43057(12) 0.0191(6) Uani 1 1 d . B . 
C11A C 0.64285(15) 0.29719(16) 0.42983(12) 0.0196(6) Uani 1 1 d . . . 
C12A C 0.60377(15) 0.25537(16) 0.38837(12) 0.0198(6) Uani 1 1 d . B . 
C13A C 0.53574(15) 0.24532(16) 0.38656(13) 0.0211(6) Uani 1 1 d . . . 
H13A H 0.5154 0.2661 0.4149 0.025 Uiso 1 1 calc R B 1 
C14A C 0.49819(15) 0.20617(16) 0.34474(12) 0.0217(6) Uani 0.8900(14) 1 d PDU B 1 
C15A C 0.4299(2) 0.1904(3) 0.3327(2) 0.0237(8) Uani 0.8900(14) 1 d PDU B 1 
H15A H 0.4010 0.2055 0.3568 0.028 Uiso 0.8900(14) 1 calc PR B 1 
C16A C 0.40805(16) 0.15342(17) 0.28631(13) 0.0233(6) Uani 0.8900(14) 1 d PDU B 1 
S17A S 0.47230(4) 0.12987(5) 0.25136(3) 0.02314(19) Uani 0.8900(14) 1 d PDU B 1 
C18A C 0.52906(16) 0.17455(17) 0.30215(13) 0.0239(6) Uani 0.8900(14) 1 d PDU B 1 
C14C C 0.49819(15) 0.20617(16) 0.34474(12) 0.0217(6) Uani 0.1100(14) 1 d PDU B 2 
S15C S 0.4144(5) 0.2005(6) 0.3458(4) 0.0237(8) Uani 0.1100(14) 1 d PDU B 2 
C16C C 0.40805(16) 0.15342(17) 0.28631(13) 0.0233(6) Uani 0.1100(14) 1 d PDU B 2 
C17C C 0.4681(8) 0.1407(18) 0.2700(12) 0.02314(19) Uani 0.1100(14) 1 d PDU B 2 
H17C H 0.4705 0.1108 0.2388 0.028 Uiso 0.1100(14) 1 calc PR B 2 
C18C C 0.52906(16) 0.17455(17) 0.30215(13) 0.0239(6) Uani 0.1100(14) 1 d PDU B 2 
C19A C 0.59516(16) 0.18101(17) 0.30282(13) 0.0238(6) Uani 1 1 d . . . 
H19A H 0.6148 0.1581 0.2750 0.029 Uiso 1 1 calc R B 1 
C20A C 0.63421(16) 0.22225(16) 0.34548(12) 0.0213(6) Uani 1 1 d . B . 
C21A C 0.73359(16) 0.19237(17) 0.30783(13) 0.0246(7) Uani 1 1 d . . . 
C22A C 0.75907(17) 0.15434(18) 0.27724(15) 0.0287(7) Uani 1 1 d . C . 
C23A C 0.7765(2) -0.0010(2) 0.28627(17) 0.0386(9) Uani 1 1 d . C . 
H23A H 0.7919 -0.0447 0.2696 0.046 Uiso 1 1 calc R . . 
H23B H 0.8028 0.0043 0.3244 0.046 Uiso 1 1 calc R . . 
C24A C 0.7047(2) -0.0106(3) 0.2908(2) 0.0536(11) Uani 1 1 d . . . 
H24A H 0.6897 0.0309 0.3106 0.064 Uiso 1 1 calc R C . 
H24B H 0.6774 -0.0129 0.2528 0.064 Uiso 1 1 calc R . . 
C25A C 0.6958(3) -0.0787(3) 0.3224(2) 0.0615(13) Uani 1 1 d . C . 
H25A H 0.7168 -0.1186 0.3062 0.092 Uiso 1 1 calc R . . 
H25B H 0.6487 -0.0886 0.3196 0.092 Uiso 1 1 calc R . . 
H25C H 0.7163 -0.0729 0.3618 0.092 Uiso 1 1 calc R . . 
C26A C 0.7434(3) 0.0688(3) 0.16953(19) 0.0570(12) Uani 0.665(5) 1 d PDU C 1 
H26A H 0.6972 0.0825 0.1704 0.068 Uiso 0.665(5) 1 calc PR C 1 
H26B H 0.7610 0.1042 0.1457 0.068 Uiso 0.665(5) 1 calc PR C 1 
C27A C 0.7425(3) -0.0065(4) 0.1402(3) 0.0565(16) Uani 0.665(5) 1 d PDU C 1 
H27A H 0.7307 -0.0438 0.1657 0.068 Uiso 0.665(5) 1 calc PR C 1 
H27B H 0.7084 -0.0066 0.1058 0.068 Uiso 0.665(5) 1 calc PR C 1 
C28A C 0.8070(4) -0.0238(5) 0.1256(4) 0.070(2) Uani 0.665(5) 1 d PDU C 1 
H28A H 0.8019 -0.0635 0.0988 0.105 Uiso 0.665(5) 1 calc PR C 1 
H28B H 0.8379 -0.0376 0.1596 0.105 Uiso 0.665(5) 1 calc PR C 1 
H28C H 0.8240 0.0182 0.1088 0.105 Uiso 0.665(5) 1 calc PR C 1 
C26C C 0.7434(3) 0.0688(3) 0.16953(19) 0.0570(12) Uani 0.335(5) 1 d PDU C 2 
H26C H 0.6973 0.0534 0.1689 0.068 Uiso 0.335(5) 1 calc PR C 2 
H26D H 0.7441 0.1132 0.1474 0.068 Uiso 0.335(5) 1 calc PR C 2 
C27C C 0.7908(7) 0.0027(8) 0.1490(6) 0.0565(16) Uani 0.335(5) 1 d PDU C 2 
H27C H 0.8381 0.0111 0.1641 0.068 Uiso 0.335(5) 1 calc PR C 2 
H27D H 0.7782 -0.0446 0.1621 0.068 Uiso 0.335(5) 1 calc PR C 2 
C28C C 0.7774(8) 0.0061(10) 0.0850(6) 0.070(2) Uani 0.335(5) 1 d PDU C 2 
H28D H 0.7306 -0.0036 0.0709 0.105 Uiso 0.335(5) 1 calc PR C 2 
H28E H 0.8043 -0.0299 0.0702 0.105 Uiso 0.335(5) 1 calc PR C 2 
H28F H 0.7886 0.0538 0.0729 0.105 Uiso 0.335(5) 1 calc PR C 2 
C29A C 0.8813(2) 0.0939(2) 0.24175(17) 0.0416(9) Uani 1 1 d . C . 
H29A H 0.8999 0.0501 0.2276 0.050 Uiso 1 1 calc R . . 
H29B H 0.8843 0.1328 0.2147 0.050 Uiso 1 1 calc R . . 
C30A C 0.9229(2) 0.1136(3) 0.29702(18) 0.0461(10) Uani 1 1 d . . . 
H30A H 0.9194 0.0751 0.3243 0.055 Uiso 1 1 calc R C . 
H30B H 0.9049 0.1579 0.3109 0.055 Uiso 1 1 calc R . . 
C31A C 0.9960(2) 0.1258(2) 0.29516(18) 0.0424(9) Uani 1 1 d . C . 
H31A H 1.0151 0.0815 0.2834 0.064 Uiso 1 1 calc R . . 
H31B H 1.0194 0.1395 0.3325 0.064 Uiso 1 1 calc R . . 
H31C H 1.0002 0.1640 0.2684 0.064 Uiso 1 1 calc R . . 
C32A C 0.61286(15) 0.32879(16) 0.47321(12) 0.0208(6) Uani 1 1 d . B . 
C33A C 0.58598(16) 0.35372(17) 0.50892(13) 0.0242(6) Uani 1 1 d . . . 
C34A C 0.45503(18) 0.4123(2) 0.52116(16) 0.0360(8) Uani 1 1 d . . . 
H34A H 0.4236 0.4163 0.5474 0.043 Uiso 1 1 calc R B . 
H34B H 0.4598 0.4605 0.5055 0.043 Uiso 1 1 calc R . . 
C35A C 0.42577(19) 0.3622(2) 0.47340(16) 0.0400(9) Uani 1 1 d . B . 
H35A H 0.4546 0.3622 0.4450 0.048 Uiso 1 1 calc R . . 
H35B H 0.4250 0.3129 0.4882 0.048 Uiso 1 1 calc R . . 
C36A C 0.3560(2) 0.3830(4) 0.4453(2) 0.0724(17) Uani 1 1 d . . . 
H36A H 0.3272 0.3836 0.4732 0.109 Uiso 1 1 calc R B . 
H36B H 0.3393 0.3482 0.4159 0.109 Uiso 1 1 calc R . . 
H36C H 0.3567 0.4308 0.4286 0.109 Uiso 1 1 calc R . . 
C37A C 0.5295(2) 0.3044(2) 0.60808(15) 0.0357(8) Uani 1 1 d . . . 
H37A H 0.5057 0.3198 0.6381 0.043 Uiso 1 1 calc R B . 
H37B H 0.5024 0.2673 0.5857 0.043 Uiso 1 1 calc R . . 
C38A C 0.5952(2) 0.2713(2) 0.63510(15) 0.0360(8) Uani 1 1 d . B . 
H38A H 0.6181 0.2538 0.6052 0.043 Uiso 1 1 calc R . . 
H38B H 0.6231 0.3088 0.6563 0.043 Uiso 1 1 calc R . . 
C39A C 0.5880(3) 0.2098(2) 0.67427(19) 0.0570(12) Uani 1 1 d . . . 
H39A H 0.5656 0.2267 0.7041 0.085 Uiso 1 1 calc R B . 
H39B H 0.6318 0.1915 0.6908 0.085 Uiso 1 1 calc R . . 
H39C H 0.5621 0.1715 0.6533 0.085 Uiso 1 1 calc R . . 
C40A C 0.58373(18) 0.45689(19) 0.60447(14) 0.0318(7) Uani 1 1 d . . . 
H40A H 0.6305 0.4422 0.6144 0.038 Uiso 1 1 calc R B . 
H40B H 0.5821 0.5000 0.5806 0.038 Uiso 1 1 calc R . . 
C41A C 0.5599(2) 0.4782(2) 0.65896(15) 0.0380(8) Uani 1 1 d . B . 
H41A H 0.5590 0.4348 0.6822 0.046 Uiso 1 1 calc R . . 
H41B H 0.5923 0.5118 0.6802 0.046 Uiso 1 1 calc R . . 
C42A C 0.4936(2) 0.5123(2) 0.65026(18) 0.0480(10) Uani 1 1 d . . . 
H42A H 0.4944 0.5566 0.6288 0.072 Uiso 1 1 calc R B . 
H42B H 0.4817 0.5232 0.6867 0.072 Uiso 1 1 calc R . . 
H42C H 0.4609 0.4794 0.6296 0.072 Uiso 1 1 calc R . . 
C43A C 0.99362(16) 0.41666(17) 0.52472(13) 0.0251(7) Uani 1 1 d . . . 
C44A C 1.06772(19) 0.4748(2) 0.60011(16) 0.0364(8) Uani 1 1 d . . . 
H44A H 1.0820 0.5151 0.5787 0.044 Uiso 1 1 calc R B . 
H44B H 1.1004 0.4356 0.6023 0.044 Uiso 1 1 calc R . . 
C45A C 1.05872(19) 0.4988(2) 0.65854(15) 0.0355(8) Uani 1 1 d . B . 
H45A H 1.0659 0.4584 0.6853 0.043 Uiso 1 1 calc R . . 
H45B H 1.0898 0.5378 0.6726 0.043 Uiso 1 1 calc R . . 
C46A C 0.9891(2) 0.5244(2) 0.65045(17) 0.0409(9) Uani 1 1 d . . . 
H46A H 0.9852 0.5738 0.6355 0.049 Uiso 1 1 calc R B . 
H46B H 0.9722 0.5230 0.6861 0.049 Uiso 1 1 calc R . . 
C47A C 0.95219(19) 0.4719(2) 0.60845(14) 0.0346(8) Uani 1 1 d . B . 
H47A H 0.9366 0.4302 0.6275 0.041 Uiso 1 1 calc R . . 
H47B H 0.9139 0.4951 0.5846 0.041 Uiso 1 1 calc R . . 
C48A C 0.34332(17) 0.12507(17) 0.25598(13) 0.0259(7) Uani 1 1 d . . . 
C49A C 0.27442(17) 0.18331(19) 0.32019(14) 0.0293(7) Uani 1 1 d . . . 
H49A H 0.2991 0.2289 0.3208 0.035 Uiso 1 1 calc R B . 
H49B H 0.2867 0.1595 0.3570 0.035 Uiso 1 1 calc R . . 
C50A C 0.20112(19) 0.1960(2) 0.30591(17) 0.0391(9) Uani 1 1 d . B . 
H50A H 0.1908 0.2369 0.2799 0.047 Uiso 1 1 calc R . . 
H50B H 0.1826 0.2054 0.3401 0.047 Uiso 1 1 calc R . . 
C51A C 0.17401(18) 0.1260(2) 0.27796(16) 0.0360(8) Uani 1 1 d . . . 
H51A H 0.1687 0.0894 0.3063 0.043 Uiso 1 1 calc R B . 
H51B H 0.1310 0.1339 0.2531 0.043 Uiso 1 1 calc R . . 
C52A C 0.22653(17) 0.10391(19) 0.24453(15) 0.0314(8) Uani 1 1 d . B . 
H52A H 0.2307 0.0511 0.2435 0.038 Uiso 1 1 calc R . . 
H52B H 0.2158 0.1222 0.2057 0.038 Uiso 1 1 calc R . . 
Si1B Si 0.05775(4) 0.16034(5) 0.50492(4) 0.02540(19) Uani 1 1 d . . . 
Si2B Si 0.31994(4) -0.14929(5) 0.19663(4) 0.0265(2) Uani 1 1 d . B . 
N1B N -0.15520(14) -0.20702(16) 0.18123(11) 0.0286(6) Uani 1 1 d . B . 
N2B N 0.56876(14) 0.09744(15) 0.47733(12) 0.0261(6) Uani 1 1 d . B . 
O1B O -0.18578(11) -0.17444(12) 0.26156(10) 0.0279(5) Uani 1 1 d . B . 
O2B O 0.51071(13) 0.15343(14) 0.53443(11) 0.0357(6) Uani 1 1 d . B . 
C1B C 0.15232(16) 0.00434(16) 0.40818(12) 0.0207(6) Uani 1 1 d . . . 
C2B C 0.11324(16) -0.03901(16) 0.36720(12) 0.0215(6) Uani 1 1 d . B . 
C3B C 0.04492(16) -0.04818(17) 0.36666(13) 0.0238(6) Uani 1 1 d . . . 
H3B H 0.0247 -0.0264 0.3946 0.029 Uiso 1 1 calc R B 1 
C4B C 0.00842(16) -0.08890(17) 0.32532(14) 0.0253(6) Uani 0.8900(14) 1 d PDU B 1 
S5B S -0.07592(4) -0.10499(5) 0.31933(4) 0.0259(2) Uani 0.8900(14) 1 d PDU B 1 
C6B C -0.07493(16) -0.15345(17) 0.25779(13) 0.0235(6) Uani 0.8900(14) 1 d PDU B 1 
C7B C -0.0132(2) -0.1615(3) 0.2444(2) 0.0253(9) Uani 0.8900(14) 1 d PDU B 1 
H7B H -0.0046 -0.1889 0.2135 0.030 Uiso 0.8900(14) 1 calc PR B 1 
C8B C 0.03716(16) -0.12312(17) 0.28315(13) 0.0250(6) Uani 0.8900(14) 1 d PDU B 1 
C4D C 0.00842(16) -0.08890(17) 0.32532(14) 0.0253(6) Uani 0.1100(14) 1 d PDU B 2 
C5D C -0.0611(9) -0.1022(14) 0.2961(11) 0.0259(2) Uani 0.1100(14) 1 d PDU B 2 
H5D H -0.0958 -0.0736 0.3050 0.031 Uiso 0.1100(14) 1 calc PR B 2 
C6D C -0.07493(16) -0.15345(17) 0.25779(13) 0.0235(6) Uani 0.1100(14) 1 d PDU B 2 
S7D S -0.0079(5) -0.1753(6) 0.2246(4) 0.0253(9) Uani 0.1100(14) 1 d PDU B 2 
C8D C 0.03716(16) -0.12312(17) 0.28315(13) 0.0250(6) Uani 0.1100(14) 1 d PDU B 2 
C9B C 0.10330(16) -0.11527(16) 0.28320(13) 0.0229(6) Uani 1 1 d . . . 
H9B H 0.1225 -0.1378 0.2549 0.028 Uiso 1 1 calc R B 1 
C10B C 0.14338(15) -0.07372(16) 0.32514(12) 0.0207(6) Uani 1 1 d . B . 
C11B C 0.21124(15) -0.06447(16) 0.32543(12) 0.0198(6) Uani 1 1 d . . . 
C12B C 0.25075(15) -0.02148(16) 0.36708(12) 0.0206(6) Uani 1 1 d . B . 
C13B C 0.31890(15) -0.01220(17) 0.36809(12) 0.0218(6) Uani 1 1 d . . . 
H13B H 0.3390 -0.0344 0.3402 0.026 Uiso 1 1 calc R B 1 
C14B C 0.35616(15) 0.02837(17) 0.40876(12) 0.0225(6) Uani 0.8900(14) 1 d PDU B 1 
C15B C 0.4253(2) 0.0444(2) 0.42043(18) 0.0243(8) Uani 0.8900(14) 1 d PDU B 1 
H15B H 0.4544 0.0270 0.3974 0.029 Uiso 0.8900(14) 1 calc PR B 1 
C16B C 0.44658(16) 0.08493(16) 0.46511(12) 0.0233(6) Uani 0.8900(14) 1 d PDU B 1 
S17B S 0.38219(4) 0.11278(5) 0.49815(4) 0.02270(19) Uani 0.8900(14) 1 d PDU B 1 
C18B C 0.32637(15) 0.06425(17) 0.45021(12) 0.0240(6) Uani 0.8900(14) 1 d PDU B 1 
C14D C 0.35616(15) 0.02837(17) 0.40876(12) 0.0225(6) Uani 0.1100(14) 1 d PDU B 2 
S15D S 0.4397(4) 0.0309(5) 0.4066(4) 0.0243(8) Uani 0.1100(14) 1 d PDU B 2 
C16D C 0.44658(16) 0.08493(16) 0.46511(12) 0.0233(6) Uani 0.1100(14) 1 d PDU B 2 
C17D C 0.3874(5) 0.0985(16) 0.4804(10) 0.02270(19) Uani 0.1100(14) 1 d PDU B 2 
H17D H 0.3852 0.1301 0.5107 0.027 Uiso 0.1100(14) 1 calc PR B 2 
C18D C 0.32637(15) 0.06425(17) 0.45021(12) 0.0240(6) Uani 0.1100(14) 1 d PDU B 2 
C19B C 0.25991(16) 0.05750(17) 0.44963(12) 0.0225(6) Uani 1 1 d . . . 
H19B H 0.2403 0.0821 0.4767 0.027 Uiso 1 1 calc R B 1 
C20B C 0.22026(16) 0.01393(15) 0.40874(12) 0.0197(6) Uani 1 1 d . B . 
C21B C 0.12150(16) 0.04416(17) 0.44696(13) 0.0234(6) Uani 1 1 d . . . 
C22B C 0.09559(17) 0.08189(18) 0.47753(14) 0.0277(7) Uani 1 1 d . . . 
C23B C 0.07558(18) 0.23525(19) 0.45856(16) 0.0330(8) Uani 1 1 d . . . 
H23C H 0.0548 0.2244 0.4194 0.040 Uiso 1 1 calc R . . 
H23D H 0.0554 0.2798 0.4698 0.040 Uiso 1 1 calc R . . 
C24B C 0.1494(2) 0.2476(3) 0.4612(2) 0.0552(12) Uani 1 1 d . . . 
H24C H 0.1713 0.2525 0.5008 0.066 Uiso 1 1 calc R . . 
H24D H 0.1687 0.2055 0.4452 0.066 Uiso 1 1 calc R . . 
C25B C 0.1621(3) 0.3142(3) 0.4292(2) 0.0575(12) Uani 1 1 d . . . 
H25D H 0.1388 0.3103 0.3903 0.086 Uiso 1 1 calc R . . 
H25E H 0.2095 0.3190 0.4297 0.086 Uiso 1 1 calc R . . 
H25F H 0.1461 0.3563 0.4467 0.086 Uiso 1 1 calc R . . 
C26B C 0.09577(18) 0.18236(19) 0.57932(15) 0.0324(7) Uani 1 1 d . . . 
H26E H 0.0907 0.1411 0.6038 0.039 Uiso 1 1 calc R . . 
H26F H 0.1435 0.1917 0.5819 0.039 Uiso 1 1 calc R . . 
C27B C 0.0621(2) 0.2488(2) 0.59917(17) 0.0424(9) Uani 1 1 d . . . 
H27E H 0.0620 0.2875 0.5713 0.051 Uiso 1 1 calc R . . 
H27F H 0.0157 0.2368 0.6005 0.051 Uiso 1 1 calc R . . 
C28B C 0.0949(2) 0.2762(2) 0.65612(16) 0.0379(8) Uani 1 1 d . . . 
H28G H 0.0977 0.2374 0.6836 0.057 Uiso 1 1 calc R . . 
H28H H 0.0689 0.3157 0.6674 0.057 Uiso 1 1 calc R . . 
H28I H 0.1394 0.2933 0.6542 0.057 Uiso 1 1 calc R . . 
C29B C -0.03250(17) 0.14323(19) 0.50129(14) 0.0294(7) Uani 1 1 d . . . 
H29C H -0.0374 0.1053 0.5287 0.035 Uiso 1 1 calc R . . 
H29D H -0.0527 0.1873 0.5133 0.035 Uiso 1 1 calc R . . 
C30B C -0.07148(19) 0.1210(2) 0.44481(16) 0.0337(8) Uani 1 1 d . . . 
H30C H -0.0521 0.0766 0.4325 0.040 Uiso 1 1 calc R . . 
H30D H -0.0676 0.1589 0.4170 0.040 Uiso 1 1 calc R . . 
C31B C -0.14440(19) 0.1082(2) 0.44591(16) 0.0382(8) Uani 1 1 d . . . 
H31D H -0.1487 0.0705 0.4731 0.057 Uiso 1 1 calc R . . 
H31E H -0.1670 0.0933 0.4086 0.057 Uiso 1 1 calc R . . 
H31F H -0.1643 0.1525 0.4567 0.057 Uiso 1 1 calc R . . 
C32B C 0.24186(15) -0.09754(17) 0.28397(12) 0.0214(6) Uani 1 1 d . B . 
C33B C 0.26999(17) -0.12285(18) 0.24938(13) 0.0265(7) Uani 1 1 d . . . 
C34B C 0.40561(19) -0.1687(3) 0.23497(16) 0.0422(9) Uani 1 1 d . . . 
H34C H 0.4061 -0.2172 0.2514 0.051 Uiso 1 1 calc R B . 
H34D H 0.4357 -0.1693 0.2075 0.051 Uiso 1 1 calc R . . 
C35B C 0.4322(2) -0.1170(3) 0.28068(17) 0.0528(12) Uani 1 1 d . B . 
H35E H 0.4058 -0.1208 0.3108 0.063 Uiso 1 1 calc R . . 
H35F H 0.4270 -0.0677 0.2655 0.063 Uiso 1 1 calc R . . 
C36B C 0.5045(2) -0.1295(5) 0.3057(2) 0.091(2) Uani 1 1 d . . . 
H36G H 0.5101 -0.1780 0.3211 0.136 Uiso 1 1 calc R B . 
H36H H 0.5187 -0.0946 0.3357 0.136 Uiso 1 1 calc R . . 
H36I H 0.5313 -0.1238 0.2765 0.136 Uiso 1 1 calc R . . 
C37B C 0.31741(16) -0.07099(18) 0.14796(14) 0.0274(7) Uani 1 1 d . . . 
H37C H 0.3374 -0.0291 0.1696 0.033 Uiso 1 1 calc R B . 
H37D H 0.3447 -0.0822 0.1194 0.033 Uiso 1 1 calc R . . 
C38B C 0.24784(17) -0.05097(18) 0.11806(14) 0.0301(7) Uani 1 1 d . B . 
H38C H 0.2283 -0.0917 0.0947 0.036 Uiso 1 1 calc R . . 
H38D H 0.2198 -0.0411 0.1462 0.036 Uiso 1 1 calc R . . 
C39B C 0.24934(19) 0.0143(2) 0.08145(15) 0.0340(8) Uani 1 1 d . . . 
H39D H 0.2660 0.0554 0.1049 0.051 Uiso 1 1 calc R B . 
H39E H 0.2047 0.0246 0.0614 0.051 Uiso 1 1 calc R . . 
H39F H 0.2784 0.0052 0.0544 0.051 Uiso 1 1 calc R . . 
C40B C 0.2814(2) -0.2293(2) 0.15752(16) 0.0425(10) Uani 1 1 d . . . 
H40C H 0.2951 -0.2721 0.1808 0.051 Uiso 1 1 calc R B 1 
H40D H 0.2330 -0.2248 0.1542 0.051 Uiso 1 1 calc R B 1 
C41B C 0.2957(3) -0.2434(3) 0.1001(2) 0.0709(15) Uani 0.665(5) 1 d PDU B 1 
H41C H 0.2668 -0.2827 0.0828 0.085 Uiso 0.665(5) 1 calc PR C 1 
H41D H 0.2846 -0.2001 0.0768 0.085 Uiso 0.665(5) 1 calc PR C 1 
C42B C 0.3603(3) -0.2616(4) 0.0998(3) 0.0456(15) Uani 0.665(5) 1 d PDU B 1 
H42D H 0.3893 -0.2226 0.1162 0.068 Uiso 0.665(5) 1 calc PR C 1 
H42E H 0.3663 -0.2698 0.0611 0.068 Uiso 0.665(5) 1 calc PR C 1 
H42F H 0.3714 -0.3054 0.1218 0.068 Uiso 0.665(5) 1 calc PR C 1 
C41D C 0.2957(3) -0.2434(3) 0.1001(2) 0.0709(15) Uani 0.335(5) 1 d PDU B 2 
H41E H 0.2555 -0.2268 0.0747 0.085 Uiso 0.335(5) 1 calc PR C 2 
H41F H 0.3303 -0.2081 0.0961 0.085 Uiso 0.335(5) 1 calc PR C 2 
C42D C 0.3144(9) -0.3057(7) 0.0737(5) 0.060(3) Uani 0.335(5) 1 d PDU B 2 
H42G H 0.3160 -0.2951 0.0344 0.091 Uiso 0.335(5) 1 calc PR C 2 
H42H H 0.2822 -0.3438 0.0755 0.091 Uiso 0.335(5) 1 calc PR C 2 
H42I H 0.3581 -0.3214 0.0928 0.091 Uiso 0.335(5) 1 calc PR C 2 
C43B C -0.14224(16) -0.17990(16) 0.23310(13) 0.0224(6) Uani 1 1 d . . . 
C44B C -0.22248(19) -0.2314(2) 0.15842(15) 0.0344(8) Uani 1 1 d . . . 
H44C H -0.2533 -0.1904 0.1513 0.041 Uiso 1 1 calc R B . 
H44D H -0.2385 -0.2652 0.1844 0.041 Uiso 1 1 calc R . . 
C45B C -0.2153(2) -0.2680(2) 0.10450(16) 0.0472(11) Uani 1 1 d . B . 
H45C H -0.2567 -0.2646 0.0766 0.057 Uiso 1 1 calc R . . 
H45D H -0.2037 -0.3191 0.1110 0.057 Uiso 1 1 calc R . . 
C46B C -0.1594(2) -0.2270(2) 0.08460(16) 0.0454(10) Uani 1 1 d . . . 
H46C H -0.1387 -0.2560 0.0584 0.054 Uiso 1 1 calc R B . 
H46D H -0.1753 -0.1813 0.0662 0.054 Uiso 1 1 calc R . . 
C47B C -0.1114(2) -0.2138(2) 0.13973(15) 0.0364(8) Uani 1 1 d . B . 
H47C H -0.0806 -0.2545 0.1489 0.044 Uiso 1 1 calc R . . 
H47D H -0.0857 -0.1694 0.1378 0.044 Uiso 1 1 calc R . . 
C48B C 0.51143(17) 0.11384(17) 0.49405(13) 0.0261(7) Uani 1 1 d . . . 
C49B C 0.58054(18) 0.0469(2) 0.43404(16) 0.0327(8) Uani 1 1 d . . . 
H49C H 0.5680 0.0677 0.3961 0.039 Uiso 1 1 calc R B . 
H49D H 0.5561 0.0016 0.4360 0.039 Uiso 1 1 calc R . . 
C50B C 0.6552(2) 0.0354(2) 0.4495(2) 0.0480(10) Uani 1 1 d . B . 
H50C H 0.6657 -0.0041 0.4769 0.058 Uiso 1 1 calc R . . 
H50D H 0.6741 0.0241 0.4158 0.058 Uiso 1 1 calc R . . 
C51B C 0.6812(2) 0.1056(2) 0.47474(19) 0.0441(9) Uani 1 1 d . . . 
H51C H 0.6864 0.1405 0.4452 0.053 Uiso 1 1 calc R B . 
H51D H 0.7243 0.0990 0.4998 0.053 Uiso 1 1 calc R . . 
C52B C 0.62940(18) 0.1305(2) 0.50741(16) 0.0356(8) Uani 1 1 d . B . 
H52C H 0.6396 0.1138 0.5467 0.043 Uiso 1 1 calc R . . 
H52D H 0.6258 0.1834 0.5070 0.043 Uiso 1 1 calc R . . 
 
loop_ 
 _atom_site_aniso_label 
 _atom_site_aniso_U_11 
 _atom_site_aniso_U_22 
 _atom_site_aniso_U_33 
 _atom_site_aniso_U_23 
 _atom_site_aniso_U_13 
 _atom_site_aniso_U_12 
Si1A 0.0242(5) 0.0290(5) 0.0519(6) -0.0134(4) 0.0122(4) 0.0034(4) 
Si2A 0.0220(4) 0.0283(4) 0.0269(4) -0.0060(3) 0.0098(3) -0.0021(4) 
N1A 0.0300(15) 0.0256(15) 0.0307(14) 0.0030(11) -0.0040(12) -0.0014(12) 
N2A 0.0213(14) 0.0230(14) 0.0312(14) 0.0016(11) 0.0011(11) -0.0035(11) 
O1A 0.0233(13) 0.0310(13) 0.0433(14) 0.0011(10) 0.0028(10) 0.0011(10) 
O2A 0.0305(13) 0.0377(14) 0.0372(13) -0.0158(11) 0.0032(10) -0.0069(11) 
C1A 0.0202(15) 0.0229(15) 0.0227(14) 0.0019(12) 0.0044(12) 0.0047(13) 
C2A 0.0207(15) 0.0191(14) 0.0230(14) 0.0038(11) 0.0052(11) 0.0067(12) 
C3A 0.0234(16) 0.0221(16) 0.0290(16) 0.0039(12) 0.0096(12) 0.0050(13) 
C4A 0.0186(15) 0.0236(15) 0.0276(15) 0.0079(12) 0.0058(12) 0.0045(13) 
S5A 0.0167(4) 0.0272(4) 0.0256(4) -0.0013(3) 0.0046(3) 0.0028(4) 
C6A 0.0202(16) 0.0188(15) 0.0262(15) 0.0027(11) 0.0034(12) 0.0033(12) 
C7A 0.0194(14) 0.021(3) 0.033(3) 0.0045(15) 0.0124(16) 0.0094(17) 
C8A 0.0179(15) 0.0219(15) 0.0222(14) 0.0044(11) 0.0029(11) 0.0022(12) 
C4C 0.0186(15) 0.0236(15) 0.0276(15) 0.0079(12) 0.0058(12) 0.0045(13) 
C5C 0.0167(4) 0.0272(4) 0.0256(4) -0.0013(3) 0.0046(3) 0.0028(4) 
C6C 0.0202(16) 0.0188(15) 0.0262(15) 0.0027(11) 0.0034(12) 0.0033(12) 
S7C 0.0194(14) 0.021(3) 0.033(3) 0.0045(15) 0.0124(16) 0.0094(17) 
C8C 0.0179(15) 0.0219(15) 0.0222(14) 0.0044(11) 0.0029(11) 0.0022(12) 
C9A 0.0216(16) 0.0240(16) 0.0224(14) 0.0025(12) 0.0033(12) 0.0009(13) 
C10A 0.0205(15) 0.0191(14) 0.0174(13) 0.0032(11) 0.0029(11) 0.0034(12) 
C11A 0.0199(15) 0.0187(14) 0.0209(14) 0.0042(11) 0.0057(11) 0.0018(12) 
C12A 0.0204(15) 0.0177(14) 0.0216(14) 0.0042(11) 0.0045(11) 0.0051(12) 
C13A 0.0221(16) 0.0170(14) 0.0245(14) 0.0030(11) 0.0054(12) 0.0042(12) 
C14A 0.0214(15) 0.0183(14) 0.0252(15) 0.0048(11) 0.0034(11) 0.0038(12) 
C15A 0.024(2) 0.024(2) 0.025(2) -0.0044(15) 0.0118(14) 0.0047(17) 
C16A 0.0224(16) 0.0208(16) 0.0270(15) -0.0021(12) 0.0057(12) 0.0011(13) 
S17A 0.0215(4) 0.0254(4) 0.0224(4) -0.0085(3) 0.0037(3) 0.0003(3) 
C18A 0.0262(17) 0.0211(15) 0.0235(15) -0.0006(12) 0.0019(12) 0.0023(13) 
C14C 0.0214(15) 0.0183(14) 0.0252(15) 0.0048(11) 0.0034(11) 0.0038(12) 
S15C 0.024(2) 0.024(2) 0.025(2) -0.0044(15) 0.0118(14) 0.0047(17) 
C16C 0.0224(16) 0.0208(16) 0.0270(15) -0.0021(12) 0.0057(12) 0.0011(13) 
C17C 0.0215(4) 0.0254(4) 0.0224(4) -0.0085(3) 0.0037(3) 0.0003(3) 
C18C 0.0262(17) 0.0211(15) 0.0235(15) -0.0006(12) 0.0019(12) 0.0023(13) 
C19A 0.0251(17) 0.0221(16) 0.0240(15) -0.0003(12) 0.0034(12) 0.0037(13) 
C20A 0.0231(16) 0.0218(15) 0.0190(14) 0.0030(11) 0.0040(11) 0.0029(13) 
C21A 0.0209(16) 0.0254(17) 0.0269(16) 0.0002(12) 0.0029(12) 0.0035(13) 
C22A 0.0252(18) 0.0256(17) 0.0364(18) -0.0048(14) 0.0087(14) 0.0014(14) 
C23A 0.036(2) 0.0279(19) 0.048(2) -0.0079(15) -0.0011(16) 0.0054(16) 
C24A 0.038(2) 0.056(3) 0.069(3) 0.008(2) 0.013(2) -0.004(2) 
C25A 0.057(3) 0.055(3) 0.077(3) -0.003(2) 0.025(3) -0.012(2) 
C26A 0.073(3) 0.048(3) 0.050(2) -0.021(2) 0.010(2) 0.006(2) 
C27A 0.045(3) 0.059(4) 0.063(4) -0.032(3) 0.003(3) -0.003(3) 
C28A 0.060(4) 0.077(5) 0.072(4) -0.047(4) 0.012(3) 0.004(4) 
C26C 0.073(3) 0.048(3) 0.050(2) -0.021(2) 0.010(2) 0.006(2) 
C27C 0.045(3) 0.059(4) 0.063(4) -0.032(3) 0.003(3) -0.003(3) 
C28C 0.060(4) 0.077(5) 0.072(4) -0.047(4) 0.012(3) 0.004(4) 
C29A 0.040(2) 0.040(2) 0.046(2) -0.0002(17) 0.0116(17) 0.0097(18) 
C30A 0.031(2) 0.055(3) 0.051(2) -0.0128(19) 0.0064(17) 0.0077(19) 
C31A 0.029(2) 0.051(2) 0.048(2) 0.0014(18) 0.0072(16) 0.0042(18) 
C32A 0.0186(15) 0.0214(15) 0.0226(14) -0.0009(11) 0.0042(11) 0.0006(12) 
C33A 0.0199(15) 0.0270(16) 0.0254(15) 0.0009(12) 0.0035(12) -0.0015(13) 
C34A 0.0259(18) 0.043(2) 0.040(2) -0.0131(16) 0.0089(15) 0.0053(16) 
C35A 0.0274(19) 0.055(2) 0.038(2) -0.0064(17) 0.0089(15) -0.0012(18) 
C36A 0.031(2) 0.126(5) 0.057(3) -0.033(3) 0.002(2) 0.007(3) 
C37A 0.042(2) 0.0341(19) 0.0365(19) -0.0103(15) 0.0217(16) -0.0148(16) 
C38A 0.043(2) 0.034(2) 0.0309(18) 0.0001(14) 0.0074(15) -0.0079(16) 
C39A 0.078(3) 0.041(2) 0.049(2) 0.0078(19) 0.005(2) -0.020(2) 
C40A 0.0338(19) 0.0306(18) 0.0325(17) -0.0056(14) 0.0106(14) -0.0037(15) 
C41A 0.048(2) 0.035(2) 0.0314(18) -0.0072(15) 0.0089(16) -0.0050(17) 
C42A 0.051(3) 0.054(3) 0.043(2) -0.0138(19) 0.0191(19) 0.005(2) 
C43A 0.0237(17) 0.0193(15) 0.0305(16) 0.0050(12) -0.0002(13) 0.0009(13) 
C44A 0.033(2) 0.034(2) 0.0389(19) 0.0034(15) -0.0021(15) -0.0044(16) 
C45A 0.037(2) 0.035(2) 0.0329(18) -0.0063(15) 0.0022(15) 0.0014(16) 
C46A 0.037(2) 0.043(2) 0.042(2) -0.0067(17) 0.0045(16) -0.0021(18) 
C47A 0.039(2) 0.0346(19) 0.0301(17) -0.0020(14) 0.0055(14) -0.0013(16) 
C48A 0.0292(18) 0.0201(15) 0.0265(16) -0.0002(12) -0.0001(13) -0.0009(14) 
C49A 0.0276(18) 0.0298(18) 0.0309(17) 0.0031(13) 0.0059(13) 0.0009(14) 
C50A 0.032(2) 0.042(2) 0.043(2) 0.0023(17) 0.0049(16) 0.0059(17) 
C51A 0.0255(19) 0.0326(19) 0.048(2) 0.0117(16) 0.0020(15) -0.0050(15) 
C52A 0.0233(18) 0.0288(18) 0.0383(18) 0.0028(14) -0.0044(14) -0.0094(14) 
Si1B 0.0206(4) 0.0233(4) 0.0337(4) -0.0066(3) 0.0084(3) 0.0027(3) 
Si2B 0.0242(5) 0.0334(5) 0.0232(4) -0.0017(3) 0.0083(3) 0.0046(4) 
N1B 0.0275(15) 0.0307(15) 0.0276(14) -0.0017(11) 0.0047(11) -0.0110(12) 
N2B 0.0225(15) 0.0219(14) 0.0333(14) 0.0005(11) 0.0033(11) -0.0003(11) 
O1B 0.0229(12) 0.0244(12) 0.0375(13) -0.0001(9) 0.0083(9) -0.0006(9) 
O2B 0.0324(14) 0.0366(14) 0.0371(13) -0.0134(11) 0.0033(11) -0.0043(11) 
C1B 0.0251(16) 0.0146(14) 0.0225(14) 0.0036(11) 0.0042(11) 0.0052(12) 
C2B 0.0223(16) 0.0173(14) 0.0247(15) 0.0031(11) 0.0035(12) 0.0038(12) 
C3B 0.0205(16) 0.0216(15) 0.0299(16) 0.0031(12) 0.0057(12) 0.0060(13) 
C4B 0.0194(15) 0.0206(15) 0.0358(17) 0.0043(12) 0.0043(13) 0.0053(13) 
S5B 0.0215(4) 0.0282(5) 0.0279(4) -0.0028(3) 0.0043(3) 0.0017(4) 
C6B 0.0235(16) 0.0212(16) 0.0272(15) 0.0015(11) 0.0084(12) 0.0012(12) 
C7B 0.0168(15) 0.024(2) 0.034(3) 0.0116(19) 0.0025(18) -0.0013(14) 
C8B 0.0260(16) 0.0201(15) 0.0277(15) 0.0021(12) 0.0011(12) 0.0015(13) 
C4D 0.0194(15) 0.0206(15) 0.0358(17) 0.0043(12) 0.0043(13) 0.0053(13) 
C5D 0.0215(4) 0.0282(5) 0.0279(4) -0.0028(3) 0.0043(3) 0.0017(4) 
C6D 0.0235(16) 0.0212(16) 0.0272(15) 0.0015(11) 0.0084(12) 0.0012(12) 
S7D 0.0168(15) 0.024(2) 0.034(3) 0.0116(19) 0.0025(18) -0.0013(14) 
C8D 0.0260(16) 0.0201(15) 0.0277(15) 0.0021(12) 0.0011(12) 0.0015(13) 
C9B 0.0259(17) 0.0204(15) 0.0222(14) 0.0003(11) 0.0036(12) 0.0029(13) 
C10B 0.0199(15) 0.0177(14) 0.0253(14) 0.0038(11) 0.0062(11) 0.0034(12) 
C11B 0.0226(16) 0.0181(14) 0.0184(13) 0.0028(11) 0.0026(11) 0.0048(12) 
C12B 0.0227(16) 0.0165(14) 0.0231(14) 0.0023(11) 0.0052(12) 0.0041(12) 
C13B 0.0195(15) 0.0256(16) 0.0210(14) 0.0033(12) 0.0059(11) 0.0062(13) 
C14B 0.0195(15) 0.0223(15) 0.0254(15) 0.0063(11) 0.0031(11) 0.0014(12) 
C15B 0.028(2) 0.023(2) 0.024(2) -0.0061(14) 0.0097(14) 0.0060(16) 
C16B 0.0241(16) 0.0215(15) 0.0229(14) 0.0027(11) 0.0009(12) 0.0003(13) 
S17B 0.0211(4) 0.0239(4) 0.0230(4) -0.0058(3) 0.0036(3) 0.0013(3) 
C18B 0.0268(16) 0.0220(15) 0.0222(14) 0.0022(12) 0.0020(12) 0.0027(13) 
C14D 0.0195(15) 0.0223(15) 0.0254(15) 0.0063(11) 0.0031(11) 0.0014(12) 
S15D 0.028(2) 0.023(2) 0.024(2) -0.0061(14) 0.0097(14) 0.0060(16) 
C16D 0.0241(16) 0.0215(15) 0.0229(14) 0.0027(11) 0.0009(12) 0.0003(13) 
C17D 0.0211(4) 0.0239(4) 0.0230(4) -0.0058(3) 0.0036(3) 0.0013(3) 
C18D 0.0268(16) 0.0220(15) 0.0222(14) 0.0022(12) 0.0020(12) 0.0027(13) 
C19B 0.0246(17) 0.0199(15) 0.0234(15) -0.0004(11) 0.0049(12) 0.0022(13) 
C20B 0.0228(15) 0.0156(14) 0.0206(13) 0.0013(11) 0.0036(11) 0.0030(12) 
C21B 0.0238(17) 0.0224(16) 0.0247(15) 0.0001(12) 0.0063(12) 0.0040(13) 
C22B 0.0238(17) 0.0300(18) 0.0286(16) -0.0029(13) 0.0026(13) -0.0017(14) 
C23B 0.0342(19) 0.0246(17) 0.0429(19) 0.0010(14) 0.0140(15) 0.0052(15) 
C24B 0.042(3) 0.057(3) 0.066(3) 0.022(2) 0.008(2) 0.005(2) 
C25B 0.051(3) 0.051(3) 0.075(3) 0.013(2) 0.022(2) -0.006(2) 
C26B 0.0313(18) 0.0299(18) 0.0373(18) -0.0075(14) 0.0101(14) 0.0003(15) 
C27B 0.048(2) 0.035(2) 0.045(2) -0.0059(16) 0.0113(18) 0.0163(18) 
C28B 0.044(2) 0.0324(19) 0.041(2) -0.0088(15) 0.0161(16) 0.0011(16) 
C29B 0.0221(17) 0.0281(17) 0.0387(19) -0.0060(14) 0.0072(13) 0.0014(14) 
C30B 0.0312(19) 0.0322(19) 0.0389(19) -0.0037(14) 0.0093(15) -0.0014(15) 
C31B 0.0287(19) 0.044(2) 0.0398(19) 0.0001(16) 0.0011(15) -0.0016(17) 
C32B 0.0187(15) 0.0224(15) 0.0228(14) 0.0021(11) 0.0027(12) -0.0009(12) 
C33B 0.0249(17) 0.0276(17) 0.0277(16) -0.0002(13) 0.0061(13) 0.0042(14) 
C34B 0.028(2) 0.059(3) 0.041(2) 0.0016(18) 0.0088(16) 0.0097(18) 
C35B 0.034(2) 0.093(4) 0.032(2) -0.008(2) 0.0057(16) 0.006(2) 
C36B 0.030(2) 0.192(8) 0.047(3) -0.037(4) -0.003(2) 0.017(3) 
C37B 0.0230(16) 0.0304(17) 0.0312(16) -0.0060(13) 0.0116(13) -0.0049(14) 
C38B 0.0285(18) 0.0291(17) 0.0353(17) -0.0005(13) 0.0129(14) -0.0046(14) 
C39B 0.040(2) 0.0306(19) 0.0336(18) -0.0014(14) 0.0115(15) -0.0016(15) 
C40B 0.068(3) 0.0291(19) 0.0295(18) 0.0025(14) 0.0055(17) 0.0010(18) 
C41B 0.119(4) 0.045(3) 0.048(3) -0.005(2) 0.014(3) 0.021(3) 
C42B 0.051(4) 0.047(4) 0.037(3) -0.002(3) 0.003(3) 0.006(3) 
C41D 0.119(4) 0.045(3) 0.048(3) -0.005(2) 0.014(3) 0.021(3) 
C42D 0.094(8) 0.051(7) 0.041(6) -0.018(5) 0.023(6) 0.013(6) 
C43B 0.0225(16) 0.0175(15) 0.0270(15) 0.0021(11) 0.0040(12) 0.0017(13) 
C44B 0.0323(19) 0.0338(19) 0.0340(18) 0.0004(14) -0.0018(14) -0.0139(16) 
C45B 0.058(3) 0.044(2) 0.037(2) -0.0114(17) -0.0005(18) -0.023(2) 
C46B 0.053(3) 0.049(2) 0.035(2) -0.0056(17) 0.0099(17) -0.016(2) 
C47B 0.045(2) 0.0369(19) 0.0300(17) -0.0081(14) 0.0132(15) -0.0156(17) 
C48B 0.0267(17) 0.0231(16) 0.0268(16) 0.0001(12) 0.0006(13) -0.0020(13) 
C49B 0.0251(18) 0.0321(19) 0.0429(19) -0.0007(15) 0.0111(14) 0.0033(15) 
C50B 0.029(2) 0.047(2) 0.070(3) -0.005(2) 0.0126(19) 0.0027(18) 
C51B 0.027(2) 0.051(2) 0.054(2) 0.0061(19) 0.0085(17) 0.0025(18) 
C52B 0.0293(19) 0.0305(19) 0.046(2) 0.0063(15) 0.0041(15) -0.0032(15) 
 
_geom_special_details 
; 
 All esds (except the esd in the dihedral angle between two l.s. planes) 
 are estimated using the full covariance matrix.  The cell esds are taken 
 into account individually in the estimation of esds in distances, angles 
 and torsion angles; correlations between esds in cell parameters are only 
 used when they are defined by crystal symmetry.  An approximate (isotropic) 
 treatment of cell esds is used for estimating esds involving l.s. planes. 
; 
 
loop_ 
 _geom_bond_atom_site_label_1 
 _geom_bond_atom_site_label_2 
 _geom_bond_distance 
 _geom_bond_site_symmetry_2 
 _geom_bond_publ_flag 
Si1A C22A 1.845(3) . ? 
Si1A C23A 1.860(4) . ? 
Si1A C29A 1.865(4) . ? 
Si1A C26A 1.902(5) . ? 
Si2A C33A 1.849(3) . ? 
Si2A C34A 1.876(4) . ? 
Si2A C40A 1.879(4) . ? 
Si2A C37A 1.882(4) . ? 
N1A C43A 1.360(4) . ? 
N1A C44A 1.448(5) . ? 
N1A C47A 1.478(5) . ? 
N2A C48A 1.331(5) . ? 
N2A C49A 1.467(4) . ? 
N2A C52A 1.470(4) . ? 
O1A C43A 1.236(4) . ? 
O2A C48A 1.240(4) . ? 
C1A C20A 1.412(4) . ? 
C1A C2A 1.417(4) . ? 
C1A C21A 1.422(4) . ? 
C2A C3A 1.415(4) . ? 
C2A C10A 1.443(4) . ? 
C3A C4A 1.364(5) . ? 
C3A H3A 0.9500 . ? 
C4A C8A 1.433(4) . ? 
C4A S5A 1.736(3) . ? 
S5A C6A 1.748(3) . ? 
C6A C7A 1.360(5) . ? 
C6A C43A 1.472(4) . ? 
C7A C8A 1.438(6) . ? 
C7A H7A 0.9500 . ? 
C8A C9A 1.388(4) . ? 
C5C H5C 0.9500 . ? 
C9A C10A 1.414(4) . ? 
C9A H9A 0.9500 . ? 
C10A C11A 1.415(4) . ? 
C11A C12A 1.407(4) . ? 
C11A C32A 1.441(4) . ? 
C12A C13A 1.408(4) . ? 
C12A C20A 1.448(4) . ? 
C13A C14A 1.371(4) . ? 
C13A H13A 0.9500 . ? 
C14A C15A 1.417(6) . ? 
C14A C18A 1.436(4) . ? 
C15A C16A 1.329(6) . ? 
C15A H15A 0.9500 . ? 
C16A C48A 1.499(5) . ? 
C16A S17A 1.754(3) . ? 
S17A C18A 1.750(3) . ? 
C18A C19A 1.366(5) . ? 
C17C H17C 0.9500 . ? 
C19A C20A 1.419(4) . ? 
C19A H19A 0.9500 . ? 
C21A C22A 1.214(5) . ? 
C23A C24A 1.515(6) . ? 
C23A H23A 0.9900 . ? 
C23A H23B 0.9900 . ? 
C24A C25A 1.513(7) . ? 
C24A H24A 0.9900 . ? 
C24A H24B 0.9900 . ? 
C25A H25A 0.9800 . ? 
C25A H25B 0.9800 . ? 
C25A H25C 0.9800 . ? 
C26A C27A 1.576(7) . ? 
C26A H26A 0.9900 . ? 
C26A H26B 0.9900 . ? 
C27A C28A 1.472(9) . ? 
C27A H27A 0.9900 . ? 
C27A H27B 0.9900 . ? 
C28A H28A 0.9800 . ? 
C28A H28B 0.9800 . ? 
C28A H28C 0.9800 . ? 
C27C C28C 1.530(16) . ? 
C27C H27C 0.9900 . ? 
C27C H27D 0.9900 . ? 
C28C H28D 0.9800 . ? 
C28C H28E 0.9800 . ? 
C28C H28F 0.9800 . ? 
C29A C30A 1.503(6) . ? 
C29A H29A 0.9900 . ? 
C29A H29B 0.9900 . ? 
C30A C31A 1.532(6) . ? 
C30A H30A 0.9900 . ? 
C30A H30B 0.9900 . ? 
C31A H31A 0.9800 . ? 
C31A H31B 0.9800 . ? 
C31A H31C 0.9800 . ? 
C32A C33A 1.204(5) . ? 
C34A C35A 1.527(5) . ? 
C34A H34A 0.9900 . ? 
C34A H34B 0.9900 . ? 
C35A C36A 1.527(6) . ? 
C35A H35A 0.9900 . ? 
C35A H35B 0.9900 . ? 
C36A H36A 0.9800 . ? 
C36A H36B 0.9800 . ? 
C36A H36C 0.9800 . ? 
C37A C38A 1.526(6) . ? 
C37A H37A 0.9900 . ? 
C37A H37B 0.9900 . ? 
C38A C39A 1.515(5) . ? 
C38A H38A 0.9900 . ? 
C38A H38B 0.9900 . ? 
C39A H39A 0.9800 . ? 
C39A H39B 0.9800 . ? 
C39A H39C 0.9800 . ? 
C40A C41A 1.545(5) . ? 
C40A H40A 0.9900 . ? 
C40A H40B 0.9900 . ? 
C41A C42A 1.488(6) . ? 
C41A H41A 0.9900 . ? 
C41A H41B 0.9900 . ? 
C42A H42A 0.9800 . ? 
C42A H42B 0.9800 . ? 
C42A H42C 0.9800 . ? 
C44A C45A 1.530(5) . ? 
C44A H44A 0.9900 . ? 
C44A H44B 0.9900 . ? 
C45A C46A 1.492(6) . ? 
C45A H45A 0.9900 . ? 
C45A H45B 0.9900 . ? 
C46A C47A 1.515(5) . ? 
C46A H46A 0.9900 . ? 
C46A H46B 0.9900 . ? 
C47A H47A 0.9900 . ? 
C47A H47B 0.9900 . ? 
C49A C50A 1.507(5) . ? 
C49A H49A 0.9900 . ? 
C49A H49B 0.9900 . ? 
C50A C51A 1.530(5) . ? 
C50A H50A 0.9900 . ? 
C50A H50B 0.9900 . ? 
C51A C52A 1.523(5) . ? 
C51A H51A 0.9900 . ? 
C51A H51B 0.9900 . ? 
C52A H52A 0.9900 . ? 
C52A H52B 0.9900 . ? 
Si1B C22B 1.840(4) . ? 
Si1B C23B 1.873(4) . ? 
Si1B C29B 1.875(4) . ? 
Si1B C26B 1.880(4) . ? 
Si2B C33B 1.850(3) . ? 
Si2B C40B 1.869(4) . ? 
Si2B C37B 1.875(4) . ? 
Si2B C34B 1.877(4) . ? 
N1B C43B 1.338(4) . ? 
N1B C44B 1.470(4) . ? 
N1B C47B 1.475(4) . ? 
N2B C48B 1.353(5) . ? 
N2B C49B 1.466(5) . ? 
N2B C52B 1.466(5) . ? 
O1B C43B 1.232(4) . ? 
O2B C48B 1.230(4) . ? 
C1B C20B 1.410(4) . ? 
C1B C2B 1.416(4) . ? 
C1B C21B 1.435(4) . ? 
C2B C3B 1.417(4) . ? 
C2B C10B 1.442(4) . ? 
C3B C4B 1.371(5) . ? 
C3B H3B 0.9500 . ? 
C4B C8B 1.424(5) . ? 
C4B S5B 1.745(3) . ? 
S5B C6B 1.750(3) . ? 
C6B C7B 1.377(6) . ? 
C6B C43B 1.493(5) . ? 
C7B C8B 1.459(6) . ? 
C7B H7B 0.9500 . ? 
C8B C9B 1.371(5) . ? 
C5D H5D 0.9500 . ? 
C9B C10B 1.420(4) . ? 
C9B H9B 0.9500 . ? 
C10B C11B 1.409(4) . ? 
C11B C32B 1.423(4) . ? 
C11B C12B 1.426(4) . ? 
C12B C13B 1.412(4) . ? 
C12B C20B 1.444(4) . ? 
C13B C14B 1.365(4) . ? 
C13B H13B 0.9500 . ? 
C14B C15B 1.434(5) . ? 
C14B C18B 1.436(4) . ? 
C15B C16B 1.330(5) . ? 
C15B H15B 0.9500 . ? 
C16B C48B 1.494(4) . ? 
C16B S17B 1.750(3) . ? 
S17B C18B 1.737(3) . ? 
C18B C19B 1.374(4) . ? 
C17D H17D 0.9500 . ? 
C19B C20B 1.422(4) . ? 
C19B H19B 0.9500 . ? 
C21B C22B 1.215(5) . ? 
C23B C24B 1.529(6) . ? 
C23B H23C 0.9900 . ? 
C23B H23D 0.9900 . ? 
C24B C25B 1.515(6) . ? 
C24B H24C 0.9900 . ? 
C24B H24D 0.9900 . ? 
C25B H25D 0.9800 . ? 
C25B H25E 0.9800 . ? 
C25B H25F 0.9800 . ? 
C26B C27B 1.541(5) . ? 
C26B H26E 0.9900 . ? 
C26B H26F 0.9900 . ? 
C27B C28B 1.514(5) . ? 
C27B H27E 0.9900 . ? 
C27B H27F 0.9900 . ? 
C28B H28G 0.9800 . ? 
C28B H28H 0.9800 . ? 
C28B H28I 0.9800 . ? 
C29B C30B 1.516(5) . ? 
C29B H29C 0.9900 . ? 
C29B H29D 0.9900 . ? 
C30B C31B 1.528(5) . ? 
C30B H30C 0.9900 . ? 
C30B H30D 0.9900 . ? 
C31B H31D 0.9800 . ? 
C31B H31E 0.9800 . ? 
C31B H31F 0.9800 . ? 
C32B C33B 1.201(5) . ? 
C34B C35B 1.499(6) . ? 
C34B H34C 0.9900 . ? 
C34B H34D 0.9900 . ? 
C35B C36B 1.523(6) . ? 
C35B H35E 0.9900 . ? 
C35B H35F 0.9900 . ? 
C36B H36G 0.9800 . ? 
C36B H36H 0.9800 . ? 
C36B H36I 0.9800 . ? 
C37B C38B 1.532(5) . ? 
C37B H37C 0.9900 . ? 
C37B H37D 0.9900 . ? 
C38B C39B 1.512(5) . ? 
C38B H38C 0.9900 . ? 
C38B H38D 0.9900 . ? 
C39B H39D 0.9800 . ? 
C39B H39E 0.9800 . ? 
C39B H39F 0.9800 . ? 
C40B C41B 1.499(6) . ? 
C40B H40C 0.9900 . ? 
C40B H40D 0.9900 . ? 
C41B C42B 1.377(9) . ? 
C41B H41C 0.9900 . ? 
C41B H41D 0.9900 . ? 
C42B H42D 0.9800 . ? 
C42B H42E 0.9800 . ? 
C42B H42F 0.9800 . ? 
C42D H42G 0.9800 . ? 
C42D H42H 0.9800 . ? 
C42D H42I 0.9800 . ? 
C44B C45B 1.507(5) . ? 
C44B H44C 0.9900 . ? 
C44B H44D 0.9900 . ? 
C45B C46B 1.534(6) . ? 
C45B H45C 0.9900 . ? 
C45B H45D 0.9900 . ? 
C46B C47B 1.533(5) . ? 
C46B H46C 0.9900 . ? 
C46B H46D 0.9900 . ? 
C47B H47C 0.9900 . ? 
C47B H47D 0.9900 . ? 
C49B C50B 1.532(5) . ? 
C49B H49C 0.9900 . ? 
C49B H49D 0.9900 . ? 
C50B C51B 1.506(6) . ? 
C50B H50C 0.9900 . ? 
C50B H50D 0.9900 . ? 
C51B C52B 1.515(6) . ? 
C51B H51C 0.9900 . ? 
C51B H51D 0.9900 . ? 
C52B H52C 0.9900 . ? 
C52B H52D 0.9900 . ? 
 
loop_ 
 _geom_angle_atom_site_label_1 
 _geom_angle_atom_site_label_2 
 _geom_angle_atom_site_label_3 
 _geom_angle 
 _geom_angle_site_symmetry_1 
 _geom_angle_site_symmetry_3 
 _geom_angle_publ_flag 
C22A Si1A C23A 104.39(17) . . ? 
C22A Si1A C29A 109.24(18) . . ? 
C23A Si1A C29A 114.52(18) . . ? 
C22A Si1A C26A 107.98(19) . . ? 
C23A Si1A C26A 110.0(2) . . ? 
C29A Si1A C26A 110.4(2) . . ? 
C33A Si2A C34A 106.16(15) . . ? 
C33A Si2A C40A 108.34(15) . . ? 
C34A Si2A C40A 113.70(17) . . ? 
C33A Si2A C37A 107.16(16) . . ? 
C34A Si2A C37A 111.91(19) . . ? 
C40A Si2A C37A 109.27(16) . . ? 
C43A N1A C44A 118.9(3) . . ? 
C43A N1A C47A 128.8(3) . . ? 
C44A N1A C47A 112.1(3) . . ? 
C48A N2A C49A 130.0(3) . . ? 
C48A N2A C52A 118.3(3) . . ? 
C49A N2A C52A 111.4(3) . . ? 
C20A C1A C2A 120.6(3) . . ? 
C20A C1A C21A 120.0(3) . . ? 
C2A C1A C21A 119.3(3) . . ? 
C3A C2A C1A 121.0(3) . . ? 
C3A C2A C10A 119.5(3) . . ? 
C1A C2A C10A 119.5(3) . . ? 
C4A C3A C2A 119.7(3) . . ? 
C4A C3A H3A 120.2 . . ? 
C2A C3A H3A 120.2 . . ? 
C3A C4A C8A 121.6(3) . . ? 
C3A C4A S5A 126.0(2) . . ? 
C8A C4A S5A 112.4(2) . . ? 
C4A S5A C6A 90.82(15) . . ? 
C7A C6A C43A 134.5(3) . . ? 
C7A C6A S5A 112.7(3) . . ? 
C43A C6A S5A 112.7(2) . . ? 
C6A C7A C8A 114.1(4) . . ? 
C6A C7A H7A 123.0 . . ? 
C8A C7A H7A 123.0 . . ? 
C9A C8A C4A 119.9(3) . . ? 
C9A C8A C7A 130.3(3) . . ? 
C4A C8A C7A 109.8(3) . . ? 
C8A C9A C10A 119.7(3) . . ? 
C8A C9A H9A 120.2 . . ? 
C10A C9A H9A 120.2 . . ? 
C9A C10A C11A 120.9(3) . . ? 
C9A C10A C2A 119.6(3) . . ? 
C11A C10A C2A 119.5(3) . . ? 
C12A C11A C10A 121.4(3) . . ? 
C12A C11A C32A 119.0(3) . . ? 
C10A C11A C32A 119.6(3) . . ? 
C11A C12A C13A 122.3(3) . . ? 
C11A C12A C20A 119.0(3) . . ? 
C13A C12A C20A 118.7(3) . . ? 
C14A C13A C12A 121.3(3) . . ? 
C14A C13A H13A 119.3 . . ? 
C12A C13A H13A 119.3 . . ? 
C13A C14A C15A 132.1(3) . . ? 
C13A C14A C18A 119.2(3) . . ? 
C15A C14A C18A 108.7(3) . . ? 
C16A C15A C14A 117.0(3) . . ? 
C16A C15A H15A 121.5 . . ? 
C14A C15A H15A 121.5 . . ? 
C15A C16A C48A 137.3(3) . . ? 
C15A C16A S17A 111.8(3) . . ? 
C48A C16A S17A 110.9(2) . . ? 
C18A S17A C16A 90.40(15) . . ? 
C19A C18A C14A 121.8(3) . . ? 
C19A C18A S17A 126.1(2) . . ? 
C14A C18A S17A 112.1(2) . . ? 
C18A C19A C20A 119.3(3) . . ? 
C18A C19A H19A 120.3 . . ? 
C20A C19A H19A 120.3 . . ? 
C1A C20A C19A 120.4(3) . . ? 
C1A C20A C12A 120.0(3) . . ? 
C19A C20A C12A 119.6(3) . . ? 
C22A C21A C1A 174.4(4) . . ? 
C21A C22A Si1A 164.5(3) . . ? 
C24A C23A Si1A 114.1(3) . . ? 
C24A C23A H23A 108.7 . . ? 
Si1A C23A H23A 108.7 . . ? 
C24A C23A H23B 108.7 . . ? 
Si1A C23A H23B 108.7 . . ? 
H23A C23A H23B 107.6 . . ? 
C25A C24A C23A 110.3(4) . . ? 
C25A C24A H24A 109.6 . . ? 
C23A C24A H24A 109.6 . . ? 
C25A C24A H24B 109.6 . . ? 
C23A C24A H24B 109.6 . . ? 
H24A C24A H24B 108.1 . . ? 
C24A C25A H25A 109.5 . . ? 
C24A C25A H25B 109.5 . . ? 
H25A C25A H25B 109.5 . . ? 
C24A C25A H25C 109.5 . . ? 
H25A C25A H25C 109.5 . . ? 
H25B C25A H25C 109.5 . . ? 
C27A C26A Si1A 117.6(4) . . ? 
C27A C26A H26A 107.9 . . ? 
Si1A C26A H26A 107.9 . . ? 
C27A C26A H26B 107.9 . . ? 
Si1A C26A H26B 107.9 . . ? 
H26A C26A H26B 107.2 . . ? 
C28A C27A C26A 111.6(6) . . ? 
C28A C27A H27A 109.3 . . ? 
C26A C27A H27A 109.3 . . ? 
C28A C27A H27B 109.3 . . ? 
C26A C27A H27B 109.3 . . ? 
H27A C27A H27B 108.0 . . ? 
C28C C27C H27C 110.8 . . ? 
C28C C27C H27D 110.8 . . ? 
H27C C27C H27D 108.8 . . ? 
C27C C28C H28D 109.5 . . ? 
C27C C28C H28E 109.5 . . ? 
H28D C28C H28E 109.5 . . ? 
C27C C28C H28F 109.5 . . ? 
H28D C28C H28F 109.5 . . ? 
H28E C28C H28F 109.5 . . ? 
C30A C29A Si1A 115.1(3) . . ? 
C30A C29A H29A 108.5 . . ? 
Si1A C29A H29A 108.5 . . ? 
C30A C29A H29B 108.5 . . ? 
Si1A C29A H29B 108.5 . . ? 
H29A C29A H29B 107.5 . . ? 
C29A C30A C31A 114.6(4) . . ? 
C29A C30A H30A 108.6 . . ? 
C31A C30A H30A 108.6 . . ? 
C29A C30A H30B 108.6 . . ? 
C31A C30A H30B 108.6 . . ? 
H30A C30A H30B 107.6 . . ? 
C30A C31A H31A 109.5 . . ? 
C30A C31A H31B 109.5 . . ? 
H31A C31A H31B 109.5 . . ? 
C30A C31A H31C 109.5 . . ? 
H31A C31A H31C 109.5 . . ? 
H31B C31A H31C 109.5 . . ? 
C33A C32A C11A 177.8(3) . . ? 
C32A C33A Si2A 173.1(3) . . ? 
C35A C34A Si2A 114.5(3) . . ? 
C35A C34A H34A 108.6 . . ? 
Si2A C34A H34A 108.6 . . ? 
C35A C34A H34B 108.6 . . ? 
Si2A C34A H34B 108.6 . . ? 
H34A C34A H34B 107.6 . . ? 
C36A C35A C34A 113.2(4) . . ? 
C36A C35A H35A 108.9 . . ? 
C34A C35A H35A 108.9 . . ? 
C36A C35A H35B 108.9 . . ? 
C34A C35A H35B 108.9 . . ? 
H35A C35A H35B 107.8 . . ? 
C35A C36A H36A 109.5 . . ? 
C35A C36A H36B 109.5 . . ? 
H36A C36A H36B 109.5 . . ? 
C35A C36A H36C 109.5 . . ? 
H36A C36A H36C 109.5 . . ? 
H36B C36A H36C 109.5 . . ? 
C38A C37A Si2A 114.3(2) . . ? 
C38A C37A H37A 108.7 . . ? 
Si2A C37A H37A 108.7 . . ? 
C38A C37A H37B 108.7 . . ? 
Si2A C37A H37B 108.7 . . ? 
H37A C37A H37B 107.6 . . ? 
C39A C38A C37A 113.4(4) . . ? 
C39A C38A H38A 108.9 . . ? 
C37A C38A H38A 108.9 . . ? 
C39A C38A H38B 108.9 . . ? 
C37A C38A H38B 108.9 . . ? 
H38A C38A H38B 107.7 . . ? 
C38A C39A H39A 109.5 . . ? 
C38A C39A H39B 109.5 . . ? 
H39A C39A H39B 109.5 . . ? 
C38A C39A H39C 109.5 . . ? 
H39A C39A H39C 109.5 . . ? 
H39B C39A H39C 109.5 . . ? 
C41A C40A Si2A 116.9(3) . . ? 
C41A C40A H40A 108.1 . . ? 
Si2A C40A H40A 108.1 . . ? 
C41A C40A H40B 108.1 . . ? 
Si2A C40A H40B 108.1 . . ? 
H40A C40A H40B 107.3 . . ? 
C42A C41A C40A 114.6(3) . . ? 
C42A C41A H41A 108.6 . . ? 
C40A C41A H41A 108.6 . . ? 
C42A C41A H41B 108.6 . . ? 
C40A C41A H41B 108.6 . . ? 
H41A C41A H41B 107.6 . . ? 
C41A C42A H42A 109.5 . . ? 
C41A C42A H42B 109.5 . . ? 
H42A C42A H42B 109.5 . . ? 
C41A C42A H42C 109.5 . . ? 
H42A C42A H42C 109.5 . . ? 
H42B C42A H42C 109.5 . . ? 
O1A C43A N1A 121.4(3) . . ? 
O1A C43A C6A 118.1(3) . . ? 
N1A C43A C6A 120.4(3) . . ? 
N1A C44A C45A 102.7(3) . . ? 
N1A C44A H44A 111.2 . . ? 
C45A C44A H44A 111.2 . . ? 
N1A C44A H44B 111.2 . . ? 
C45A C44A H44B 111.2 . . ? 
H44A C44A H44B 109.1 . . ? 
C46A C45A C44A 104.3(3) . . ? 
C46A C45A H45A 110.9 . . ? 
C44A C45A H45A 110.9 . . ? 
C46A C45A H45B 110.9 . . ? 
C44A C45A H45B 110.9 . . ? 
H45A C45A H45B 108.9 . . ? 
C45A C46A C47A 103.6(3) . . ? 
C45A C46A H46A 111.0 . . ? 
C47A C46A H46A 111.0 . . ? 
C45A C46A H46B 111.0 . . ? 
C47A C46A H46B 111.0 . . ? 
H46A C46A H46B 109.0 . . ? 
N1A C47A C46A 103.2(3) . . ? 
N1A C47A H47A 111.1 . . ? 
C46A C47A H47A 111.1 . . ? 
N1A C47A H47B 111.1 . . ? 
C46A C47A H47B 111.1 . . ? 
H47A C47A H47B 109.1 . . ? 
O2A C48A N2A 122.0(3) . . ? 
O2A C48A C16A 116.5(3) . . ? 
N2A C48A C16A 121.5(3) . . ? 
N2A C49A C50A 103.5(3) . . ? 
N2A C49A H49A 111.1 . . ? 
C50A C49A H49A 111.1 . . ? 
N2A C49A H49B 111.1 . . ? 
C50A C49A H49B 111.1 . . ? 
H49A C49A H49B 109.0 . . ? 
C49A C50A C51A 103.8(3) . . ? 
C49A C50A H50A 111.0 . . ? 
C51A C50A H50A 111.0 . . ? 
C49A C50A H50B 111.0 . . ? 
C51A C50A H50B 111.0 . . ? 
H50A C50A H50B 109.0 . . ? 
C52A C51A C50A 103.3(3) . . ? 
C52A C51A H51A 111.1 . . ? 
C50A C51A H51A 111.1 . . ? 
C52A C51A H51B 111.1 . . ? 
C50A C51A H51B 111.1 . . ? 
H51A C51A H51B 109.1 . . ? 
N2A C52A C51A 104.3(3) . . ? 
N2A C52A H52A 110.9 . . ? 
C51A C52A H52A 110.9 . . ? 
N2A C52A H52B 110.9 . . ? 
C51A C52A H52B 110.9 . . ? 
H52A C52A H52B 108.9 . . ? 
C22B Si1B C23B 103.64(16) . . ? 
C22B Si1B C29B 109.23(15) . . ? 
C23B Si1B C29B 113.60(16) . . ? 
C22B Si1B C26B 113.02(16) . . ? 
C23B Si1B C26B 108.70(17) . . ? 
C29B Si1B C26B 108.68(16) . . ? 
C33B Si2B C40B 109.04(19) . . ? 
C33B Si2B C37B 105.80(15) . . ? 
C40B Si2B C37B 110.05(16) . . ? 
C33B Si2B C34B 107.49(16) . . ? 
C40B Si2B C34B 111.9(2) . . ? 
C37B Si2B C34B 112.31(18) . . ? 
C43B N1B C44B 119.0(3) . . ? 
C43B N1B C47B 129.2(3) . . ? 
C44B N1B C47B 111.7(3) . . ? 
C48B N2B C49B 128.9(3) . . ? 
C48B N2B C52B 117.9(3) . . ? 
C49B N2B C52B 113.1(3) . . ? 
C20B C1B C2B 121.2(3) . . ? 
C20B C1B C21B 119.0(3) . . ? 
C2B C1B C21B 119.6(3) . . ? 
C1B C2B C3B 120.9(3) . . ? 
C1B C2B C10B 119.4(3) . . ? 
C3B C2B C10B 119.6(3) . . ? 
C4B C3B C2B 119.1(3) . . ? 
C4B C3B H3B 120.4 . . ? 
C2B C3B H3B 120.4 . . ? 
C3B C4B C8B 122.1(3) . . ? 
C3B C4B S5B 124.3(3) . . ? 
C8B C4B S5B 113.6(2) . . ? 
C4B S5B C6B 89.70(16) . . ? 
C7B C6B C43B 134.4(3) . . ? 
C7B C6B S5B 114.4(3) . . ? 
C43B C6B S5B 111.1(2) . . ? 
C6B C7B C8B 112.0(4) . . ? 
C6B C7B H7B 124.0 . . ? 
C8B C7B H7B 124.0 . . ? 
C9B C8B C4B 119.6(3) . . ? 
C9B C8B C7B 130.2(3) . . ? 
C4B C8B C7B 110.1(3) . . ? 
C8B C9B C10B 120.6(3) . . ? 
C8B C9B H9B 119.7 . . ? 
C10B C9B H9B 119.7 . . ? 
C11B C10B C9B 121.3(3) . . ? 
C11B C10B C2B 119.8(3) . . ? 
C9B C10B C2B 118.9(3) . . ? 
C10B C11B C32B 120.7(3) . . ? 
C10B C11B C12B 120.8(3) . . ? 
C32B C11B C12B 118.5(3) . . ? 
C13B C12B C11B 121.4(3) . . ? 
C13B C12B C20B 119.3(3) . . ? 
C11B C12B C20B 119.3(3) . . ? 
C14B C13B C12B 120.6(3) . . ? 
C14B C13B H13B 119.7 . . ? 
C12B C13B H13B 119.7 . . ? 
C13B C14B C15B 131.9(3) . . ? 
C13B C14B C18B 120.6(3) . . ? 
C15B C14B C18B 107.4(3) . . ? 
C16B C15B C14B 116.7(3) . . ? 
C16B C15B H15B 121.6 . . ? 
C14B C15B H15B 121.6 . . ? 
C15B C16B C48B 136.4(3) . . ? 
C15B C16B S17B 112.1(3) . . ? 
C48B C16B S17B 111.5(2) . . ? 
C18B S17B C16B 90.19(15) . . ? 
C19B C18B C14B 120.2(3) . . ? 
C19B C18B S17B 126.4(2) . . ? 
C14B C18B S17B 113.4(2) . . ? 
C18B C19B C20B 120.4(3) . . ? 
C18B C19B H19B 119.8 . . ? 
C20B C19B H19B 119.8 . . ? 
C1B C20B C19B 121.6(3) . . ? 
C1B C20B C12B 119.5(3) . . ? 
C19B C20B C12B 118.9(3) . . ? 
C22B C21B C1B 175.6(3) . . ? 
C21B C22B Si1B 160.9(3) . . ? 
C24B C23B Si1B 112.9(3) . . ? 
C24B C23B H23C 109.0 . . ? 
Si1B C23B H23C 109.0 . . ? 
C24B C23B H23D 109.0 . . ? 
Si1B C23B H23D 109.0 . . ? 
H23C C23B H23D 107.8 . . ? 
C25B C24B C23B 111.4(4) . . ? 
C25B C24B H24C 109.4 . . ? 
C23B C24B H24C 109.4 . . ? 
C25B C24B H24D 109.4 . . ? 
C23B C24B H24D 109.4 . . ? 
H24C C24B H24D 108.0 . . ? 
C24B C25B H25D 109.5 . . ? 
C24B C25B H25E 109.5 . . ? 
H25D C25B H25E 109.5 . . ? 
C24B C25B H25F 109.5 . . ? 
H25D C25B H25F 109.5 . . ? 
H25E C25B H25F 109.5 . . ? 
C27B C26B Si1B 110.1(3) . . ? 
C27B C26B H26E 109.6 . . ? 
Si1B C26B H26E 109.6 . . ? 
C27B C26B H26F 109.6 . . ? 
Si1B C26B H26F 109.6 . . ? 
H26E C26B H26F 108.2 . . ? 
C28B C27B C26B 114.0(3) . . ? 
C28B C27B H27E 108.8 . . ? 
C26B C27B H27E 108.8 . . ? 
C28B C27B H27F 108.8 . . ? 
C26B C27B H27F 108.8 . . ? 
H27E C27B H27F 107.7 . . ? 
C27B C28B H28G 109.5 . . ? 
C27B C28B H28H 109.5 . . ? 
H28G C28B H28H 109.5 . . ? 
C27B C28B H28I 109.5 . . ? 
H28G C28B H28I 109.5 . . ? 
H28H C28B H28I 109.5 . . ? 
C30B C29B Si1B 116.6(2) . . ? 
C30B C29B H29C 108.1 . . ? 
Si1B C29B H29C 108.1 . . ? 
C30B C29B H29D 108.1 . . ? 
Si1B C29B H29D 108.1 . . ? 
H29C C29B H29D 107.3 . . ? 
C29B C30B C31B 112.9(3) . . ? 
C29B C30B H30C 109.0 . . ? 
C31B C30B H30C 109.0 . . ? 
C29B C30B H30D 109.0 . . ? 
C31B C30B H30D 109.0 . . ? 
H30C C30B H30D 107.8 . . ? 
C30B C31B H31D 109.5 . . ? 
C30B C31B H31E 109.5 . . ? 
H31D C31B H31E 109.5 . . ? 
C30B C31B H31F 109.5 . . ? 
H31D C31B H31F 109.5 . . ? 
H31E C31B H31F 109.5 . . ? 
C33B C32B C11B 176.8(4) . . ? 
C32B C33B Si2B 171.6(3) . . ? 
C35B C34B Si2B 115.3(3) . . ? 
C35B C34B H34C 108.4 . . ? 
Si2B C34B H34C 108.4 . . ? 
C35B C34B H34D 108.4 . . ? 
Si2B C34B H34D 108.4 . . ? 
H34C C34B H34D 107.5 . . ? 
C34B C35B C36B 113.4(4) . . ? 
C34B C35B H35E 108.9 . . ? 
C36B C35B H35E 108.9 . . ? 
C34B C35B H35F 108.9 . . ? 
C36B C35B H35F 108.9 . . ? 
H35E C35B H35F 107.7 . . ? 
C35B C36B H36G 109.5 . . ? 
C35B C36B H36H 109.5 . . ? 
H36G C36B H36H 109.5 . . ? 
C35B C36B H36I 109.5 . . ? 
H36G C36B H36I 109.5 . . ? 
H36H C36B H36I 109.5 . . ? 
C38B C37B Si2B 113.9(2) . . ? 
C38B C37B H37C 108.8 . . ? 
Si2B C37B H37C 108.8 . . ? 
C38B C37B H37D 108.8 . . ? 
Si2B C37B H37D 108.8 . . ? 
H37C C37B H37D 107.7 . . ? 
C39B C38B C37B 111.0(3) . . ? 
C39B C38B H38C 109.4 . . ? 
C37B C38B H38C 109.4 . . ? 
C39B C38B H38D 109.4 . . ? 
C37B C38B H38D 109.4 . . ? 
H38C C38B H38D 108.0 . . ? 
C38B C39B H39D 109.5 . . ? 
C38B C39B H39E 109.5 . . ? 
H39D C39B H39E 109.5 . . ? 
C38B C39B H39F 109.5 . . ? 
H39D C39B H39F 109.5 . . ? 
H39E C39B H39F 109.5 . . ? 
C41B C40B Si2B 118.4(4) . . ? 
C41B C40B H40C 107.7 . . ? 
Si2B C40B H40C 107.7 . . ? 
C41B C40B H40D 107.7 . . ? 
Si2B C40B H40D 107.7 . . ? 
H40C C40B H40D 107.1 . . ? 
C42B C41B C40B 113.8(5) . . ? 
C42B C41B H41C 108.8 . . ? 
C40B C41B H41C 108.8 . . ? 
C42B C41B H41D 108.8 . . ? 
C40B C41B H41D 108.8 . . ? 
H41C C41B H41D 107.7 . . ? 
H42G C42D H42H 109.5 . . ? 
H42G C42D H42I 109.5 . . ? 
H42H C42D H42I 109.5 . . ? 
O1B C43B N1B 121.1(3) . . ? 
O1B C43B C6B 117.8(3) . . ? 
N1B C43B C6B 121.0(3) . . ? 
N1B C44B C45B 103.5(3) . . ? 
N1B C44B H44C 111.1 . . ? 
C45B C44B H44C 111.1 . . ? 
N1B C44B H44D 111.1 . . ? 
C45B C44B H44D 111.1 . . ? 
H44C C44B H44D 109.0 . . ? 
C44B C45B C46B 104.1(3) . . ? 
C44B C45B H45C 110.9 . . ? 
C46B C45B H45C 110.9 . . ? 
C44B C45B H45D 110.9 . . ? 
C46B C45B H45D 110.9 . . ? 
H45C C45B H45D 108.9 . . ? 
C47B C46B C45B 102.1(3) . . ? 
C47B C46B H46C 111.4 . . ? 
C45B C46B H46C 111.4 . . ? 
C47B C46B H46D 111.4 . . ? 
C45B C46B H46D 111.4 . . ? 
H46C C46B H46D 109.2 . . ? 
N1B C47B C46B 103.4(3) . . ? 
N1B C47B H47C 111.1 . . ? 
C46B C47B H47C 111.1 . . ? 
N1B C47B H47D 111.1 . . ? 
C46B C47B H47D 111.1 . . ? 
H47C C47B H47D 109.1 . . ? 
O2B C48B N2B 120.8(3) . . ? 
O2B C48B C16B 116.9(3) . . ? 
N2B C48B C16B 122.2(3) . . ? 
N2B C49B C50B 101.8(3) . . ? 
N2B C49B H49C 111.4 . . ? 
C50B C49B H49C 111.4 . . ? 
N2B C49B H49D 111.4 . . ? 
C50B C49B H49D 111.4 . . ? 
H49C C49B H49D 109.3 . . ? 
C51B C50B C49B 104.2(3) . . ? 
C51B C50B H50C 110.9 . . ? 
C49B C50B H50C 110.9 . . ? 
C51B C50B H50D 110.9 . . ? 
C49B C50B H50D 110.9 . . ? 
H50C C50B H50D 108.9 . . ? 
C50B C51B C52B 104.3(3) . . ? 
C50B C51B H51C 110.9 . . ? 
C52B C51B H51C 110.9 . . ? 
C50B C51B H51D 110.9 . . ? 
C52B C51B H51D 110.9 . . ? 
H51C C51B H51D 108.9 . . ? 
N2B C52B C51B 103.2(3) . . ? 
N2B C52B H52C 111.1 . . ? 
C51B C52B H52C 111.1 . . ? 
N2B C52B H52D 111.1 . . ? 
C51B C52B H52D 111.1 . . ? 
H52C C52B H52D 109.1 . . ? 
 
loop_ 
 _geom_torsion_atom_site_label_1 
 _geom_torsion_atom_site_label_2 
 _geom_torsion_atom_site_label_3 
 _geom_torsion_atom_site_label_4 
 _geom_torsion 
 _geom_torsion_site_symmetry_1 
 _geom_torsion_site_symmetry_2 
 _geom_torsion_site_symmetry_3 
 _geom_torsion_site_symmetry_4 
 _geom_torsion_publ_flag 
C20A C1A C2A C3A -178.1(3) . . . . ? 
C21A C1A C2A C3A 5.4(4) . . . . ? 
C20A C1A C2A C10A 3.0(4) . . . . ? 
C21A C1A C2A C10A -173.5(3) . . . . ? 
C1A C2A C3A C4A -177.7(3) . . . . ? 
C10A C2A C3A C4A 1.2(4) . . . . ? 
C2A C3A C4A C8A 0.5(4) . . . . ? 
C2A C3A C4A S5A -180.0(2) . . . . ? 
C3A C4A S5A C6A -176.9(3) . . . . ? 
C8A C4A S5A C6A 2.6(2) . . . . ? 
C4A S5A C6A C7A -0.6(3) . . . . ? 
C4A S5A C6A C43A 178.9(2) . . . . ? 
C43A C6A C7A C8A 179.1(3) . . . . ? 
S5A C6A C7A C8A -1.6(5) . . . . ? 
C3A C4A C8A C9A -1.9(4) . . . . ? 
S5A C4A C8A C9A 178.6(2) . . . . ? 
C3A C4A C8A C7A 175.7(3) . . . . ? 
S5A C4A C8A C7A -3.9(4) . . . . ? 
C6A C7A C8A C9A -179.3(3) . . . . ? 
C6A C7A C8A C4A 3.5(5) . . . . ? 
C4A C8A C9A C10A 1.4(4) . . . . ? 
C7A C8A C9A C10A -175.6(4) . . . . ? 
C8A C9A C10A C11A 179.4(3) . . . . ? 
C8A C9A C10A C2A 0.3(4) . . . . ? 
C3A C2A C10A C9A -1.6(4) . . . . ? 
C1A C2A C10A C9A 177.3(3) . . . . ? 
C3A C2A C10A C11A 179.3(3) . . . . ? 
C1A C2A C10A C11A -1.8(4) . . . . ? 
C9A C10A C11A C12A -178.6(3) . . . . ? 
C2A C10A C11A C12A 0.5(4) . . . . ? 
C9A C10A C11A C32A -0.4(4) . . . . ? 
C2A C10A C11A C32A 178.7(3) . . . . ? 
C10A C11A C12A C13A -179.5(3) . . . . ? 
C32A C11A C12A C13A 2.3(4) . . . . ? 
C10A C11A C12A C20A -0.4(4) . . . . ? 
C32A C11A C12A C20A -178.6(3) . . . . ? 
C11A C12A C13A C14A 177.9(3) . . . . ? 
C20A C12A C13A C14A -1.1(4) . . . . ? 
C12A C13A C14A C15A -177.8(4) . . . . ? 
C12A C13A C14A C18A 0.3(4) . . . . ? 
C13A C14A C15A C16A 176.3(3) . . . . ? 
C18A C14A C15A C16A -1.9(5) . . . . ? 
C14A C15A C16A C48A -179.2(3) . . . . ? 
C14A C15A C16A S17A 2.1(5) . . . . ? 
C15A C16A S17A C18A -1.3(3) . . . . ? 
C48A C16A S17A C18A 179.7(2) . . . . ? 
C13A C14A C18A C19A 1.5(5) . . . . ? 
C15A C14A C18A C19A -180.0(3) . . . . ? 
C13A C14A C18A S17A -177.7(2) . . . . ? 
C15A C14A C18A S17A 0.8(4) . . . . ? 
C16A S17A C18A C19A -178.9(3) . . . . ? 
C16A S17A C18A C14A 0.3(2) . . . . ? 
C14A C18A C19A C20A -2.4(5) . . . . ? 
S17A C18A C19A C20A 176.7(2) . . . . ? 
C2A C1A C20A C19A 177.6(3) . . . . ? 
C21A C1A C20A C19A -6.0(4) . . . . ? 
C2A C1A C20A C12A -2.8(4) . . . . ? 
C21A C1A C20A C12A 173.6(3) . . . . ? 
C18A C19A C20A C1A -178.9(3) . . . . ? 
C18A C19A C20A C12A 1.5(4) . . . . ? 
C11A C12A C20A C1A 1.5(4) . . . . ? 
C13A C12A C20A C1A -179.4(3) . . . . ? 
C11A C12A C20A C19A -178.9(3) . . . . ? 
C13A C12A C20A C19A 0.2(4) . . . . ? 
C23A Si1A C22A C21A 0.1(12) . . . . ? 
C29A Si1A C22A C21A -122.8(12) . . . . ? 
C26A Si1A C22A C21A 117.1(12) . . . . ? 
C22A Si1A C23A C24A 56.5(3) . . . . ? 
C29A Si1A C23A C24A 175.9(3) . . . . ? 
C26A Si1A C23A C24A -59.1(4) . . . . ? 
Si1A C23A C24A C25A 175.7(3) . . . . ? 
C22A Si1A C26A C27A -157.2(4) . . . . ? 
C23A Si1A C26A C27A -43.9(5) . . . . ? 
C29A Si1A C26A C27A 83.4(5) . . . . ? 
Si1A C26A C27A C28A -70.7(8) . . . . ? 
C22A Si1A C29A C30A 51.8(4) . . . . ? 
C23A Si1A C29A C30A -64.8(4) . . . . ? 
C26A Si1A C29A C30A 170.4(3) . . . . ? 
Si1A C29A C30A C31A 179.1(3) . . . . ? 
C33A Si2A C34A C35A 43.5(3) . . . . ? 
C40A Si2A C34A C35A 162.5(3) . . . . ? 
C37A Si2A C34A C35A -73.1(3) . . . . ? 
Si2A C34A C35A C36A 174.1(4) . . . . ? 
C33A Si2A C37A C38A 55.1(3) . . . . ? 
C34A Si2A C37A C38A 171.1(2) . . . . ? 
C40A Si2A C37A C38A -62.1(3) . . . . ? 
Si2A C37A C38A C39A 177.6(3) . . . . ? 
C33A Si2A C40A C41A -166.9(3) . . . . ? 
C34A Si2A C40A C41A 75.4(3) . . . . ? 
C37A Si2A C40A C41A -50.5(3) . . . . ? 
Si2A C40A C41A C42A -66.8(4) . . . . ? 
C44A N1A C43A O1A -0.1(5) . . . . ? 
C47A N1A C43A O1A 174.8(3) . . . . ? 
C44A N1A C43A C6A 177.9(3) . . . . ? 
C47A N1A C43A C6A -7.1(5) . . . . ? 
C7A C6A C43A O1A -179.0(4) . . . . ? 
S5A C6A C43A O1A 1.7(4) . . . . ? 
C7A C6A C43A N1A 2.8(6) . . . . ? 
S5A C6A C43A N1A -176.5(2) . . . . ? 
C43A N1A C44A C45A -171.9(3) . . . . ? 
C47A N1A C44A C45A 12.3(4) . . . . ? 
N1A C44A C45A C46A -31.1(4) . . . . ? 
C44A C45A C46A C47A 38.2(4) . . . . ? 
C43A N1A C47A C46A -164.5(3) . . . . ? 
C44A N1A C47A C46A 10.7(4) . . . . ? 
C45A C46A C47A N1A -29.9(4) . . . . ? 
C49A N2A C48A O2A -171.9(3) . . . . ? 
C52A N2A C48A O2A 2.3(5) . . . . ? 
C49A N2A C48A C16A 9.0(5) . . . . ? 
C52A N2A C48A C16A -176.8(3) . . . . ? 
C15A C16A C48A O2A -177.5(5) . . . . ? 
S17A C16A C48A O2A 1.1(4) . . . . ? 
C15A C16A C48A N2A 1.6(6) . . . . ? 
S17A C16A C48A N2A -179.8(2) . . . . ? 
C48A N2A C49A C50A 157.8(3) . . . . ? 
C52A N2A C49A C50A -16.7(4) . . . . ? 
N2A C49A C50A C51A 32.8(4) . . . . ? 
C49A C50A C51A C52A -37.0(4) . . . . ? 
C48A N2A C52A C51A 178.4(3) . . . . ? 
C49A N2A C52A C51A -6.4(3) . . . . ? 
C50A C51A C52A N2A 26.4(3) . . . . ? 
C20B C1B C2B C3B -179.7(3) . . . . ? 
C21B C1B C2B C3B -5.1(4) . . . . ? 
C20B C1B C2B C10B -0.3(4) . . . . ? 
C21B C1B C2B C10B 174.4(3) . . . . ? 
C1B C2B C3B C4B 178.1(3) . . . . ? 
C10B C2B C3B C4B -1.3(4) . . . . ? 
C2B C3B C4B C8B 0.8(5) . . . . ? 
C2B C3B C4B S5B 179.9(2) . . . . ? 
C3B C4B S5B C6B 177.5(3) . . . . ? 
C8B C4B S5B C6B -3.3(3) . . . . ? 
C4B S5B C6B C7B 4.1(3) . . . . ? 
C4B S5B C6B C43B -178.6(2) . . . . ? 
C43B C6B C7B C8B 179.7(3) . . . . ? 
S5B C6B C7B C8B -3.9(5) . . . . ? 
C3B C4B C8B C9B -0.3(5) . . . . ? 
S5B C4B C8B C9B -179.6(2) . . . . ? 
C3B C4B C8B C7B -179.0(3) . . . . ? 
S5B C4B C8B C7B 1.8(4) . . . . ? 
C6B C7B C8B C9B -177.1(3) . . . . ? 
C6B C7B C8B C4B 1.3(5) . . . . ? 
C4B C8B C9B C10B 0.4(5) . . . . ? 
C7B C8B C9B C10B 178.8(4) . . . . ? 
C8B C9B C10B C11B -179.3(3) . . . . ? 
C8B C9B C10B C2B -0.9(4) . . . . ? 
C1B C2B C10B C11B 0.3(4) . . . . ? 
C3B C2B C10B C11B 179.7(3) . . . . ? 
C1B C2B C10B C9B -178.1(3) . . . . ? 
C3B C2B C10B C9B 1.4(4) . . . . ? 
C9B C10B C11B C32B -0.9(4) . . . . ? 
C2B C10B C11B C32B -179.3(3) . . . . ? 
C9B C10B C11B C12B 178.7(3) . . . . ? 
C2B C10B C11B C12B 0.4(4) . . . . ? 
C10B C11B C12B C13B 179.5(3) . . . . ? 
C32B C11B C12B C13B -0.8(4) . . . . ? 
C10B C11B C12B C20B -1.1(4) . . . . ? 
C32B C11B C12B C20B 178.5(3) . . . . ? 
C11B C12B C13B C14B -179.1(3) . . . . ? 
C20B C12B C13B C14B 1.6(4) . . . . ? 
C12B C13B C14B C15B 177.8(4) . . . . ? 
C12B C13B C14B C18B -2.0(4) . . . . ? 
C13B C14B C15B C16B -178.1(3) . . . . ? 
C18B C14B C15B C16B 1.7(5) . . . . ? 
C14B C15B C16B C48B 178.5(3) . . . . ? 
C14B C15B C16B S17B -2.6(5) . . . . ? 
C15B C16B S17B C18B 2.1(3) . . . . ? 
C48B C16B S17B C18B -178.7(2) . . . . ? 
C13B C14B C18B C19B 0.6(4) . . . . ? 
C15B C14B C18B C19B -179.2(3) . . . . ? 
C13B C14B C18B S17B 179.9(2) . . . . ? 
C15B C14B C18B S17B 0.0(4) . . . . ? 
C16B S17B C18B C19B 178.0(3) . . . . ? 
C16B S17B C18B C14B -1.2(2) . . . . ? 
C14B C18B C19B C20B 1.2(4) . . . . ? 
S17B C18B C19B C20B -177.9(2) . . . . ? 
C2B C1B C20B C19B 179.8(3) . . . . ? 
C21B C1B C20B C19B 5.2(4) . . . . ? 
C2B C1B C20B C12B -0.5(4) . . . . ? 
C21B C1B C20B C12B -175.1(3) . . . . ? 
C18B C19B C20B C1B 178.1(3) . . . . ? 
C18B C19B C20B C12B -1.6(4) . . . . ? 
C13B C12B C20B C1B -179.5(3) . . . . ? 
C11B C12B C20B C1B 1.2(4) . . . . ? 
C13B C12B C20B C19B 0.2(4) . . . . ? 
C11B C12B C20B C19B -179.1(3) . . . . ? 
C23B Si1B C22B C21B -11.8(9) . . . . ? 
C29B Si1B C22B C21B 109.6(9) . . . . ? 
C26B Si1B C22B C21B -129.3(9) . . . . ? 
C22B Si1B C23B C24B -60.5(3) . . . . ? 
C29B Si1B C23B C24B -178.9(3) . . . . ? 
C26B Si1B C23B C24B 59.9(3) . . . . ? 
Si1B C23B C24B C25B -172.7(3) . . . . ? 
C22B Si1B C26B C27B 179.5(3) . . . . ? 
C23B Si1B C26B C27B 65.0(3) . . . . ? 
C29B Si1B C26B C27B -59.1(3) . . . . ? 
Si1B C26B C27B C28B -172.8(3) . . . . ? 
C22B Si1B C29B C30B -53.5(3) . . . . ? 
C23B Si1B C29B C30B 61.7(3) . . . . ? 
C26B Si1B C29B C30B -177.2(3) . . . . ? 
Si1B C29B C30B C31B 179.9(3) . . . . ? 
C33B Si2B C34B C35B -42.3(4) . . . . ? 
C40B Si2B C34B C35B -161.9(3) . . . . ? 
C37B Si2B C34B C35B 73.7(4) . . . . ? 
Si2B C34B C35B C36B -172.9(4) . . . . ? 
C33B Si2B C37B C38B -60.1(3) . . . . ? 
C40B Si2B C37B C38B 57.6(3) . . . . ? 
C34B Si2B C37B C38B -177.1(2) . . . . ? 
Si2B C37B C38B C39B 177.7(2) . . . . ? 
C33B Si2B C40B C41B 156.6(4) . . . . ? 
C37B Si2B C40B C41B 41.0(4) . . . . ? 
C34B Si2B C40B C41B -84.6(4) . . . . ? 
Si2B C40B C41B C42B 67.0(6) . . . . ? 
C44B N1B C43B O1B -0.7(5) . . . . ? 
C47B N1B C43B O1B 175.9(3) . . . . ? 
C44B N1B C43B C6B -179.1(3) . . . . ? 
C47B N1B C43B C6B -2.5(5) . . . . ? 
C7B C6B C43B O1B 166.1(4) . . . . ? 
S5B C6B C43B O1B -10.4(4) . . . . ? 
C7B C6B C43B N1B -15.5(6) . . . . ? 
S5B C6B C43B N1B 168.0(3) . . . . ? 
C43B N1B C44B C45B -171.6(3) . . . . ? 
C47B N1B C44B C45B 11.3(4) . . . . ? 
N1B C44B C45B C46B -31.3(4) . . . . ? 
C44B C45B C46B C47B 39.4(4) . . . . ? 
C43B N1B C47B C46B -163.5(3) . . . . ? 
C44B N1B C47B C46B 13.3(4) . . . . ? 
C45B C46B C47B N1B -31.8(4) . . . . ? 
C49B N2B C48B O2B 173.9(3) . . . . ? 
C52B N2B C48B O2B -2.4(5) . . . . ? 
C49B N2B C48B C16B -5.7(5) . . . . ? 
C52B N2B C48B C16B 178.0(3) . . . . ? 
C15B C16B C48B O2B 176.8(4) . . . . ? 
S17B C16B C48B O2B -2.1(4) . . . . ? 
C15B C16B C48B N2B -3.6(6) . . . . ? 
S17B C16B C48B N2B 177.5(2) . . . . ? 
C48B N2B C49B C50B -161.9(3) . . . . ? 
C52B N2B C49B C50B 14.6(4) . . . . ? 
N2B C49B C50B C51B -31.3(4) . . . . ? 
C49B C50B C51B C52B 37.1(4) . . . . ? 
C48B N2B C52B C51B -175.3(3) . . . . ? 
C49B N2B C52B C51B 7.8(4) . . . . ? 
C50B C51B C52B N2B -27.5(4) . . . . ? 
 
_diffrn_measured_fraction_theta_max    0.986 
_diffrn_reflns_theta_full              68.44 
_diffrn_measured_fraction_theta_full   0.986 
_refine_diff_density_max    0.697 
_refine_diff_density_min   -0.552 
_refine_diff_density_rms    0.064 
