 
data_x05106 
 
_audit_creation_method            SHELXL-97 
_chemical_name_systematic 
; 
 ? 
; 
_chemical_name_common             ? 
_chemical_melting_point           ? 
_chemical_formula_moiety          ? 
_chemical_formula_sum 
 'C34 H38 Se2 Si2' 
_chemical_formula_weight          660.74 
 
loop_ 
 _atom_type_symbol 
 _atom_type_description 
 _atom_type_scat_dispersion_real 
 _atom_type_scat_dispersion_imag 
 _atom_type_scat_source 
 'C'  'C'    .0181    .0091 
 'International Tables Vol C Tables 4.2.6.8 and 6.1.1.4' 
 'H'  'H'    .0000    .0000 
 'International Tables Vol C Tables 4.2.6.8 and 6.1.1.4' 
 'Si'  'Si'    .2541    .3302 
 'International Tables Vol C Tables 4.2.6.8 and 6.1.1.4' 
 'Se'  'Se'   -.7943   1.1372 
 'International Tables Vol C Tables 4.2.6.8 and 6.1.1.4' 
 
_symmetry_cell_setting            monoclinic
_symmetry_space_group_name_H-M    'P 21/c'
 
loop_ 
 _symmetry_equiv_pos_as_xyz 
 'x, y, z' 
 '-x, y+1/2, -z+1/2' 
 '-x, -y, -z' 
 'x, -y-1/2, z-1/2' 
 
_cell_length_a                    6.26360(10) 
_cell_length_b                    18.0589(3) 
_cell_length_c                    13.8948(2) 
_cell_angle_alpha                 90.00 
_cell_angle_beta                  90.8790(10) 
_cell_angle_gamma                 90.00 
_cell_volume                      1571.51(4) 
_cell_formula_units_Z             2 
_cell_measurement_temperature     90.0(2) 
_cell_measurement_reflns_used     8150
_cell_measurement_theta_min       4.01
_cell_measurement_theta_max       67.76
 
_exptl_crystal_description        needle
_exptl_crystal_colour             red
_exptl_crystal_size_max           0.12 
_exptl_crystal_size_mid           0.02 
_exptl_crystal_size_min           0.01 
_exptl_crystal_density_meas       ? 
_exptl_crystal_density_diffrn     1.396 
_exptl_crystal_density_method     'not measured' 
_exptl_crystal_F_000              676 
_exptl_absorpt_coefficient_mu     3.821 
_exptl_absorpt_correction_type    multi-scan
_exptl_absorpt_correction_T_min   0.6571 
_exptl_absorpt_correction_T_max   0.9628 
_exptl_absorpt_process_details    'SADABS in APEX2 (Bruker-Nonius, 2004)' 
_exptl_special_details 
; 
 ? 
; 
 
_diffrn_ambient_temperature       90.0(2) 
_diffrn_radiation_wavelength      1.54178 
_diffrn_radiation_type            CuK\a 
_diffrn_radiation_source          'fine-focus rotating anode' 
_diffrn_radiation_monochromator   'graded multilayer optics' 
_diffrn_measurement_device_type   'Bruker-Nonius X8 Proteum'
_diffrn_measurement_method        '\w and \f scans'
_diffrn_detector_area_resol_mean  18
_diffrn_standards_number          ? 
_diffrn_standards_interval_count  ? 
_diffrn_standards_interval_time   ? 
_diffrn_standards_decay_%         ? 
_diffrn_reflns_number             19986 
_diffrn_reflns_av_R_equivalents   0.0488 
_diffrn_reflns_av_sigmaI/netI     0.0304 
_diffrn_reflns_limit_h_min        -7 
_diffrn_reflns_limit_h_max        7 
_diffrn_reflns_limit_k_min        -21 
_diffrn_reflns_limit_k_max        19 
_diffrn_reflns_limit_l_min        -16 
_diffrn_reflns_limit_l_max        16 
_diffrn_reflns_theta_min          4.01 
_diffrn_reflns_theta_max          67.96 
_reflns_number_total              2853 
_reflns_number_gt                 2534 
_reflns_threshold_expression      >2\s(I)    
 
_computing_data_collection        'COLLECT (Nonius, 1998)'
_computing_cell_refinement        'SCALEPACK (Otwinowski & Minor, 1997)'
_computing_data_reduction         'DENZO-SMN (Otwinowski & Minor, 1997)'
_computing_structure_solution     'SHELXS-97 (Sheldrick, 1990)' 
_computing_structure_refinement   'SHELXL-97 (Sheldrick, 1997)' 
_computing_molecular_graphics     'XP in SHELXTL (Sheldrick, 1994)'
_computing_publication_material
; 
SHELX97-2 (Sheldrick, 1997) and local procedures 
; 
 
_refine_special_details 
; 
 Refinement of F^2^ against ALL reflections.  The weighted R-factor wR and 
 goodness of fit S are based on F^2^, conventional R-factors R are based 
 on F, with F set to zero for negative F^2^. The threshold expression of 
 F^2^ > 2sigma(F^2^) is used only for calculating R-factors(gt) etc. and is 
 not relevant to the choice of reflections for refinement.  R-factors based 
 on F^2^ are statistically about twice as large as those based on F, and R- 
 factors based on ALL data will be even larger. 
; 
 
_refine_ls_structure_factor_coef  Fsqd  
_refine_ls_matrix_type            full 
_refine_ls_weighting_scheme       calc  
_refine_ls_weighting_details 
 'calc w=1/[\s^2^(Fo^2^)+(0.0354P)^2^+1.3498P] where P=(Fo^2^+2Fc^2^)/3' 
_atom_sites_solution_primary      direct 
_atom_sites_solution_secondary    difmap 
_atom_sites_solution_hydrogens    geom 
_refine_ls_hydrogen_treatment     constr 
_refine_ls_extinction_method      none 
_refine_ls_extinction_coef        ? 
_refine_ls_number_reflns          2853 
_refine_ls_number_parameters      191 
_refine_ls_number_restraints      132 
_refine_ls_R_factor_all           0.0388 
_refine_ls_R_factor_gt            0.0331 
_refine_ls_wR_factor_ref          0.0840 
_refine_ls_wR_factor_gt           0.0804 
_refine_ls_goodness_of_fit_ref    1.034 
_refine_ls_restrained_S_all       1.027 
_refine_ls_shift/su_max           0.297 
_refine_ls_shift/su_mean          0.022 
 
loop_ 
 _atom_site_label 
 _atom_site_type_symbol 
 _atom_site_fract_x 
 _atom_site_fract_y 
 _atom_site_fract_z 
 _atom_site_U_iso_or_equiv 
 _atom_site_adp_type 
 _atom_site_occupancy 
 _atom_site_symmetry_multiplicity 
 _atom_site_calc_flag 
 _atom_site_refinement_flags 
 _atom_site_disorder_assembly 
 _atom_site_disorder_group 
Si1 Si 1.27836(9) 0.79841(3) 0.88945(4) 0.02356(14) Uani 1 1 d . . . 
C1 C 1.0551(3) 0.57379(10) 0.97630(13) 0.0227(4) Uani 1 1 d . . . 
C2 C 0.8694(3) 0.54175(10) 0.93464(13) 0.0220(4) Uani 1 1 d . B . 
C3 C 0.7396(3) 0.58121(11) 0.86728(14) 0.0254(4) Uani 1 1 d . . . 
H3 H 0.7773 0.6305 0.8507 0.031 Uiso 1 1 calc R A 1 
C4 C 0.555(4) 0.5488(15) 0.824(2) 0.0267(8) Uani 0.5345(11) 1 d PDU B 1 
C5 C 0.4155(12) 0.5860(4) 0.7591(5) 0.0371(2) Uani 0.5345(11) 1 d PDU B 1 
H5 H 0.4340 0.6358 0.7390 0.045 Uiso 0.5345(11) 1 calc PR B 1 
C6 C 0.2511(7) 0.5416(3) 0.7285(3) 0.0341(7) Uani 0.5345(11) 1 d PDU B 1 
H6 H 0.1454 0.5572 0.6831 0.041 Uiso 0.5345(11) 1 calc PR B 1 
Se7 Se 0.25337(8) 0.44708(3) 0.78444(3) 0.02760(17) Uani 0.5345(11) 1 d PDU B 1 
C8 C 0.506(5) 0.4754(17) 0.855(3) 0.0259(6) Uani 0.5345(11) 1 d PDU B 1 
C4' C 0.570(4) 0.5485(17) 0.830(2) 0.0267(8) Uani 0.4655(11) 1 d PDU B 2 
Se5' Se 0.37458(12) 0.58249(4) 0.73287(4) 0.0371(2) Uani 0.4655(11) 1 d PDU B 2 
C6' C 0.2204(8) 0.4946(3) 0.7428(3) 0.0341(7) Uani 0.4655(11) 1 d PDU B 2 
H6' H 0.0948 0.4842 0.7061 0.041 Uiso 0.4655(11) 1 calc PR B 2 
C7' C 0.3072(11) 0.4471(4) 0.8082(5) 0.02760(17) Uani 0.4655(11) 1 d PDU B 2 
H7' H 0.2466 0.4005 0.8238 0.033 Uiso 0.4655(11) 1 calc PR B 2 
C8' C 0.500(6) 0.4749(19) 0.851(3) 0.0259(6) Uani 0.4655(11) 1 d PDU B 2 
C9 C 0.6250(3) 0.43564(11) 0.91836(14) 0.0244(4) Uani 1 1 d . . . 
H9 H 0.5830 0.3868 0.9352 0.029 Uiso 1 1 calc R B 1 
C10 C 0.8121(3) 0.46687(10) 0.95924(13) 0.0219(4) Uani 1 1 d . . . 
C11 C 1.1125(3) 0.64814(11) 0.95248(14) 0.0236(4) Uani 1 1 d . . . 
C12 C 1.1660(3) 0.71057(11) 0.93287(14) 0.0263(4) Uani 1 1 d . . . 
C13 C 1.5680(4) 0.79867(14) 0.92203(18) 0.0383(5) Uani 1 1 d . . . 
H13A H 1.6359 0.7549 0.8925 0.046 Uiso 1 1 calc R . . 
H13B H 1.6344 0.8434 0.8941 0.046 Uiso 1 1 calc R . . 
C14 C 1.6148(4) 0.7976(2) 1.0301(2) 0.0620(9) Uani 1 1 d . . . 
H14A H 1.5674 0.8443 1.0587 0.093 Uiso 1 1 calc R . . 
H14B H 1.7687 0.7917 1.0415 0.093 Uiso 1 1 calc R . . 
H14C H 1.5386 0.7563 1.0596 0.093 Uiso 1 1 calc R . . 
C15 C 1.1431(3) 0.87885(11) 0.94674(17) 0.0309(5) Uani 1 1 d . . . 
H15A H 0.9921 0.8803 0.9246 0.037 Uiso 1 1 calc R . . 
H15B H 1.1446 0.8718 1.0174 0.037 Uiso 1 1 calc R . . 
C16 C 1.2491(4) 0.95305(13) 0.9232(2) 0.0472(7) Uani 1 1 d . . . 
H16A H 1.3964 0.9530 0.9481 0.071 Uiso 1 1 calc R . . 
H16B H 1.1694 0.9934 0.9533 0.071 Uiso 1 1 calc R . . 
H16C H 1.2494 0.9602 0.8533 0.071 Uiso 1 1 calc R . . 
C17 C 1.2440(5) 0.79990(13) 0.75511(17) 0.0424(6) Uani 1 1 d . . . 
H17A H 1.2488 0.8521 0.7335 0.051 Uiso 1 1 calc R . . 
H17B H 1.3677 0.7742 0.7267 0.051 Uiso 1 1 calc R . . 
C18 C 1.0433(5) 0.76532(14) 0.71470(16) 0.0441(6) Uani 1 1 d . . . 
H18A H 1.0436 0.7121 0.7288 0.066 Uiso 1 1 calc R . . 
H18B H 1.0368 0.7728 0.6449 0.066 Uiso 1 1 calc R . . 
H18C H 0.9187 0.7884 0.7442 0.066 Uiso 1 1 calc R . . 
 
loop_ 
 _atom_site_aniso_label 
 _atom_site_aniso_U_11 
 _atom_site_aniso_U_22 
 _atom_site_aniso_U_33 
 _atom_site_aniso_U_23 
 _atom_site_aniso_U_13 
 _atom_site_aniso_U_12 
Si1 0.0320(3) 0.0171(3) 0.0216(3) 0.0029(2) 0.0004(2) -0.0055(2) 
C1 0.0321(10) 0.0165(9) 0.0196(9) -0.0002(7) 0.0083(8) -0.0014(8) 
C2 0.0290(10) 0.0176(9) 0.0197(9) -0.0002(7) 0.0072(8) 0.0010(8) 
C3 0.0356(11) 0.0189(10) 0.0220(10) 0.0019(8) 0.0064(8) 0.0020(8) 
C4 0.033(2) 0.0282(10) 0.019(2) -0.0035(11) 0.0026(14) 0.0043(14) 
C5 0.0467(4) 0.0372(3) 0.0273(4) -0.0047(3) -0.0071(3) 0.0170(3) 
C6 0.0412(14) 0.0323(16) 0.0286(13) -0.0022(15) -0.0058(12) 0.0103(15) 
Se7 0.0306(3) 0.0265(2) 0.0257(3) -0.0070(2) 0.00137(17) -0.0016(2) 
C8 0.030(2) 0.0265(10) 0.0208(18) -0.0072(9) 0.0046(12) 0.0032(12) 
C4' 0.033(2) 0.0282(10) 0.019(2) -0.0035(11) 0.0026(14) 0.0043(14) 
Se5' 0.0467(4) 0.0372(3) 0.0273(4) -0.0047(3) -0.0071(3) 0.0170(3) 
C6' 0.0412(14) 0.0323(16) 0.0286(13) -0.0022(15) -0.0058(12) 0.0103(15) 
C7' 0.0306(3) 0.0265(2) 0.0257(3) -0.0070(2) 0.00137(17) -0.0016(2) 
C8' 0.030(2) 0.0265(10) 0.0208(18) -0.0072(9) 0.0046(12) 0.0032(12) 
C9 0.0320(11) 0.0180(9) 0.0234(10) -0.0043(7) 0.0071(8) -0.0019(8) 
C10 0.0305(10) 0.0177(9) 0.0177(9) -0.0026(7) 0.0074(7) -0.0002(8) 
C11 0.0327(10) 0.0188(10) 0.0195(9) -0.0007(7) 0.0046(8) -0.0015(8) 
C12 0.0362(11) 0.0226(10) 0.0203(9) -0.0003(8) 0.0025(8) -0.0023(8) 
C13 0.0322(12) 0.0355(13) 0.0475(14) 0.0129(11) 0.0119(10) 0.0034(10) 
C14 0.0329(13) 0.092(2) 0.0601(18) 0.0384(17) -0.0141(12) -0.0147(14) 
C15 0.0265(10) 0.0226(11) 0.0436(13) -0.0008(9) 0.0021(9) -0.0026(8) 
C16 0.0411(14) 0.0220(12) 0.0789(19) -0.0041(12) 0.0133(13) -0.0053(10) 
C17 0.0683(17) 0.0309(12) 0.0279(11) 0.0036(9) 0.0034(11) -0.0165(12) 
C18 0.0689(17) 0.0377(13) 0.0253(11) 0.0029(10) -0.0115(11) 0.0032(12) 
 
_geom_special_details 
; 
 All esds (except the esd in the dihedral angle between two l.s. planes) 
 are estimated using the full covariance matrix.  The cell esds are taken 
 into account individually in the estimation of esds in distances, angles 
 and torsion angles; correlations between esds in cell parameters are only 
 used when they are defined by crystal symmetry.  An approximate (isotropic) 
 treatment of cell esds is used for estimating esds involving l.s. planes. 
; 
 
loop_ 
 _geom_bond_atom_site_label_1 
 _geom_bond_atom_site_label_2 
 _geom_bond_distance 
 _geom_bond_site_symmetry_2 
 _geom_bond_publ_flag 
Si1 C12 1.841(2) . ? 
Si1 C13 1.863(2) . ? 
Si1 C15 1.866(2) . ? 
Si1 C17 1.876(2) . ? 
C1 C2 1.415(3) . ? 
C1 C10 1.418(3) 3_767 ? 
C1 C11 1.430(3) . ? 
C2 C3 1.422(3) . ? 
C2 C10 1.442(3) . ? 
C3 C4' 1.32(2) . ? 
C3 C4 1.42(2) . ? 
C3 H3 0.9500 . ? 
C4 C5 1.42(2) . ? 
C4 C8 1.430(8) . ? 
C5 C6 1.368(8) . ? 
C5 H5 0.9500 . ? 
C6 Se7 1.876(5) . ? 
C6 H6 0.9500 . ? 
Se7 C8 1.92(2) . ? 
C8 C9 1.35(2) . ? 
C4' C8' 1.430(9) . ? 
C4' Se5' 1.91(2) . ? 
Se5' C6' 1.864(5) . ? 
C6' C7' 1.356(7) . ? 
C6' H6' 0.9500 . ? 
C7' C8' 1.43(2) . ? 
C7' H7' 0.9500 . ? 
C8' C9 1.41(2) . ? 
C9 C10 1.412(3) . ? 
C9 H9 0.9500 . ? 
C10 C1 1.418(3) 3_767 ? 
C11 C12 1.208(3) . ? 
C13 C14 1.526(4) . ? 
C13 H13A 0.9900 . ? 
C13 H13B 0.9900 . ? 
C14 H14A 0.9800 . ? 
C14 H14B 0.9800 . ? 
C14 H14C 0.9800 . ? 
C15 C16 1.533(3) . ? 
C15 H15A 0.9900 . ? 
C15 H15B 0.9900 . ? 
C16 H16A 0.9800 . ? 
C16 H16B 0.9800 . ? 
C16 H16C 0.9800 . ? 
C17 C18 1.505(4) . ? 
C17 H17A 0.9900 . ? 
C17 H17B 0.9900 . ? 
C18 H18A 0.9800 . ? 
C18 H18B 0.9800 . ? 
C18 H18C 0.9800 . ? 
 
loop_ 
 _geom_angle_atom_site_label_1 
 _geom_angle_atom_site_label_2 
 _geom_angle_atom_site_label_3 
 _geom_angle 
 _geom_angle_site_symmetry_1 
 _geom_angle_site_symmetry_3 
 _geom_angle_publ_flag 
C12 Si1 C13 107.36(10) . . ? 
C12 Si1 C15 110.64(10) . . ? 
C13 Si1 C15 109.95(11) . . ? 
C12 Si1 C17 107.45(10) . . ? 
C13 Si1 C17 109.76(12) . . ? 
C15 Si1 C17 111.55(12) . . ? 
C2 C1 C10 121.14(18) . 3_767 ? 
C2 C1 C11 119.82(18) . . ? 
C10 C1 C11 119.03(18) 3_767 . ? 
C1 C2 C3 121.50(18) . . ? 
C1 C2 C10 119.53(18) . . ? 
C3 C2 C10 118.95(18) . . ? 
C4' C3 C4 3(2) . . ? 
C4' C3 C2 119.0(12) . . ? 
C4 C3 C2 121.6(10) . . ? 
C4' C3 H3 121.8 . . ? 
C4 C3 H3 119.2 . . ? 
C2 C3 H3 119.2 . . ? 
C3 C4 C5 124.4(18) . . ? 
C3 C4 C8 116(2) . . ? 
C5 C4 C8 120(2) . . ? 
C6 C5 C4 112.1(11) . . ? 
C6 C5 H5 124.0 . . ? 
C4 C5 H5 123.9 . . ? 
C5 C6 Se7 113.8(4) . . ? 
C5 C6 H6 123.1 . . ? 
Se7 C6 H6 123.1 . . ? 
C6 Se7 C8 88.4(7) . . ? 
C9 C8 C4 125(2) . . ? 
C9 C8 Se7 129.3(16) . . ? 
C4 C8 Se7 105.7(18) . . ? 
C3 C4' C8' 126(2) . . ? 
C3 C4' Se5' 129.7(18) . . ? 
C8' C4' Se5' 104(2) . . ? 
C6' Se5' C4' 90.0(8) . . ? 
C7' C6' Se5' 112.7(4) . . ? 
C7' C6' H6' 123.7 . . ? 
Se5' C6' H6' 123.7 . . ? 
C6' C7' C8' 112.5(12) . . ? 
C6' C7' H7' 123.8 . . ? 
C8' C7' H7' 123.7 . . ? 
C9 C8' C7' 124(2) . . ? 
C9 C8' C4' 116(2) . . ? 
C7' C8' C4' 120(2) . . ? 
C8 C9 C8' 2(3) . . ? 
C8 C9 C10 119.6(10) . . ? 
C8' C9 C10 121.2(11) . . ? 
C8 C9 H9 120.2 . . ? 
C8' C9 H9 118.6 . . ? 
C10 C9 H9 120.2 . . ? 
C9 C10 C1 121.49(18) . 3_767 ? 
C9 C10 C2 119.18(18) . . ? 
C1 C10 C2 119.32(18) 3_767 . ? 
C12 C11 C1 178.5(2) . . ? 
C11 C12 Si1 170.58(18) . . ? 
C14 C13 Si1 114.26(17) . . ? 
C14 C13 H13A 108.7 . . ? 
Si1 C13 H13A 108.7 . . ? 
C14 C13 H13B 108.7 . . ? 
Si1 C13 H13B 108.7 . . ? 
H13A C13 H13B 107.6 . . ? 
C13 C14 H14A 109.5 . . ? 
C13 C14 H14B 109.5 . . ? 
H14A C14 H14B 109.5 . . ? 
C13 C14 H14C 109.5 . . ? 
H14A C14 H14C 109.5 . . ? 
H14B C14 H14C 109.5 . . ? 
C16 C15 Si1 112.85(16) . . ? 
C16 C15 H15A 109.0 . . ? 
Si1 C15 H15A 109.0 . . ? 
C16 C15 H15B 109.0 . . ? 
Si1 C15 H15B 109.0 . . ? 
H15A C15 H15B 107.8 . . ? 
C15 C16 H16A 109.5 . . ? 
C15 C16 H16B 109.5 . . ? 
H16A C16 H16B 109.5 . . ? 
C15 C16 H16C 109.5 . . ? 
H16A C16 H16C 109.5 . . ? 
H16B C16 H16C 109.5 . . ? 
C18 C17 Si1 116.59(17) . . ? 
C18 C17 H17A 108.1 . . ? 
Si1 C17 H17A 108.1 . . ? 
C18 C17 H17B 108.1 . . ? 
Si1 C17 H17B 108.1 . . ? 
H17A C17 H17B 107.3 . . ? 
C17 C18 H18A 109.5 . . ? 
C17 C18 H18B 109.5 . . ? 
H18A C18 H18B 109.5 . . ? 
C17 C18 H18C 109.5 . . ? 
H18A C18 H18C 109.5 . . ? 
H18B C18 H18C 109.5 . . ? 
 
loop_ 
 _geom_torsion_atom_site_label_1 
 _geom_torsion_atom_site_label_2 
 _geom_torsion_atom_site_label_3 
 _geom_torsion_atom_site_label_4 
 _geom_torsion 
 _geom_torsion_site_symmetry_1 
 _geom_torsion_site_symmetry_2 
 _geom_torsion_site_symmetry_3 
 _geom_torsion_site_symmetry_4 
 _geom_torsion_publ_flag 
C10 C1 C2 C3 -177.70(17) 3_767 . . . ? 
C11 C1 C2 C3 1.5(3) . . . . ? 
C10 C1 C2 C10 1.0(3) 3_767 . . . ? 
C11 C1 C2 C10 -179.78(17) . . . . ? 
C1 C2 C3 C4' 179.3(19) . . . . ? 
C10 C2 C3 C4' 0.6(19) . . . . ? 
C1 C2 C3 C4 179.0(16) . . . . ? 
C10 C2 C3 C4 0.3(16) . . . . ? 
C4' C3 C4 C5 171(70) . . . . ? 
C2 C3 C4 C5 177.9(18) . . . . ? 
C4' C3 C4 C8 -5(64) . . . . ? 
C2 C3 C4 C8 2(5) . . . . ? 
C3 C4 C5 C6 180(2) . . . . ? 
C8 C4 C5 C6 -4(5) . . . . ? 
C4 C5 C6 Se7 2.0(16) . . . . ? 
C5 C6 Se7 C8 0.2(16) . . . . ? 
C3 C4 C8 C9 -2(7) . . . . ? 
C5 C4 C8 C9 -179(3) . . . . ? 
C3 C4 C8 Se7 -179.5(16) . . . . ? 
C5 C4 C8 Se7 4(5) . . . . ? 
C6 Se7 C8 C9 -179(4) . . . . ? 
C6 Se7 C8 C4 -2(3) . . . . ? 
C4 C3 C4' C8' 173(72) . . . . ? 
C2 C3 C4' C8' 0(6) . . . . ? 
C4 C3 C4' Se5' -2(64) . . . . ? 
C2 C3 C4' Se5' -175(2) . . . . ? 
C3 C4' Se5' C6' 180(3) . . . . ? 
C8' C4' Se5' C6' 4(4) . . . . ? 
C4' Se5' C6' C7' -1.0(12) . . . . ? 
Se5' C6' C7' C8' -2(3) . . . . ? 
C6' C7' C8' C9 -178(4) . . . . ? 
C6' C7' C8' C4' 6(6) . . . . ? 
C3 C4' C8' C9 1(8) . . . . ? 
Se5' C4' C8' C9 177(3) . . . . ? 
C3 C4' C8' C7' 178(3) . . . . ? 
Se5' C4' C8' C7' -6(6) . . . . ? 
C4 C8 C9 C8' -142(100) . . . . ? 
Se7 C8 C9 C8' 34(100) . . . . ? 
C4 C8 C9 C10 1(6) . . . . ? 
Se7 C8 C9 C10 177(3) . . . . ? 
C7' C8' C9 C8 -141(100) . . . . ? 
C4' C8' C9 C8 35(100) . . . . ? 
C7' C8' C9 C10 -179(3) . . . . ? 
C4' C8' C9 C10 -2(6) . . . . ? 
C8 C9 C10 C1 -178(3) . . . 3_767 ? 
C8' C9 C10 C1 -177(3) . . . 3_767 ? 
C8 C9 C10 C2 2(3) . . . . ? 
C8' C9 C10 C2 3(3) . . . . ? 
C1 C2 C10 C9 179.15(17) . . . . ? 
C3 C2 C10 C9 -2.1(3) . . . . ? 
C1 C2 C10 C1 -1.0(3) . . . 3_767 ? 
C3 C2 C10 C1 177.75(17) . . . 3_767 ? 
C2 C1 C11 C12 -155(8) . . . . ? 
C10 C1 C11 C12 25(8) 3_767 . . . ? 
C1 C11 C12 Si1 55(8) . . . . ? 
C13 Si1 C12 C11 -61.4(12) . . . . ? 
C15 Si1 C12 C11 178.6(11) . . . . ? 
C17 Si1 C12 C11 56.6(12) . . . . ? 
C12 Si1 C13 C14 -63.6(2) . . . . ? 
C15 Si1 C13 C14 56.8(2) . . . . ? 
C17 Si1 C13 C14 179.9(2) . . . . ? 
C12 Si1 C15 C16 172.64(18) . . . . ? 
C13 Si1 C15 C16 54.2(2) . . . . ? 
C17 Si1 C15 C16 -67.8(2) . . . . ? 
C12 Si1 C17 C18 35.9(2) . . . . ? 
C13 Si1 C17 C18 152.33(19) . . . . ? 
C15 Si1 C17 C18 -85.6(2) . . . . ? 
 
_diffrn_measured_fraction_theta_max     .992 
_diffrn_reflns_theta_full              67.96 
_diffrn_measured_fraction_theta_full    .992 
_refine_diff_density_max     .371 
_refine_diff_density_min    -.311 
_refine_diff_density_rms     .055 
