 
data_k04022 
 
_audit_creation_method            SHELXL-97 
_chemical_name_systematic 
; 
 ? 
; 
_chemical_name_common             ? 
_chemical_melting_point           ? 
_chemical_formula_moiety          ? 
_chemical_formula_sum 
 'C32 H46 S2 Si2' 
_chemical_formula_weight          550.99 
 
loop_ 
 _atom_type_symbol 
 _atom_type_description 
 _atom_type_scat_dispersion_real 
 _atom_type_scat_dispersion_imag 
 _atom_type_scat_source 
 'C'  'C'    .0033    .0016 
 'International Tables Vol C Tables 4.2.6.8 and 6.1.1.4' 
 'H'  'H'    .0000    .0000 
 'International Tables Vol C Tables 4.2.6.8 and 6.1.1.4' 
 'S'  'S'    .1246    .1234 
 'International Tables Vol C Tables 4.2.6.8 and 6.1.1.4' 
 'Si'  'Si'    .0817    .0704 
 'International Tables Vol C Tables 4.2.6.8 and 6.1.1.4' 
 
_symmetry_cell_setting            triclinic
_symmetry_space_group_name_H-M    'P -1'
 
loop_ 
 _symmetry_equiv_pos_as_xyz 
 'x, y, z' 
 '-x, -y, -z' 
 
_cell_length_a                    8.33070(10) 
_cell_length_b                    9.70330(10) 
_cell_length_c                    10.8771(2) 
_cell_angle_alpha                 64.6104(7) 
_cell_angle_beta                  87.9000(7) 
_cell_angle_gamma                 88.9032(7) 
_cell_volume                      793.790(19) 
_cell_formula_units_Z             1 
_cell_measurement_temperature     90.0(2) 
_cell_measurement_reflns_used     3600
_cell_measurement_theta_min       1.00
_cell_measurement_theta_max       27.48
 
_exptl_crystal_description        plate
_exptl_crystal_colour             'pale orange'
_exptl_crystal_size_max           0.30 
_exptl_crystal_size_mid           0.20 
_exptl_crystal_size_min           0.05 
_exptl_crystal_density_meas       ? 
_exptl_crystal_density_diffrn     1.153 
_exptl_crystal_density_method     'not measured' 
_exptl_crystal_F_000              298 
_exptl_absorpt_coefficient_mu     0.262 
_exptl_absorpt_correction_type    multi-scan
_exptl_absorpt_correction_T_min   0.9255 
_exptl_absorpt_correction_T_max   0.9870 
_exptl_absorpt_process_details    'Scalepack (Otwinowski & Minor, 1997)'
 
_exptl_special_details 
; 
 ? 
; 
 
_diffrn_ambient_temperature       90.0(2) 
_diffrn_radiation_wavelength      0.71073 
_diffrn_radiation_type            MoK\a 
_diffrn_radiation_source          'fine-focus sealed tube' 
_diffrn_radiation_monochromator   graphite 
_diffrn_measurement_device_type   'Nonius KappaCCD diffractometer
_diffrn_measurement_method        '\w scans at fixed \c = 55\%'
_diffrn_detector_area_resol_mean  18
_diffrn_standards_number          ? 
_diffrn_standards_interval_count  ? 
_diffrn_standards_interval_time   ? 
_diffrn_standards_decay_%         ? 
_diffrn_reflns_number             7161 
_diffrn_reflns_av_R_equivalents   0.0365 
_diffrn_reflns_av_sigmaI/netI     0.0487 
_diffrn_reflns_limit_h_min        -10 
_diffrn_reflns_limit_h_max        10 
_diffrn_reflns_limit_k_min        -12 
_diffrn_reflns_limit_k_max        12 
_diffrn_reflns_limit_l_min        -14 
_diffrn_reflns_limit_l_max        14 
_diffrn_reflns_theta_min          2.07 
_diffrn_reflns_theta_max          27.46 
_reflns_number_total              3631 
_reflns_number_gt                 3070 
_reflns_threshold_expression      >2\s(I)    
 
_computing_data_collection        'COLLECT (Nonius, 1998)'
_computing_cell_refinement        'SCALEPACK (Otwinowski & Minor, 1997)'
_computing_data_reduction         'DENZO-SMN (Otwinowski & Minor, 1997)'
_computing_structure_solution     'SHELXS-97 (Sheldrick, 1990)' 
_computing_structure_refinement   'SHELXL-97 (Sheldrick, 1997)' 
_computing_molecular_graphics     'XP in SHELXTL (Sheldrick, 1994)'
_computing_publication_material
; 
SHELX97-2 (Sheldrick, 1997) and local procedures 
; 
 
_refine_special_details 
; 
 Refinement of F^2^ against ALL reflections.  The weighted R-factor wR and 
 goodness of fit S are based on F^2^, conventional R-factors R are based 
 on F, with F set to zero for negative F^2^. The threshold expression of 
 F^2^ > 2sigma(F^2^) is used only for calculating R-factors(gt) etc. and is 
 not relevant to the choice of reflections for refinement.  R-factors based 
 on F^2^ are statistically about twice as large as those based on F, and R- 
 factors based on ALL data will be even larger. 
; 
 
_refine_ls_structure_factor_coef  Fsqd  
_refine_ls_matrix_type            full 
_refine_ls_weighting_scheme       calc  
_refine_ls_weighting_details 
 'calc w=1/[\s^2^(Fo^2^)+(0.0350P)^2^+0.2693P] where P=(Fo^2^+2Fc^2^)/3' 
_atom_sites_solution_primary      direct 
_atom_sites_solution_secondary    difmap 
_atom_sites_solution_hydrogens    geom 
_refine_ls_hydrogen_treatment     constr
_refine_ls_extinction_method      none 
_refine_ls_extinction_coef        ? 
_refine_ls_number_reflns          3631 
_refine_ls_number_parameters      197 
_refine_ls_number_restraints      108 
_refine_ls_R_factor_all           0.0415 
_refine_ls_R_factor_gt            0.0320 
_refine_ls_wR_factor_ref          0.0830 
_refine_ls_wR_factor_gt           0.0787 
_refine_ls_goodness_of_fit_ref    1.035 
_refine_ls_restrained_S_all       1.028 
_refine_ls_shift/su_max           0.001 
_refine_ls_shift/su_mean          0.000 
 
loop_ 
 _atom_site_label 
 _atom_site_type_symbol 
 _atom_site_fract_x 
 _atom_site_fract_y 
 _atom_site_fract_z 
 _atom_site_U_iso_or_equiv 
 _atom_site_adp_type 
 _atom_site_occupancy 
 _atom_site_symmetry_multiplicity 
 _atom_site_calc_flag 
 _atom_site_refinement_flags 
 _atom_site_disorder_assembly 
 _atom_site_disorder_group 
Si1 Si 0.34444(4) 0.34721(4) 0.30367(3) 0.01637(10) Uani 1 1 d . A . 
C1 C 0.47636(15) 0.83827(13) 0.07404(12) 0.0191(3) Uani 1 1 d . . . 
C2 C 0.36183(15) 0.93233(13) -0.01520(12) 0.0193(3) Uani 0.5926(19) 1 d PDU A 1 
S3 S 0.17987(19) 0.8704(2) -0.0411(2) 0.0251(3) Uani 0.5926(19) 1 d PDU A 1 
C4 C 0.1298(8) 1.0562(6) -0.1521(8) 0.0279(11) Uani 0.5926(19) 1 d PDU A 1 
H4 H 0.0310 1.0829 -0.1977 0.033 Uiso 0.5926(19) 1 calc PR A 1 
C5 C 0.2444(10) 1.1585(9) -0.1671(7) 0.0321(15) Uani 0.5926(19) 1 d PDU A 1 
H5 H 0.2341 1.2645 -0.2240 0.039 Uiso 0.5926(19) 1 calc PR A 1 
C6 C 0.38437(15) 1.09188(13) -0.08875(12) 0.0193(3) Uani 0.5926(19) 1 d PDU . 1 
C2' C 0.36183(15) 0.93233(13) -0.01520(12) 0.0193(3) Uani 0.4074(19) 1 d PDU A 2 
C3' C 0.2090(11) 0.8930(12) -0.0538(12) 0.0283(17) Uani 0.4074(19) 1 d PDU A 2 
H3' H 0.1692 0.7918 -0.0183 0.034 Uiso 0.4074(19) 1 calc PR A 2 
C4' C 0.1302(12) 1.0144(8) -0.1445(12) 0.0253(14) Uani 0.4074(19) 1 d PDU A 2 
H4' H 0.0282 1.0075 -0.1777 0.030 Uiso 0.4074(19) 1 calc PR A 2 
S5' S 0.2332(3) 1.1848(3) -0.1949(3) 0.0238(4) Uani 0.4074(19) 1 d PDU A 2 
C6' C 0.38437(15) 1.09188(13) -0.08875(12) 0.0193(3) Uani 0.4074(19) 1 d PDU . 2 
C7 C 0.44892(15) 0.67758(14) 0.14720(13) 0.0208(3) Uani 1 1 d . A . 
C8 C 0.41734(15) 0.54400(14) 0.20673(13) 0.0212(3) Uani 1 1 d . . . 
C10 C 0.50916(15) 0.23278(13) 0.41785(13) 0.0204(3) Uani 1 1 d . . . 
H10 H 0.4635 0.1310 0.4801 0.024 Uiso 1 1 calc R A . 
C11 C 0.65020(16) 0.20494(17) 0.33613(16) 0.0321(3) Uani 1 1 d . A . 
H11A H 0.6950 0.3031 0.2715 0.048 Uiso 1 1 calc R . . 
H11B H 0.6121 0.1491 0.2862 0.048 Uiso 1 1 calc R . . 
H11C H 0.7334 0.1449 0.3985 0.048 Uiso 1 1 calc R . . 
C12 C 0.56977(17) 0.30679(15) 0.50717(15) 0.0286(3) Uani 1 1 d . A . 
H12A H 0.6548 0.2432 0.5649 0.043 Uiso 1 1 calc R . . 
H12B H 0.4807 0.3159 0.5647 0.043 Uiso 1 1 calc R . . 
H12C H 0.6124 0.4084 0.4489 0.043 Uiso 1 1 calc R . . 
C13 C 0.16508(15) 0.36451(14) 0.40793(13) 0.0211(3) Uani 1 1 d . . . 
H13 H 0.2091 0.3914 0.4791 0.025 Uiso 1 1 calc R A . 
C14 C 0.07532(16) 0.21368(16) 0.48503(14) 0.0282(3) Uani 1 1 d . A . 
H14A H -0.0072 0.2260 0.5461 0.042 Uiso 1 1 calc R . . 
H14B H 0.1513 0.1339 0.5384 0.042 Uiso 1 1 calc R . . 
H14C H 0.0244 0.1847 0.4198 0.042 Uiso 1 1 calc R . . 
C15 C 0.04723(17) 0.49298(16) 0.32824(15) 0.0324(3) Uani 1 1 d . A . 
H15A H -0.0013 0.4712 0.2577 0.049 Uiso 1 1 calc R . . 
H15B H 0.1050 0.5901 0.2855 0.049 Uiso 1 1 calc R . . 
H15C H -0.0372 0.4996 0.3906 0.049 Uiso 1 1 calc R . . 
C16 C 0.30119(16) 0.27030(14) 0.17585(13) 0.0232(3) Uani 1 1 d . . . 
H16 H 0.4017 0.2853 0.1185 0.028 Uiso 1 1 calc R A . 
C17 C 0.26873(19) 0.09752(16) 0.24215(16) 0.0339(3) Uani 1 1 d . A . 
H17A H 0.1684 0.0768 0.2968 0.051 Uiso 1 1 calc R . . 
H17B H 0.3576 0.0441 0.3008 0.051 Uiso 1 1 calc R . . 
H17C H 0.2596 0.0618 0.1710 0.051 Uiso 1 1 calc R . . 
C18 C 0.1692(2) 0.35735(19) 0.07815(17) 0.0413(4) Uani 1 1 d . A . 
H18A H 0.1658 0.3236 0.0053 0.062 Uiso 1 1 calc R . . 
H18B H 0.1918 0.4669 0.0386 0.062 Uiso 1 1 calc R . . 
H18C H 0.0654 0.3373 0.1279 0.062 Uiso 1 1 calc R . . 
 
loop_ 
 _atom_site_aniso_label 
 _atom_site_aniso_U_11 
 _atom_site_aniso_U_22 
 _atom_site_aniso_U_33 
 _atom_site_aniso_U_23 
 _atom_site_aniso_U_13 
 _atom_site_aniso_U_12 
Si1 0.01740(17) 0.01158(16) 0.01913(17) -0.00573(13) 0.00126(12) -0.00119(12) 
C1 0.0258(6) 0.0136(6) 0.0173(6) -0.0063(5) 0.0040(5) -0.0024(5) 
C2 0.0229(6) 0.0163(6) 0.0194(6) -0.0085(5) 0.0033(5) -0.0038(5) 
S3 0.0254(5) 0.0242(6) 0.0259(5) -0.0108(4) 0.0003(4) -0.0068(4) 
C4 0.0264(14) 0.031(3) 0.0244(15) -0.009(2) -0.0036(11) 0.0003(18) 
C5 0.039(2) 0.029(3) 0.026(3) -0.010(2) 0.0028(18) 0.0019(17) 
C6 0.0242(6) 0.0151(6) 0.0174(6) -0.0060(5) 0.0008(5) -0.0001(5) 
C2' 0.0229(6) 0.0163(6) 0.0194(6) -0.0085(5) 0.0033(5) -0.0038(5) 
C3' 0.033(3) 0.024(3) 0.028(2) -0.011(2) 0.007(2) -0.004(2) 
C4' 0.0238(18) 0.026(3) 0.028(2) -0.013(3) -0.0019(15) -0.005(2) 
S5' 0.0226(6) 0.0210(8) 0.0233(9) -0.0051(7) -0.0050(5) 0.0015(5) 
C6' 0.0242(6) 0.0151(6) 0.0174(6) -0.0060(5) 0.0008(5) -0.0001(5) 
C7 0.0245(6) 0.0174(6) 0.0205(6) -0.0082(5) 0.0022(5) -0.0006(5) 
C8 0.0232(6) 0.0177(6) 0.0221(6) -0.0082(5) 0.0009(5) -0.0005(5) 
C10 0.0187(6) 0.0137(5) 0.0265(6) -0.0067(5) 0.0001(5) 0.0000(4) 
C11 0.0219(7) 0.0322(8) 0.0447(9) -0.0190(7) 0.0011(6) 0.0044(6) 
C12 0.0273(7) 0.0244(7) 0.0354(8) -0.0134(6) -0.0107(6) 0.0043(5) 
C13 0.0188(6) 0.0222(6) 0.0225(6) -0.0099(5) -0.0001(5) 0.0012(5) 
C14 0.0212(7) 0.0293(7) 0.0304(7) -0.0096(6) 0.0055(5) -0.0030(5) 
C15 0.0290(7) 0.0312(8) 0.0330(8) -0.0105(6) 0.0005(6) 0.0123(6) 
C16 0.0267(7) 0.0205(6) 0.0246(6) -0.0120(5) 0.0022(5) -0.0027(5) 
C17 0.0448(9) 0.0263(7) 0.0377(8) -0.0206(7) 0.0086(7) -0.0116(6) 
C18 0.0486(10) 0.0452(9) 0.0402(9) -0.0272(8) -0.0180(7) 0.0095(7) 
 
_geom_special_details 
; 
 All esds (except the esd in the dihedral angle between two l.s. planes) 
 are estimated using the full covariance matrix.  The cell esds are taken 
 into account individually in the estimation of esds in distances, angles 
 and torsion angles; correlations between esds in cell parameters are only 
 used when they are defined by crystal symmetry.  An approximate (isotropic) 
 treatment of cell esds is used for estimating esds involving l.s. planes. 
; 
 
loop_ 
 _geom_bond_atom_site_label_1 
 _geom_bond_atom_site_label_2 
 _geom_bond_distance 
 _geom_bond_site_symmetry_2 
 _geom_bond_publ_flag 
Si1 C8 1.8432(13) . ? 
Si1 C10 1.8821(13) . ? 
Si1 C16 1.8859(13) . ? 
Si1 C13 1.8911(13) . ? 
C1 C2 1.4001(18) . ? 
C1 C6' 1.4027(17) 2_675 ? 
C1 C6 1.4027(17) 2_675 ? 
C1 C7 1.4328(16) . ? 
C2 C6 1.4179(16) . ? 
C2 S3 1.7171(19) . ? 
S3 C4 1.739(5) . ? 
C4 C5 1.345(10) . ? 
C4 H4 0.9500 . ? 
C5 C6 1.441(7) . ? 
C5 H5 0.9500 . ? 
C6 C1 1.4027(17) 2_675 ? 
C3' C4' 1.347(12) . ? 
C3' H3' 0.9500 . ? 
C4' S5' 1.736(8) . ? 
C4' H4' 0.9500 . ? 
C7 C8 1.2040(17) . ? 
C10 C11 1.5365(18) . ? 
C10 C12 1.5370(18) . ? 
C10 H10 1.0000 . ? 
C11 H11A 0.9800 . ? 
C11 H11B 0.9800 . ? 
C11 H11C 0.9800 . ? 
C12 H12A 0.9800 . ? 
C12 H12B 0.9800 . ? 
C12 H12C 0.9800 . ? 
C13 C14 1.5323(17) . ? 
C13 C15 1.5357(18) . ? 
C13 H13 1.0000 . ? 
C14 H14A 0.9800 . ? 
C14 H14B 0.9800 . ? 
C14 H14C 0.9800 . ? 
C15 H15A 0.9800 . ? 
C15 H15B 0.9800 . ? 
C15 H15C 0.9800 . ? 
C16 C18 1.527(2) . ? 
C16 C17 1.5395(18) . ? 
C16 H16 1.0000 . ? 
C17 H17A 0.9800 . ? 
C17 H17B 0.9800 . ? 
C17 H17C 0.9800 . ? 
C18 H18A 0.9800 . ? 
C18 H18B 0.9800 . ? 
C18 H18C 0.9800 . ? 
 
loop_ 
 _geom_angle_atom_site_label_1 
 _geom_angle_atom_site_label_2 
 _geom_angle_atom_site_label_3 
 _geom_angle 
 _geom_angle_site_symmetry_1 
 _geom_angle_site_symmetry_3 
 _geom_angle_publ_flag 
C8 Si1 C10 107.89(6) . . ? 
C8 Si1 C16 107.02(6) . . ? 
C10 Si1 C16 110.21(6) . . ? 
C8 Si1 C13 104.96(6) . . ? 
C10 Si1 C13 110.62(6) . . ? 
C16 Si1 C13 115.68(6) . . ? 
C2 C1 C6' 117.35(11) . 2_675 ? 
C2 C1 C6 117.35(11) . 2_675 ? 
C6' C1 C6 0.00(10) 2_675 2_675 ? 
C2 C1 C7 120.30(11) . . ? 
C6' C1 C7 122.35(11) 2_675 . ? 
C6 C1 C7 122.35(11) 2_675 . ? 
C1 C2 C6 121.90(11) . . ? 
C1 C2 S3 124.44(11) . . ? 
C6 C2 S3 113.60(11) . . ? 
C2 S3 C4 90.1(2) . . ? 
C5 C4 S3 113.5(5) . . ? 
C5 C4 H4 123.2 . . ? 
S3 C4 H4 123.2 . . ? 
C4 C5 C6 113.5(6) . . ? 
C4 C5 H5 123.2 . . ? 
C6 C5 H5 123.2 . . ? 
C1 C6 C2 120.75(11) 2_675 . ? 
C1 C6 C5 130.0(3) 2_675 . ? 
C2 C6 C5 109.2(3) . . ? 
C4' C3' H3' 123.3 . . ? 
C3' C4' S5' 113.4(7) . . ? 
C3' C4' H4' 123.3 . . ? 
S5' C4' H4' 123.3 . . ? 
C8 C7 C1 176.47(14) . . ? 
C7 C8 Si1 172.78(12) . . ? 
C11 C10 C12 110.10(11) . . ? 
C11 C10 Si1 111.59(9) . . ? 
C12 C10 Si1 112.39(8) . . ? 
C11 C10 H10 107.5 . . ? 
C12 C10 H10 107.5 . . ? 
Si1 C10 H10 107.5 . . ? 
C10 C11 H11A 109.5 . . ? 
C10 C11 H11B 109.5 . . ? 
H11A C11 H11B 109.5 . . ? 
C10 C11 H11C 109.5 . . ? 
H11A C11 H11C 109.5 . . ? 
H11B C11 H11C 109.5 . . ? 
C10 C12 H12A 109.5 . . ? 
C10 C12 H12B 109.5 . . ? 
H12A C12 H12B 109.5 . . ? 
C10 C12 H12C 109.5 . . ? 
H12A C12 H12C 109.5 . . ? 
H12B C12 H12C 109.5 . . ? 
C14 C13 C15 110.44(11) . . ? 
C14 C13 Si1 113.03(9) . . ? 
C15 C13 Si1 114.51(9) . . ? 
C14 C13 H13 106.0 . . ? 
C15 C13 H13 106.0 . . ? 
Si1 C13 H13 106.0 . . ? 
C13 C14 H14A 109.5 . . ? 
C13 C14 H14B 109.5 . . ? 
H14A C14 H14B 109.5 . . ? 
C13 C14 H14C 109.5 . . ? 
H14A C14 H14C 109.5 . . ? 
H14B C14 H14C 109.5 . . ? 
C13 C15 H15A 109.5 . . ? 
C13 C15 H15B 109.5 . . ? 
H15A C15 H15B 109.5 . . ? 
C13 C15 H15C 109.5 . . ? 
H15A C15 H15C 109.5 . . ? 
H15B C15 H15C 109.5 . . ? 
C18 C16 C17 111.14(12) . . ? 
C18 C16 Si1 113.74(9) . . ? 
C17 C16 Si1 113.00(9) . . ? 
C18 C16 H16 106.1 . . ? 
C17 C16 H16 106.1 . . ? 
Si1 C16 H16 106.1 . . ? 
C16 C17 H17A 109.5 . . ? 
C16 C17 H17B 109.5 . . ? 
H17A C17 H17B 109.5 . . ? 
C16 C17 H17C 109.5 . . ? 
H17A C17 H17C 109.5 . . ? 
H17B C17 H17C 109.5 . . ? 
C16 C18 H18A 109.5 . . ? 
C16 C18 H18B 109.5 . . ? 
H18A C18 H18B 109.5 . . ? 
C16 C18 H18C 109.5 . . ? 
H18A C18 H18C 109.5 . . ? 
H18B C18 H18C 109.5 . . ? 
 
loop_ 
 _geom_torsion_atom_site_label_1 
 _geom_torsion_atom_site_label_2 
 _geom_torsion_atom_site_label_3 
 _geom_torsion_atom_site_label_4 
 _geom_torsion 
 _geom_torsion_site_symmetry_1 
 _geom_torsion_site_symmetry_2 
 _geom_torsion_site_symmetry_3 
 _geom_torsion_site_symmetry_4 
 _geom_torsion_publ_flag 
C6' C1 C2 C6 0.20(19) 2_675 . . . ? 
C6 C1 C2 C6 0.20(19) 2_675 . . . ? 
C7 C1 C2 C6 179.65(11) . . . . ? 
C6' C1 C2 S3 -176.78(13) 2_675 . . . ? 
C6 C1 C2 S3 -176.78(13) 2_675 . . . ? 
C7 C1 C2 S3 2.67(19) . . . . ? 
C1 C2 S3 C4 177.6(3) . . . . ? 
C6 C2 S3 C4 0.4(3) . . . . ? 
C2 S3 C4 C5 -0.5(7) . . . . ? 
S3 C4 C5 C6 0.4(10) . . . . ? 
C1 C2 C6 C1 -0.2(2) . . . 2_675 ? 
S3 C2 C6 C1 177.08(12) . . . 2_675 ? 
C1 C2 C6 C5 -177.6(4) . . . . ? 
S3 C2 C6 C5 -0.3(4) . . . . ? 
C4 C5 C6 C1 -177.1(5) . . . 2_675 ? 
C4 C5 C6 C2 -0.1(8) . . . . ? 
C2 C1 C7 C8 -14(2) . . . . ? 
C6' C1 C7 C8 166(2) 2_675 . . . ? 
C6 C1 C7 C8 166(2) 2_675 . . . ? 
C1 C7 C8 Si1 -37(3) . . . . ? 
C10 Si1 C8 C7 -133.1(9) . . . . ? 
C16 Si1 C8 C7 108.3(9) . . . . ? 
C13 Si1 C8 C7 -15.1(9) . . . . ? 
C8 Si1 C10 C11 -70.80(10) . . . . ? 
C16 Si1 C10 C11 45.73(10) . . . . ? 
C13 Si1 C10 C11 174.91(9) . . . . ? 
C8 Si1 C10 C12 53.45(10) . . . . ? 
C16 Si1 C10 C12 169.98(9) . . . . ? 
C13 Si1 C10 C12 -60.83(10) . . . . ? 
C8 Si1 C13 C14 173.76(9) . . . . ? 
C10 Si1 C13 C14 -70.12(10) . . . . ? 
C16 Si1 C13 C14 56.07(11) . . . . ? 
C8 Si1 C13 C15 46.10(11) . . . . ? 
C10 Si1 C13 C15 162.22(9) . . . . ? 
C16 Si1 C13 C15 -71.58(11) . . . . ? 
C8 Si1 C16 C18 -62.59(12) . . . . ? 
C10 Si1 C16 C18 -179.66(10) . . . . ? 
C13 Si1 C16 C18 53.94(12) . . . . ? 
C8 Si1 C16 C17 169.48(10) . . . . ? 
C10 Si1 C16 C17 52.41(11) . . . . ? 
C13 Si1 C16 C17 -73.99(11) . . . . ? 
 
_diffrn_measured_fraction_theta_max     .999 
_diffrn_reflns_theta_full              27.46 
_diffrn_measured_fraction_theta_full    .999 
_refine_diff_density_max     .348 
_refine_diff_density_min    -.199 
_refine_diff_density_rms     .042 
