 
data_k07484 
 
_audit_creation_method            SHELXL-97 
_chemical_name_systematic 
; 
 ? 
; 
_chemical_name_common             ? 
_chemical_melting_point           ? 
_chemical_formula_moiety 
 'C40 H50 S2 Si2' 
_chemical_formula_sum 
 'C40 H50 S2 Si2' 
_chemical_formula_weight          651.10 
 
loop_ 
 _atom_type_symbol 
 _atom_type_description 
 _atom_type_scat_dispersion_real 
 _atom_type_scat_dispersion_imag 
 _atom_type_scat_source 
 'C'  'C'   0.0033   0.0016 
 'International Tables Vol C Tables 4.2.6.8 and 6.1.1.4' 
 'H'  'H'   0.0000   0.0000 
 'International Tables Vol C Tables 4.2.6.8 and 6.1.1.4' 
 'Si'  'Si'   0.0817   0.0704 
 'International Tables Vol C Tables 4.2.6.8 and 6.1.1.4' 
 'S'  'S'   0.1246   0.1234 
 'International Tables Vol C Tables 4.2.6.8 and 6.1.1.4' 
 
_symmetry_cell_setting            triclinic
_symmetry_space_group_name_H-M    'P -1'
_symmetry_space_group_name_Hall   '-P 1'
 
loop_ 
 _symmetry_equiv_pos_as_xyz 
 'x, y, z' 
 '-x, -y, -z' 
 
_cell_length_a                    8.2357(1) 
_cell_length_b                    10.3353(2) 
_cell_length_c                    12.0765(2) 
_cell_angle_alpha                 103.2930(7) 
_cell_angle_beta                  103.5831(8) 
_cell_angle_gamma                 106.0012(7) 
_cell_volume                      911.46(3) 
_cell_formula_units_Z             1 
_cell_measurement_temperature     90.0(2) 
_cell_measurement_reflns_used     4104
_cell_measurement_theta_min       1.00
_cell_measurement_theta_max       27.48
 
_exptl_crystal_description        block
_exptl_crystal_colour             yellow
_exptl_crystal_size_max           0.40 
_exptl_crystal_size_mid           0.25 
_exptl_crystal_size_min           0.20 
_exptl_crystal_density_meas       ? 
_exptl_crystal_density_diffrn     1.186 
_exptl_crystal_density_method     'not measured' 
_exptl_crystal_F_000              350 
_exptl_absorpt_coefficient_mu     0.239 
_exptl_absorpt_correction_type    multi-scan 
_exptl_absorpt_correction_T_min   0.911 
_exptl_absorpt_correction_T_max   0.954 
_exptl_absorpt_process_details    'Scalepack (Otwinowski & Minor, 1997)' 
 
_exptl_special_details 
; 
 ? 
; 
 
_diffrn_ambient_temperature       90.0(2) 
_diffrn_radiation_wavelength      0.71073 
_diffrn_radiation_type            MoK\a 
_diffrn_radiation_source          'fine-focus sealed tube'    
_diffrn_radiation_monochromator   'graphite'                 
_diffrn_measurement_device_type   'Nonius KappaCCD diffractometer'  
_diffrn_measurement_method        '\w scans at fixed \c = 55\%'
_diffrn_detector_area_resol_mean  18
_diffrn_standards_number          0 
_diffrn_standards_interval_count  . 
_diffrn_standards_interval_time   . 
_diffrn_standards_decay_%         ? 
_diffrn_reflns_number             8151 
_diffrn_reflns_av_R_equivalents   0.0234 
_diffrn_reflns_av_sigmaI/netI     0.0349 
_diffrn_reflns_limit_h_min        -10 
_diffrn_reflns_limit_h_max        10 
_diffrn_reflns_limit_k_min        -13 
_diffrn_reflns_limit_k_max        13 
_diffrn_reflns_limit_l_min        -15 
_diffrn_reflns_limit_l_max        15 
_diffrn_reflns_theta_min          1.83 
_diffrn_reflns_theta_max          27.49 
_reflns_number_total              4174 
_reflns_number_gt                 3493 
_reflns_threshold_expression      >2\s(I)    
 
_computing_data_collection        'COLLECT (Nonius, 1998)'
_computing_cell_refinement        'SCALEPACK (Otwinowski & Minor, 1997)'
_computing_data_reduction         'DENZO-SMN (Otwinowski & Minor, 1997)'
_computing_structure_solution     'SHELXS-97 (Sheldrick, 1997)' 
_computing_structure_refinement   'SHELXL-97 (Sheldrick, 1997)' 
_computing_molecular_graphics     'XP in SHELXTL (Sheldrick, 1994)'
_computing_publication_material
; 
SHELX97-2 (Sheldrick, 1997) and local procedures 
;

_publ_section_exptl_refinement
;
H atoms were found in difference Fourier maps and subsequently placed in 
idealized positions with constrained CÃH distances of 1.00 \%A (R~3~CH), 
0.98 \%A (RCH~3~) and 0.95 \%A (C~Ar~H). U~iso~(H) values were set to either 
1.5U~eq~ of the attached C atom (CH~3~) or 1.2U~eq~.
;

 
 
_refine_special_details 
; 
 Refinement of F^2^ against ALL reflections.  The weighted R-factor wR and 
 goodness of fit S are based on F^2^, conventional R-factors R are based 
 on F, with F set to zero for negative F^2^. The threshold expression of 
 F^2^ > 2\s(F^2^) is used only for calculating R-factors(gt) etc. and is 
 not relevant to the choice of reflections for refinement.  R-factors based 
 on F^2^ are statistically about twice as large as those based on F, and R- 
 factors based on ALL data will be even larger. 
; 
 
_refine_ls_structure_factor_coef  Fsqd  
_refine_ls_matrix_type            full 
_refine_ls_weighting_scheme       calc  
_refine_ls_weighting_details 
 'calc w=1/[\s^2^(Fo^2^)+(0.0424P)^2^+0.3934P] where P=(Fo^2^+2Fc^2^)/3' 
_atom_sites_solution_primary      direct 
_atom_sites_solution_secondary    difmap 
_atom_sites_solution_hydrogens    geom 
_refine_ls_hydrogen_treatment     constr 
_refine_ls_extinction_method      none 
_refine_ls_extinction_coef        ? 
_refine_ls_number_reflns          4174 
_refine_ls_number_parameters      205 
_refine_ls_number_restraints      0 
_refine_ls_R_factor_all           0.0464 
_refine_ls_R_factor_gt            0.0362 
_refine_ls_wR_factor_ref          0.0941 
_refine_ls_wR_factor_gt           0.0887 
_refine_ls_goodness_of_fit_ref    1.076 
_refine_ls_restrained_S_all       1.076 
_refine_ls_shift/su_max           0.001 
_refine_ls_shift/su_mean          0.000 
 
loop_ 
 _atom_site_label 
 _atom_site_type_symbol 
 _atom_site_fract_x 
 _atom_site_fract_y 
 _atom_site_fract_z 
 _atom_site_U_iso_or_equiv 
 _atom_site_adp_type 
 _atom_site_occupancy 
 _atom_site_symmetry_multiplicity 
 _atom_site_calc_flag 
 _atom_site_refinement_flags 
 _atom_site_disorder_assembly 
 _atom_site_disorder_group 
Si1 Si 0.32544(5) 0.33601(4) 0.18365(3) 0.01399(11) Uani 1 1 d . . . 
C1 C 0.44996(18) 0.08450(14) 0.42844(12) 0.0144(3) Uani 1 1 d . . . 
C2 C 0.57043(18) 0.01525(14) 0.40963(12) 0.0143(3) Uani 1 1 d . . . 
S3 S 0.67047(5) 0.02357(4) 0.29833(3) 0.01685(10) Uani 1 1 d . . . 
C4 C 0.78651(18) -0.08411(15) 0.34236(13) 0.0161(3) Uani 1 1 d . . . 
C5 C 0.90664(19) -0.12563(15) 0.29081(13) 0.0192(3) Uani 1 1 d . . . 
H5 H 0.9291 -0.0978 0.2246 0.023 Uiso 1 1 calc R . . 
C6 C 0.99234(19) -0.20812(16) 0.33816(14) 0.0206(3) Uani 1 1 d . . . 
H6 H 1.0753 -0.2364 0.3046 0.025 Uiso 1 1 calc R . . 
C7 C 0.95788(19) -0.25018(16) 0.43485(13) 0.0196(3) Uani 1 1 d . . . 
H7 H 1.0172 -0.3072 0.4661 0.023 Uiso 1 1 calc R . . 
C8 C 0.83821(19) -0.20954(15) 0.48557(13) 0.0174(3) Uani 1 1 d . . . 
H8 H 0.8158 -0.2386 0.5513 0.021 Uiso 1 1 calc R . . 
C9 C 0.75017(17) -0.12552(14) 0.43988(12) 0.0146(3) Uani 1 1 d . . . 
C10 C 0.62290(17) -0.06806(14) 0.47902(12) 0.0144(3) Uani 1 1 d . . . 
C11 C 0.40903(18) 0.16786(15) 0.35338(13) 0.0158(3) Uani 1 1 d . . . 
C12 C 0.38215(18) 0.23683(15) 0.28726(13) 0.0169(3) Uani 1 1 d . . . 
C13 C 0.36100(19) 0.52041(15) 0.27837(13) 0.0179(3) Uani 1 1 d . . . 
H13 H 0.4885 0.5604 0.3305 0.021 Uiso 1 1 calc R . . 
C14 C 0.2502(2) 0.52699(18) 0.36378(16) 0.0295(4) Uani 1 1 d . . . 
H14A H 0.2898 0.6243 0.4177 0.044 Uiso 1 1 calc R . . 
H14B H 0.2657 0.4635 0.4112 0.044 Uiso 1 1 calc R . . 
H14C H 0.1241 0.4973 0.3171 0.044 Uiso 1 1 calc R . . 
C15 C 0.3393(2) 0.61926(16) 0.20348(15) 0.0254(3) Uani 1 1 d . . . 
H15A H 0.2141 0.5888 0.1546 0.038 Uiso 1 1 calc R . . 
H15B H 0.4133 0.6158 0.1509 0.038 Uiso 1 1 calc R . . 
H15C H 0.3765 0.7165 0.2570 0.038 Uiso 1 1 calc R . . 
C16 C 0.09075(18) 0.22457(15) 0.08307(13) 0.0175(3) Uani 1 1 d . . . 
H16 H 0.0979 0.1340 0.0366 0.021 Uiso 1 1 calc R . . 
C17 C -0.0403(2) 0.18234(17) 0.15081(15) 0.0248(3) Uani 1 1 d . . . 
H17A H -0.0607 0.2666 0.1926 0.037 Uiso 1 1 calc R . . 
H17B H 0.0094 0.1404 0.2094 0.037 Uiso 1 1 calc R . . 
H17C H -0.1535 0.1130 0.0938 0.037 Uiso 1 1 calc R . . 
C18 C 0.0133(2) 0.28840(18) -0.01077(14) 0.0234(3) Uani 1 1 d . . . 
H18A H -0.0984 0.2178 -0.0686 0.035 Uiso 1 1 calc R . . 
H18B H 0.0987 0.3160 -0.0530 0.035 Uiso 1 1 calc R . . 
H18C H -0.0097 0.3721 0.0294 0.035 Uiso 1 1 calc R . . 
C19 C 0.48166(19) 0.34433(15) 0.09178(13) 0.0183(3) Uani 1 1 d . . . 
H19 H 0.4399 0.3863 0.0286 0.022 Uiso 1 1 calc R . . 
C20 C 0.4784(2) 0.19674(17) 0.02753(14) 0.0242(3) Uani 1 1 d . . . 
H20A H 0.5607 0.2059 -0.0195 0.036 Uiso 1 1 calc R . . 
H20B H 0.3575 0.1387 -0.0261 0.036 Uiso 1 1 calc R . . 
H20C H 0.5151 0.1513 0.0871 0.036 Uiso 1 1 calc R . . 
C21 C 0.6731(2) 0.44131(18) 0.16770(16) 0.0291(4) Uani 1 1 d . . . 
H21A H 0.7156 0.4061 0.2336 0.044 Uiso 1 1 calc R . . 
H21B H 0.6752 0.5379 0.2007 0.044 Uiso 1 1 calc R . . 
H21C H 0.7506 0.4418 0.1173 0.044 Uiso 1 1 calc R . . 
 
loop_ 
 _atom_site_aniso_label 
 _atom_site_aniso_U_11 
 _atom_site_aniso_U_22 
 _atom_site_aniso_U_33 
 _atom_site_aniso_U_23 
 _atom_site_aniso_U_13 
 _atom_site_aniso_U_12 
Si1 0.01472(19) 0.0141(2) 0.0157(2) 0.00817(15) 0.00475(15) 0.00602(15) 
C1 0.0144(6) 0.0128(6) 0.0153(7) 0.0058(5) 0.0029(5) 0.0043(5) 
C2 0.0148(6) 0.0141(6) 0.0137(6) 0.0053(5) 0.0047(5) 0.0038(5) 
S3 0.01951(18) 0.01920(19) 0.01781(19) 0.01042(14) 0.00873(14) 0.00965(14) 
C4 0.0167(7) 0.0155(7) 0.0174(7) 0.0066(6) 0.0051(5) 0.0067(5) 
C5 0.0204(7) 0.0193(7) 0.0197(7) 0.0071(6) 0.0093(6) 0.0063(6) 
C6 0.0184(7) 0.0189(7) 0.0242(8) 0.0040(6) 0.0081(6) 0.0072(6) 
C7 0.0185(7) 0.0182(7) 0.0220(7) 0.0064(6) 0.0036(6) 0.0089(6) 
C8 0.0185(7) 0.0172(7) 0.0172(7) 0.0073(6) 0.0044(5) 0.0066(6) 
C9 0.0133(6) 0.0129(6) 0.0150(7) 0.0027(5) 0.0032(5) 0.0032(5) 
C10 0.0136(6) 0.0134(7) 0.0153(7) 0.0055(5) 0.0023(5) 0.0046(5) 
C11 0.0149(6) 0.0161(7) 0.0173(7) 0.0054(6) 0.0057(5) 0.0061(5) 
C12 0.0176(7) 0.0181(7) 0.0178(7) 0.0070(6) 0.0073(6) 0.0079(6) 
C13 0.0174(7) 0.0154(7) 0.0200(7) 0.0069(6) 0.0032(6) 0.0058(5) 
C14 0.0389(9) 0.0208(8) 0.0329(9) 0.0069(7) 0.0192(8) 0.0117(7) 
C15 0.0353(9) 0.0152(7) 0.0261(8) 0.0085(6) 0.0057(7) 0.0112(7) 
C16 0.0167(7) 0.0170(7) 0.0200(7) 0.0079(6) 0.0054(6) 0.0064(6) 
C17 0.0182(7) 0.0263(8) 0.0314(9) 0.0148(7) 0.0082(6) 0.0052(6) 
C18 0.0198(7) 0.0293(8) 0.0207(8) 0.0114(7) 0.0024(6) 0.0086(6) 
C19 0.0189(7) 0.0193(7) 0.0205(7) 0.0104(6) 0.0079(6) 0.0075(6) 
C20 0.0253(8) 0.0241(8) 0.0250(8) 0.0071(7) 0.0119(6) 0.0087(6) 
C21 0.0212(8) 0.0287(9) 0.0354(9) 0.0073(7) 0.0131(7) 0.0046(7) 
 
_geom_special_details 
; 
 All esds (except the esd in the dihedral angle between two l.s. planes) 
 are estimated using the full covariance matrix.  The cell esds are taken 
 into account individually in the estimation of esds in distances, angles 
 and torsion angles; correlations between esds in cell parameters are only 
 used when they are defined by crystal symmetry.  An approximate (isotropic) 
 treatment of cell esds is used for estimating esds involving l.s. planes. 
; 
 
loop_ 
 _geom_bond_atom_site_label_1 
 _geom_bond_atom_site_label_2 
 _geom_bond_distance 
 _geom_bond_site_symmetry_2 
 _geom_bond_publ_flag 
Si1 C12 1.8477(15) . ? 
Si1 C19 1.8834(15) . ? 
Si1 C13 1.8865(15) . ? 
Si1 C16 1.8880(14) . ? 
C1 C2 1.4039(19) . ? 
C1 C10 1.4086(19) 2_656 ? 
C1 C11 1.4328(19) . ? 
C2 C10 1.4132(19) . ? 
C2 S3 1.7399(14) . ? 
S3 C4 1.7477(14) . ? 
C4 C5 1.397(2) . ? 
C4 C9 1.4094(19) . ? 
C5 C6 1.385(2) . ? 
C5 H5 0.9500 . ? 
C6 C7 1.398(2) . ? 
C6 H6 0.9500 . ? 
C7 C8 1.384(2) . ? 
C7 H7 0.9500 . ? 
C8 C9 1.4014(19) . ? 
C8 H8 0.9500 . ? 
C9 C10 1.4566(19) . ? 
C10 C1 1.4086(19) 2_656 ? 
C11 C12 1.209(2) . ? 
C13 C15 1.531(2) . ? 
C13 C14 1.532(2) . ? 
C13 H13 1.0000 . ? 
C14 H14A 0.9800 . ? 
C14 H14B 0.9800 . ? 
C14 H14C 0.9800 . ? 
C15 H15A 0.9800 . ? 
C15 H15B 0.9800 . ? 
C15 H15C 0.9800 . ? 
C16 C17 1.531(2) . ? 
C16 C18 1.537(2) . ? 
C16 H16 1.0000 . ? 
C17 H17A 0.9800 . ? 
C17 H17B 0.9800 . ? 
C17 H17C 0.9800 . ? 
C18 H18A 0.9800 . ? 
C18 H18B 0.9800 . ? 
C18 H18C 0.9800 . ? 
C19 C20 1.534(2) . ? 
C19 C21 1.535(2) . ? 
C19 H19 1.0000 . ? 
C20 H20A 0.9800 . ? 
C20 H20B 0.9800 . ? 
C20 H20C 0.9800 . ? 
C21 H21A 0.9800 . ? 
C21 H21B 0.9800 . ? 
C21 H21C 0.9800 . ? 
 
loop_ 
 _geom_angle_atom_site_label_1 
 _geom_angle_atom_site_label_2 
 _geom_angle_atom_site_label_3 
 _geom_angle 
 _geom_angle_site_symmetry_1 
 _geom_angle_site_symmetry_3 
 _geom_angle_publ_flag 
C12 Si1 C19 107.83(6) . . ? 
C12 Si1 C13 107.33(6) . . ? 
C19 Si1 C13 110.04(7) . . ? 
C12 Si1 C16 104.84(6) . . ? 
C19 Si1 C16 109.56(7) . . ? 
C13 Si1 C16 116.77(7) . . ? 
C2 C1 C10 117.62(12) . 2_656 ? 
C2 C1 C11 118.44(13) . . ? 
C10 C1 C11 123.93(13) 2_656 . ? 
C1 C2 C10 123.54(13) . . ? 
C1 C2 S3 123.29(11) . . ? 
C10 C2 S3 113.17(10) . . ? 
C2 S3 C4 90.97(7) . . ? 
C5 C4 C9 121.43(13) . . ? 
C5 C4 S3 125.51(11) . . ? 
C9 C4 S3 113.04(10) . . ? 
C6 C5 C4 118.70(14) . . ? 
C6 C5 H5 120.7 . . ? 
C4 C5 H5 120.7 . . ? 
C5 C6 C7 120.63(14) . . ? 
C5 C6 H6 119.7 . . ? 
C7 C6 H6 119.7 . . ? 
C8 C7 C6 120.65(14) . . ? 
C8 C7 H7 119.7 . . ? 
C6 C7 H7 119.7 . . ? 
C7 C8 C9 119.96(13) . . ? 
C7 C8 H8 120.0 . . ? 
C9 C8 H8 120.0 . . ? 
C8 C9 C4 118.62(13) . . ? 
C8 C9 C10 129.93(13) . . ? 
C4 C9 C10 111.44(12) . . ? 
C1 C10 C2 118.84(12) 2_656 . ? 
C1 C10 C9 129.79(12) 2_656 . ? 
C2 C10 C9 111.37(12) . . ? 
C12 C11 C1 176.16(15) . . ? 
C11 C12 Si1 176.29(13) . . ? 
C15 C13 C14 110.43(13) . . ? 
C15 C13 Si1 112.59(10) . . ? 
C14 C13 Si1 114.99(10) . . ? 
C15 C13 H13 106.0 . . ? 
C14 C13 H13 106.0 . . ? 
Si1 C13 H13 106.0 . . ? 
C13 C14 H14A 109.5 . . ? 
C13 C14 H14B 109.5 . . ? 
H14A C14 H14B 109.5 . . ? 
C13 C14 H14C 109.5 . . ? 
H14A C14 H14C 109.5 . . ? 
H14B C14 H14C 109.5 . . ? 
C13 C15 H15A 109.5 . . ? 
C13 C15 H15B 109.5 . . ? 
H15A C15 H15B 109.5 . . ? 
C13 C15 H15C 109.5 . . ? 
H15A C15 H15C 109.5 . . ? 
H15B C15 H15C 109.5 . . ? 
C17 C16 C18 110.12(12) . . ? 
C17 C16 Si1 114.06(10) . . ? 
C18 C16 Si1 114.12(10) . . ? 
C17 C16 H16 105.9 . . ? 
C18 C16 H16 105.9 . . ? 
Si1 C16 H16 105.9 . . ? 
C16 C17 H17A 109.5 . . ? 
C16 C17 H17B 109.5 . . ? 
H17A C17 H17B 109.5 . . ? 
C16 C17 H17C 109.5 . . ? 
H17A C17 H17C 109.5 . . ? 
H17B C17 H17C 109.5 . . ? 
C16 C18 H18A 109.5 . . ? 
C16 C18 H18B 109.5 . . ? 
H18A C18 H18B 109.5 . . ? 
C16 C18 H18C 109.5 . . ? 
H18A C18 H18C 109.5 . . ? 
H18B C18 H18C 109.5 . . ? 
C20 C19 C21 110.34(13) . . ? 
C20 C19 Si1 112.19(10) . . ? 
C21 C19 Si1 111.83(11) . . ? 
C20 C19 H19 107.4 . . ? 
C21 C19 H19 107.4 . . ? 
Si1 C19 H19 107.4 . . ? 
C19 C20 H20A 109.5 . . ? 
C19 C20 H20B 109.5 . . ? 
H20A C20 H20B 109.5 . . ? 
C19 C20 H20C 109.5 . . ? 
H20A C20 H20C 109.5 . . ? 
H20B C20 H20C 109.5 . . ? 
C19 C21 H21A 109.5 . . ? 
C19 C21 H21B 109.5 . . ? 
H21A C21 H21B 109.5 . . ? 
C19 C21 H21C 109.5 . . ? 
H21A C21 H21C 109.5 . . ? 
H21B C21 H21C 109.5 . . ? 
 
loop_ 
 _geom_torsion_atom_site_label_1 
 _geom_torsion_atom_site_label_2 
 _geom_torsion_atom_site_label_3 
 _geom_torsion_atom_site_label_4 
 _geom_torsion 
 _geom_torsion_site_symmetry_1 
 _geom_torsion_site_symmetry_2 
 _geom_torsion_site_symmetry_3 
 _geom_torsion_site_symmetry_4 
 _geom_torsion_publ_flag 
C10 C1 C2 C10 -0.6(2) 2_656 . . . ? 
C11 C1 C2 C10 179.06(12) . . . . ? 
C10 C1 C2 S3 179.42(10) 2_656 . . . ? 
C11 C1 C2 S3 -0.89(19) . . . . ? 
C1 C2 S3 C4 179.70(12) . . . . ? 
C10 C2 S3 C4 -0.25(11) . . . . ? 
C2 S3 C4 C5 -178.92(13) . . . . ? 
C2 S3 C4 C9 -0.07(11) . . . . ? 
C9 C4 C5 C6 -0.6(2) . . . . ? 
S3 C4 C5 C6 178.12(11) . . . . ? 
C4 C5 C6 C7 0.6(2) . . . . ? 
C5 C6 C7 C8 -0.4(2) . . . . ? 
C6 C7 C8 C9 0.1(2) . . . . ? 
C7 C8 C9 C4 -0.1(2) . . . . ? 
C7 C8 C9 C10 -178.73(14) . . . . ? 
C5 C4 C9 C8 0.3(2) . . . . ? 
S3 C4 C9 C8 -178.56(10) . . . . ? 
C5 C4 C9 C10 179.26(13) . . . . ? 
S3 C4 C9 C10 0.36(15) . . . . ? 
C1 C2 C10 C1 0.6(2) . . . 2_656 ? 
S3 C2 C10 C1 -179.40(10) . . . 2_656 ? 
C1 C2 C10 C9 -179.45(12) . . . . ? 
S3 C2 C10 C9 0.49(15) . . . . ? 
C8 C9 C10 C1 -1.9(2) . . . 2_656 ? 
C4 C9 C10 C1 179.34(13) . . . 2_656 ? 
C8 C9 C10 C2 178.22(14) . . . . ? 
C4 C9 C10 C2 -0.54(16) . . . . ? 
C12 Si1 C13 C15 173.38(10) . . . . ? 
C19 Si1 C13 C15 56.30(12) . . . . ? 
C16 Si1 C13 C15 -69.37(12) . . . . ? 
C12 Si1 C13 C14 -58.96(13) . . . . ? 
C19 Si1 C13 C14 -176.04(11) . . . . ? 
C16 Si1 C13 C14 58.30(13) . . . . ? 
C12 Si1 C16 C17 51.36(12) . . . . ? 
C19 Si1 C16 C17 166.84(11) . . . . ? 
C13 Si1 C16 C17 -67.25(12) . . . . ? 
C12 Si1 C16 C18 179.15(11) . . . . ? 
C19 Si1 C16 C18 -65.37(12) . . . . ? 
C13 Si1 C16 C18 60.53(13) . . . . ? 
C12 Si1 C19 C20 54.64(12) . . . . ? 
C13 Si1 C19 C20 171.41(10) . . . . ? 
C16 Si1 C19 C20 -58.92(12) . . . . ? 
C12 Si1 C19 C21 -69.96(12) . . . . ? 
C13 Si1 C19 C21 46.81(13) . . . . ? 
C16 Si1 C19 C21 176.48(11) . . . . ? 
 
_diffrn_measured_fraction_theta_max    0.997 
_diffrn_reflns_theta_full              27.49 
_diffrn_measured_fraction_theta_full   0.997 
_refine_diff_density_max    0.371 
_refine_diff_density_min   -0.245 
_refine_diff_density_rms    0.053 
