 
data_x05027 
 
_audit_creation_method            SHELXL-97 
_chemical_name_systematic 
; 
 ? 
; 
_chemical_name_common             ? 
_chemical_melting_point           ? 
_chemical_formula_moiety          ? 
_chemical_formula_sum 
 'C52 H70 Si8' 
_chemical_formula_weight          919.80 
 
loop_ 
 _atom_type_symbol 
 _atom_type_description 
 _atom_type_scat_dispersion_real 
 _atom_type_scat_dispersion_imag 
 _atom_type_scat_source 
 'C'  'C'   0.0181   0.0091 
 'International Tables Vol C Tables 4.2.6.8 and 6.1.1.4' 
 'H'  'H'   0.0000   0.0000 
 'International Tables Vol C Tables 4.2.6.8 and 6.1.1.4' 
 'Si'  'Si'   0.2541   0.3302 
 'International Tables Vol C Tables 4.2.6.8 and 6.1.1.4' 
 
_symmetry_cell_setting            ? 
_symmetry_space_group_name_H-M    ? 
 
loop_ 
 _symmetry_equiv_pos_as_xyz 
 'x, y, z' 
 '-x, -y, -z' 
 
_cell_length_a                    9.2300(18) 
_cell_length_b                    24.680(5) 
_cell_length_c                    25.400(5) 
_cell_angle_alpha                 94.32(3) 
_cell_angle_beta                  95.14(3) 
_cell_angle_gamma                 90.35(3) 
_cell_volume                      5746(2) 
_cell_formula_units_Z             4 
_cell_measurement_temperature     90(2) 
_cell_measurement_reflns_used     ? 
_cell_measurement_theta_min       ? 
_cell_measurement_theta_max       ? 
 
_exptl_crystal_description        ? 
_exptl_crystal_colour             ? 
_exptl_crystal_size_max           0.150 
_exptl_crystal_size_mid           0.020 
_exptl_crystal_size_min           0.005 
_exptl_crystal_density_meas       ? 
_exptl_crystal_density_diffrn     1.063 
_exptl_crystal_density_method     'not measured' 
_exptl_crystal_F_000              1976 
_exptl_absorpt_coefficient_mu     1.983 
_exptl_absorpt_correction_type    ? 
_exptl_absorpt_correction_T_min   0.7553 
_exptl_absorpt_correction_T_max   0.9902 
_exptl_absorpt_process_details    ? 
 
_exptl_special_details 
; 
 ? 
; 
 
_diffrn_ambient_temperature       90(2) 
_diffrn_radiation_wavelength      1.55418 
_diffrn_radiation_type            ? 
_diffrn_radiation_source          'fine-focus sealed tube' 
_diffrn_radiation_monochromator   graphite 
_diffrn_measurement_device_type   ? 
_diffrn_measurement_method        ? 
_diffrn_detector_area_resol_mean  ? 
_diffrn_standards_number          ? 
_diffrn_standards_interval_count  ? 
_diffrn_standards_interval_time   ? 
_diffrn_standards_decay_%         ? 
_diffrn_reflns_number             68178 
_diffrn_reflns_av_R_equivalents   0.1615 
_diffrn_reflns_av_sigmaI/netI     0.1357 
_diffrn_reflns_limit_h_min        -10 
_diffrn_reflns_limit_h_max        8 
_diffrn_reflns_limit_k_min        -27 
_diffrn_reflns_limit_k_max        27 
_diffrn_reflns_limit_l_min        -28 
_diffrn_reflns_limit_l_max        28 
_diffrn_reflns_theta_min          1.77 
_diffrn_reflns_theta_max          60.00 
_reflns_number_total              16562 
_reflns_number_gt                 8116 
_reflns_threshold_expression      >2sigma(I) 
 
_computing_data_collection        ? 
_computing_cell_refinement        ? 
_computing_data_reduction         ? 
_computing_structure_solution     'SHELXS-97 (Sheldrick, 1990)' 
_computing_structure_refinement   'SHELXL-97 (Sheldrick, 1997)' 
_computing_molecular_graphics     ? 
_computing_publication_material   ? 
 
_refine_special_details 
; 
 Refinement of F^2^ against ALL reflections.  The weighted R-factor wR and 
 goodness of fit S are based on F^2^, conventional R-factors R are based 
 on F, with F set to zero for negative F^2^. The threshold expression of 
 F^2^ > 2sigma(F^2^) is used only for calculating R-factors(gt) etc. and is 
 not relevant to the choice of reflections for refinement.  R-factors based 
 on F^2^ are statistically about twice as large as those based on F, and R- 
 factors based on ALL data will be even larger. 
; 
 
_refine_ls_structure_factor_coef  Fsqd  
_refine_ls_matrix_type            full 
_refine_ls_weighting_scheme       calc  
_refine_ls_weighting_details 
 'calc w=1/[\s^2^(Fo^2^)+(0.0925P)^2^+2.4777P] where P=(Fo^2^+2Fc^2^)/3' 
_atom_sites_solution_primary      direct 
_atom_sites_solution_secondary    difmap 
_atom_sites_solution_hydrogens    geom 
_refine_ls_hydrogen_treatment     mixed 
_refine_ls_extinction_method      none 
_refine_ls_extinction_coef        ? 
_refine_ls_number_reflns          16562 
_refine_ls_number_parameters      1117 
_refine_ls_number_restraints      0 
_refine_ls_R_factor_all           0.1726 
_refine_ls_R_factor_gt            0.0791 
_refine_ls_wR_factor_ref          0.2301 
_refine_ls_wR_factor_gt           0.1818 
_refine_ls_goodness_of_fit_ref    1.020 
_refine_ls_restrained_S_all       1.020 
_refine_ls_shift/su_max           1.278 
_refine_ls_shift/su_mean          0.022 
 
loop_ 
 _atom_site_label 
 _atom_site_type_symbol 
 _atom_site_fract_x 
 _atom_site_fract_y 
 _atom_site_fract_z 
 _atom_site_U_iso_or_equiv 
 _atom_site_adp_type 
 _atom_site_occupancy 
 _atom_site_symmetry_multiplicity 
 _atom_site_calc_flag 
 _atom_site_refinement_flags 
 _atom_site_disorder_assembly 
 _atom_site_disorder_group 
Si1A Si 0.26569(18) 0.32675(7) 0.46868(6) 0.0438(4) Uani 1 1 d . . . 
Si2A Si 0.16672(17) 0.17035(6) 0.01935(6) 0.0385(4) Uani 1 1 d . . . 
Si5A Si 0.4963(3) 0.33612(10) 0.51423(10) 0.0848(7) Uani 1 1 d . . . 
Si3A Si 0.1233(3) 0.25609(11) 0.49514(10) 0.0855(7) Uani 1 1 d . . . 
Si4A Si 0.1535(3) 0.41083(9) 0.46724(10) 0.0945(9) Uani 1 1 d . . . 
Si6A Si 0.2525(2) 0.08184(7) 0.02320(8) 0.0557(5) Uani 1 1 d . . . 
Si7A Si 0.33340(19) 0.23351(7) -0.00772(7) 0.0508(5) Uani 1 1 d . . . 
Si8A Si -0.06572(19) 0.17042(8) -0.02604(8) 0.0542(5) Uani 1 1 d . . . 
C1A C 0.2361(6) 0.2643(2) 0.2993(2) 0.0353(14) Uani 1 1 d . . . 
C2A C 0.1006(6) 0.2749(2) 0.2716(2) 0.0375(14) Uani 1 1 d . . . 
C3A C -0.0106(6) 0.3005(2) 0.2962(2) 0.0413(15) Uani 1 1 d . . . 
H3A H 0.0053 0.3117 0.3329 0.050 Uiso 1 1 calc R . . 
C4A C -0.1428(6) 0.3106(2) 0.2701(2) 0.0398(14) Uani 1 1 d . . . 
C5A C -0.2553(6) 0.3369(2) 0.2957(3) 0.0455(15) Uani 1 1 d . . . 
H5A H -0.2404 0.3470 0.3326 0.055 Uiso 1 1 calc R . . 
C6A C -0.3866(7) 0.3483(2) 0.2686(3) 0.0450(16) Uani 1 1 d . . . 
C7A C -0.5015(7) 0.3747(3) 0.2941(3) 0.0559(18) Uani 1 1 d . . . 
H7A H -0.4871 0.3853 0.3310 0.067 Uiso 1 1 calc R . . 
C8A C -0.6289(8) 0.3847(3) 0.2676(3) 0.063(2) Uani 1 1 d . . . 
H8A H -0.7041 0.4016 0.2858 0.076 Uiso 1 1 calc R . . 
C9A C -0.6529(7) 0.3702(3) 0.2121(3) 0.064(2) Uani 1 1 d . . . 
H9A H -0.7425 0.3785 0.1932 0.076 Uiso 1 1 calc R . . 
C10A C -0.5487(7) 0.3447(2) 0.1865(3) 0.0539(17) Uani 1 1 d . . . 
H10A H -0.5672 0.3344 0.1497 0.065 Uiso 1 1 calc R . . 
C11A C -0.4110(6) 0.3324(2) 0.2127(2) 0.0425(15) Uani 1 1 d . . . 
C12A C -0.3025(6) 0.3062(2) 0.1873(3) 0.0431(15) Uani 1 1 d . . . 
H12A H -0.3191 0.2955 0.1505 0.052 Uiso 1 1 calc R . . 
C13A C -0.1691(6) 0.2949(2) 0.2141(2) 0.0387(14) Uani 1 1 d . . . 
C14A C -0.0578(6) 0.2686(2) 0.1887(2) 0.0387(14) Uani 1 1 d . . . 
H14A H -0.0737 0.2583 0.1518 0.046 Uiso 1 1 calc R . . 
C15A C 0.0757(6) 0.2570(2) 0.2155(2) 0.0365(14) Uani 1 1 d . . . 
C16A C 0.1861(6) 0.2297(2) 0.1894(2) 0.0370(14) Uani 1 1 d . . . 
C17A C 0.3199(6) 0.2191(2) 0.2175(2) 0.0351(14) Uani 1 1 d . . . 
C18A C 0.4309(6) 0.1923(2) 0.1925(2) 0.0406(15) Uani 1 1 d . . . 
H18A H 0.4145 0.1811 0.1559 0.049 Uiso 1 1 calc R . . 
C19A C 0.5653(6) 0.1814(2) 0.2194(2) 0.0383(14) Uani 1 1 d . . . 
C20A C 0.6769(6) 0.1552(2) 0.1940(2) 0.0446(15) Uani 1 1 d . . . 
H20A H 0.6603 0.1441 0.1573 0.054 Uiso 1 1 calc R . . 
C21A C 0.8082(7) 0.1451(2) 0.2198(3) 0.0463(16) Uani 1 1 d . . . 
C22A C 0.9236(7) 0.1194(3) 0.1942(3) 0.0593(18) Uani 1 1 d . . . 
H22A H 0.9103 0.1089 0.1573 0.071 Uiso 1 1 calc R . . 
C23A C 1.0516(8) 0.1100(3) 0.2218(3) 0.067(2) Uani 1 1 d . . . 
H23A H 1.1269 0.0926 0.2040 0.080 Uiso 1 1 calc R . . 
C24A C 1.0758(8) 0.1255(3) 0.2763(3) 0.066(2) Uani 1 1 d . . . 
H24A H 1.1670 0.1184 0.2948 0.079 Uiso 1 1 calc R . . 
C25A C 0.9714(7) 0.1503(3) 0.3027(3) 0.0549(17) Uani 1 1 d . . . 
H25A H 0.9899 0.1604 0.3395 0.066 Uiso 1 1 calc R . . 
C26A C 0.8342(6) 0.1614(2) 0.2762(3) 0.0459(16) Uani 1 1 d . . . 
C27A C 0.7259(7) 0.1869(2) 0.3016(3) 0.0463(16) Uani 1 1 d . . . 
H27A H 0.7432 0.1974 0.3384 0.056 Uiso 1 1 calc R . . 
C28A C 0.5909(6) 0.1982(2) 0.2755(2) 0.0396(14) Uani 1 1 d . . . 
C29A C 0.4799(6) 0.2251(2) 0.3005(2) 0.0389(14) Uani 1 1 d . . . 
H29A H 0.4958 0.2359 0.3373 0.047 Uiso 1 1 calc R . . 
C30A C 0.3469(6) 0.2367(2) 0.2736(2) 0.0356(14) Uani 1 1 d . . . 
C31A C 0.2624(6) 0.2845(2) 0.3538(2) 0.0407(14) Uani 1 1 d . . . 
C32A C 0.2776(6) 0.3030(2) 0.3992(3) 0.0446(15) Uani 1 1 d . . . 
C33A C 0.6159(11) 0.3756(5) 0.4770(6) 0.200(7) Uani 1 1 d . . . 
H33A H 0.7090 0.3828 0.4982 0.300 Uiso 1 1 calc R . . 
H33B H 0.5698 0.4101 0.4693 0.300 Uiso 1 1 calc R . . 
H33C H 0.6328 0.3549 0.4437 0.300 Uiso 1 1 calc R . . 
C34A C 0.5813(10) 0.2705(4) 0.5271(4) 0.113(3) Uani 1 1 d . . . 
H34A H 0.5983 0.2507 0.4934 0.170 Uiso 1 1 calc R . . 
H34B H 0.5165 0.2490 0.5462 0.170 Uiso 1 1 calc R . . 
H34C H 0.6741 0.2770 0.5487 0.170 Uiso 1 1 calc R . . 
C35A C 0.4729(15) 0.3732(7) 0.5799(5) 0.272(12) Uani 1 1 d . . . 
H35A H 0.5687 0.3825 0.5984 0.407 Uiso 1 1 calc R . . 
H35B H 0.4194 0.3500 0.6014 0.407 Uiso 1 1 calc R . . 
H35C H 0.4184 0.4066 0.5744 0.407 Uiso 1 1 calc R . . 
C36A C 0.2273(12) 0.1916(4) 0.4813(7) 0.189(7) Uani 1 1 d . . . 
H36A H 0.2876 0.1833 0.5134 0.283 Uiso 1 1 calc R . . 
H36B H 0.2897 0.1964 0.4527 0.283 Uiso 1 1 calc R . . 
H36C H 0.1586 0.1615 0.4706 0.283 Uiso 1 1 calc R . . 
C37A C 0.0890(15) 0.2614(7) 0.5646(4) 0.230(9) Uani 1 1 d . . . 
H37A H 0.0361 0.2949 0.5725 0.344 Uiso 1 1 calc R . . 
H37B H 0.1818 0.2622 0.5867 0.344 Uiso 1 1 calc R . . 
H37C H 0.0307 0.2301 0.5721 0.344 Uiso 1 1 calc R . . 
C38A C -0.0489(8) 0.2499(4) 0.4538(3) 0.094(3) Uani 1 1 d . . . 
H38A H -0.1061 0.2196 0.4643 0.142 Uiso 1 1 calc R . . 
H38B H -0.0298 0.2432 0.4165 0.142 Uiso 1 1 calc R . . 
H38C H -0.1034 0.2837 0.4582 0.142 Uiso 1 1 calc R . . 
C39A C 0.084(2) 0.4249(7) 0.5336(4) 0.314(15) Uani 1 1 d . . . 
H39A H 0.1656 0.4350 0.5600 0.471 Uiso 1 1 calc R . . 
H39B H 0.0355 0.3922 0.5435 0.471 Uiso 1 1 calc R . . 
H39C H 0.0147 0.4547 0.5321 0.471 Uiso 1 1 calc R . . 
C40A C -0.0057(10) 0.4081(4) 0.4188(4) 0.108(3) Uani 1 1 d . . . 
H40A H -0.0496 0.4441 0.4182 0.162 Uiso 1 1 calc R . . 
H40B H -0.0768 0.3819 0.4286 0.162 Uiso 1 1 calc R . . 
H40C H 0.0240 0.3968 0.3836 0.162 Uiso 1 1 calc R . . 
C41A C 0.2789(15) 0.4650(5) 0.4523(9) 0.292(13) Uani 1 1 d . . . 
H41A H 0.3189 0.4549 0.4185 0.439 Uiso 1 1 calc R . . 
H41B H 0.3584 0.4696 0.4806 0.439 Uiso 1 1 calc R . . 
H41C H 0.2260 0.4991 0.4498 0.439 Uiso 1 1 calc R . . 
C42A C 0.1634(6) 0.2117(2) 0.1344(3) 0.0410(14) Uani 1 1 d . . . 
C43A C 0.1538(6) 0.1949(2) 0.0888(2) 0.0406(14) Uani 1 1 d . . . 
C44A C 0.1337(9) 0.0433(3) 0.0640(3) 0.083(2) Uani 1 1 d . . . 
H44A H 0.1757 0.0076 0.0695 0.125 Uiso 1 1 calc R . . 
H44B H 0.0362 0.0386 0.0454 0.125 Uiso 1 1 calc R . . 
H44C H 0.1272 0.0636 0.0984 0.125 Uiso 1 1 calc R . . 
C45A C 0.4419(8) 0.0830(3) 0.0569(4) 0.105(3) Uani 1 1 d . . . 
H45A H 0.4423 0.1016 0.0924 0.158 Uiso 1 1 calc R . . 
H45B H 0.5070 0.1023 0.0360 0.158 Uiso 1 1 calc R . . 
H45C H 0.4754 0.0456 0.0599 0.158 Uiso 1 1 calc R . . 
C46A C 0.2459(11) 0.0470(3) -0.0452(3) 0.101(3) Uani 1 1 d . . . 
H46A H 0.2876 0.0107 -0.0433 0.151 Uiso 1 1 calc R . . 
H46B H 0.3019 0.0684 -0.0675 0.151 Uiso 1 1 calc R . . 
H46C H 0.1446 0.0438 -0.0605 0.151 Uiso 1 1 calc R . . 
C47A C 0.4901(8) 0.2433(3) 0.0440(3) 0.078(2) Uani 1 1 d . . . 
H47A H 0.5541 0.2723 0.0349 0.117 Uiso 1 1 calc R . . 
H47B H 0.5446 0.2095 0.0458 0.117 Uiso 1 1 calc R . . 
H47C H 0.4538 0.2533 0.0785 0.117 Uiso 1 1 calc R . . 
C48A C 0.3999(9) 0.2102(4) -0.0729(3) 0.092(3) Uani 1 1 d . . . 
H48A H 0.3168 0.2041 -0.0995 0.138 Uiso 1 1 calc R . . 
H48B H 0.4532 0.1762 -0.0694 0.138 Uiso 1 1 calc R . . 
H48C H 0.4646 0.2380 -0.0839 0.138 Uiso 1 1 calc R . . 
C49A C 0.2447(9) 0.2996(3) -0.0121(4) 0.110(3) Uani 1 1 d . . . 
H49A H 0.2038 0.3102 0.0214 0.165 Uiso 1 1 calc R . . 
H49B H 0.1665 0.2969 -0.0410 0.165 Uiso 1 1 calc R . . 
H49C H 0.3163 0.3270 -0.0191 0.165 Uiso 1 1 calc R . . 
C50A C -0.0556(11) 0.1479(6) -0.0975(3) 0.147(5) Uani 1 1 d . . . 
H50A H -0.1537 0.1468 -0.1159 0.221 Uiso 1 1 calc R . . 
H50B H -0.0133 0.1116 -0.1004 0.221 Uiso 1 1 calc R . . 
H50C H 0.0054 0.1735 -0.1136 0.221 Uiso 1 1 calc R . . 
C51A C -0.1410(9) 0.2383(3) -0.0222(5) 0.123(4) Uani 1 1 d . . . 
H51A H -0.2420 0.2369 -0.0379 0.185 Uiso 1 1 calc R . . 
H51B H -0.0836 0.2623 -0.0416 0.185 Uiso 1 1 calc R . . 
H51C H -0.1381 0.2524 0.0150 0.185 Uiso 1 1 calc R . . 
C52A C -0.1900(8) 0.1224(4) 0.0014(4) 0.111(3) Uani 1 1 d . . . 
H52A H -0.1983 0.1333 0.0389 0.166 Uiso 1 1 calc R . . 
H52B H -0.1509 0.0856 -0.0020 0.166 Uiso 1 1 calc R . . 
H52C H -0.2862 0.1230 -0.0182 0.166 Uiso 1 1 calc R . . 
Si1B Si -1.02176(18) 0.58107(7) 0.22239(6) 0.0438(4) Uani 1 1 d . . . 
Si2B Si -0.7956(3) 0.59781(10) 0.26871(12) 0.0964(9) Uani 1 1 d . . . 
Si3B Si -1.1540(2) 0.51077(9) 0.25444(9) 0.0746(6) Uani 1 1 d . . . 
Si4B Si -1.1502(3) 0.66112(9) 0.21391(10) 0.0915(8) Uani 1 1 d . . . 
C1B C -0.9996(6) 0.5151(2) 0.0555(2) 0.0425(15) Uani 1 1 d . . . 
C2B C -1.1231(7) 0.5249(2) 0.0211(2) 0.0437(15) Uani 1 1 d . . . 
C3B C -1.2488(6) 0.5466(2) 0.0403(2) 0.0436(15) Uani 1 1 d . . . 
H3B H -1.2507 0.5542 0.0774 0.052 Uiso 1 1 calc R . . 
C4B C -1.3714(7) 0.5575(2) 0.0072(3) 0.0436(15) Uani 1 1 d . . . 
C5B C -1.4981(7) 0.5790(2) 0.0265(3) 0.0472(16) Uani 1 1 d . . . 
H5B H -1.5010 0.5856 0.0637 0.057 Uiso 1 1 calc R . . 
C6B C -1.6192(7) 0.5909(2) -0.0064(3) 0.0482(16) Uani 1 1 d . . . 
C7B C -1.7492(8) 0.6115(2) 0.0132(3) 0.0600(19) Uani 1 1 d . . . 
H7B H -1.7545 0.6181 0.0503 0.072 Uiso 1 1 calc R . . 
C8B C -1.8644(8) 0.6216(3) -0.0206(4) 0.071(2) Uani 1 1 d . . . 
H8B H -1.9514 0.6342 -0.0068 0.085 Uiso 1 1 calc R . . 
C9B C -1.8596(8) 0.6138(3) -0.0761(4) 0.072(2) Uani 1 1 d . . . 
H9B H -1.9421 0.6219 -0.0992 0.087 Uiso 1 1 calc R . . 
C10B C -1.7366(8) 0.5949(3) -0.0964(3) 0.065(2) Uani 1 1 d . . . 
H10B H -1.7334 0.5902 -0.1337 0.078 Uiso 1 1 calc R . . 
C11B C -1.6131(7) 0.5820(2) -0.0625(3) 0.0523(18) Uani 1 1 d . . . 
C12B C -1.4903(7) 0.5605(3) -0.0831(3) 0.0533(17) Uani 1 1 d . . . 
H12B H -1.4888 0.5544 -0.1204 0.064 Uiso 1 1 calc R . . 
C13B C -1.3683(7) 0.5475(2) -0.0500(3) 0.0459(16) Uani 1 1 d . . . 
C14B C -1.2451(7) 0.5236(2) -0.0689(2) 0.0466(16) Uani 1 1 d . . . 
H14B H -1.2439 0.5154 -0.1061 0.056 Uiso 1 1 calc R . . 
C15B C -1.1233(7) 0.5113(2) -0.0356(2) 0.0433(15) Uani 1 1 d . . . 
C16B C -0.9963(6) 0.5337(2) 0.1098(3) 0.0456(15) Uani 1 1 d . . . 
C17B C -0.9975(6) 0.5530(2) 0.1549(3) 0.0465(15) Uani 1 1 d . . . 
C18B C -0.6760(11) 0.6299(5) 0.2240(7) 0.226(9) Uani 1 1 d . . . 
H18B H -0.7247 0.6616 0.2097 0.339 Uiso 1 1 calc R . . 
H18C H -0.6566 0.6036 0.1947 0.339 Uiso 1 1 calc R . . 
H18D H -0.5840 0.6415 0.2440 0.339 Uiso 1 1 calc R . . 
C19B C -0.7079(10) 0.5357(4) 0.2905(4) 0.123(4) Uani 1 1 d . . . 
H19A H -0.6071 0.5441 0.3044 0.184 Uiso 1 1 calc R . . 
H19B H -0.7089 0.5084 0.2604 0.184 Uiso 1 1 calc R . . 
H19C H -0.7609 0.5215 0.3184 0.184 Uiso 1 1 calc R . . 
C20B C -0.8199(16) 0.6473(6) 0.3258(6) 0.284(13) Uani 1 1 d . . . 
H20B H -0.8492 0.6279 0.3555 0.427 Uiso 1 1 calc R . . 
H20C H -0.8952 0.6732 0.3155 0.427 Uiso 1 1 calc R . . 
H20D H -0.7280 0.6668 0.3365 0.427 Uiso 1 1 calc R . . 
C21B C -1.0494(10) 0.4471(3) 0.2409(4) 0.112(3) Uani 1 1 d . . . 
H21A H -0.9756 0.4429 0.2705 0.168 Uiso 1 1 calc R . . 
H21B H -1.0019 0.4494 0.2082 0.168 Uiso 1 1 calc R . . 
H21C H -1.1161 0.4157 0.2370 0.168 Uiso 1 1 calc R . . 
C22B C -1.1760(14) 0.5221(5) 0.3255(4) 0.162(5) Uani 1 1 d . . . 
H22B H -1.2210 0.4899 0.3379 0.243 Uiso 1 1 calc R . . 
H22C H -1.2383 0.5536 0.3316 0.243 Uiso 1 1 calc R . . 
H22D H -1.0805 0.5290 0.3452 0.243 Uiso 1 1 calc R . . 
C23B C -1.3391(8) 0.5053(4) 0.2174(4) 0.098(3) Uani 1 1 d . . . 
H23B H -1.3900 0.4731 0.2272 0.146 Uiso 1 1 calc R . . 
H23C H -1.3293 0.5022 0.1792 0.146 Uiso 1 1 calc R . . 
H23D H -1.3948 0.5379 0.2265 0.146 Uiso 1 1 calc R . . 
C24B C -1.2254(15) 0.6799(6) 0.2795(4) 0.216(9) Uani 1 1 d . . . 
H24B H -1.3050 0.7056 0.2744 0.324 Uiso 1 1 calc R . . 
H24C H -1.1483 0.6967 0.3046 0.324 Uiso 1 1 calc R . . 
H24D H -1.2620 0.6471 0.2937 0.324 Uiso 1 1 calc R . . 
C25B C -1.3058(10) 0.6515(4) 0.1635(4) 0.108(3) Uani 1 1 d . . . 
H25B H -1.3627 0.6848 0.1630 0.162 Uiso 1 1 calc R . . 
H25C H -1.3673 0.6214 0.1721 0.162 Uiso 1 1 calc R . . 
H25D H -1.2704 0.6430 0.1286 0.162 Uiso 1 1 calc R . . 
C26B C -1.0310(15) 0.7144(4) 0.1919(7) 0.216(9) Uani 1 1 d . . . 
H26A H -0.9728 0.6984 0.1644 0.324 Uiso 1 1 calc R . . 
H26B H -0.9662 0.7296 0.2221 0.324 Uiso 1 1 calc R . . 
H26C H -1.0912 0.7434 0.1774 0.324 Uiso 1 1 calc R . . 
Si1C Si 0.52240(18) 0.91727(7) 0.27816(6) 0.0464(4) Uani 1 1 d . . . 
Si2C Si 0.4002(3) 0.97158(9) 0.21764(9) 0.0790(7) Uani 1 1 d . . . 
Si3C Si 0.4149(3) 0.83090(9) 0.27820(9) 0.0762(7) Uani 1 1 d . . . 
C1C C 0.5009(6) 0.9841(2) 0.4451(2) 0.0348(13) Uani 1 1 d . . . 
C2C C 0.6243(6) 0.9751(2) 0.4800(2) 0.0368(14) Uani 1 1 d . . . 
C3C C 0.7488(6) 0.9520(2) 0.4617(2) 0.0413(15) Uani 1 1 d . . . 
H3C H 0.7501 0.9423 0.4249 0.050 Uiso 1 1 calc R . . 
C4C C 0.8723(6) 0.9425(2) 0.4954(2) 0.0417(15) Uani 1 1 d . . . 
C5C C 0.9991(6) 0.9195(2) 0.4769(3) 0.0448(15) Uani 1 1 d . . . 
H5C H 1.0015 0.9106 0.4399 0.054 Uiso 1 1 calc R . . 
C6C C 1.1192(7) 0.9096(2) 0.5103(3) 0.0447(16) Uani 1 1 d . . . 
C7C C 1.2489(7) 0.8874(2) 0.4922(3) 0.0566(18) Uani 1 1 d . . . 
H7C H 1.2538 0.8789 0.4553 0.068 Uiso 1 1 calc R . . 
C8C C 1.3652(7) 0.8782(3) 0.5262(3) 0.062(2) Uani 1 1 d . . . 
H8C H 1.4506 0.8633 0.5129 0.075 Uiso 1 1 calc R . . 
C9C C 1.3621(7) 0.8904(3) 0.5812(3) 0.063(2) Uani 1 1 d . . . 
H9C H 1.4450 0.8835 0.6046 0.075 Uiso 1 1 calc R . . 
C10C C 1.2424(7) 0.9117(3) 0.6008(3) 0.0567(18) Uani 1 1 d . . . 
H10C H 1.2423 0.9201 0.6379 0.068 Uiso 1 1 calc R . . 
C11C C 1.1163(6) 0.9219(2) 0.5669(3) 0.0441(15) Uani 1 1 d . . . 
C12C C 0.9923(6) 0.9440(2) 0.5857(2) 0.0447(15) Uani 1 1 d . . . 
H12C H 0.9895 0.9516 0.6228 0.054 Uiso 1 1 calc R . . 
C13C C 0.8705(6) 0.9556(2) 0.5517(2) 0.0409(15) Uani 1 1 d . . . 
C14C C 0.7459(6) 0.9795(2) 0.5703(2) 0.0440(15) Uani 1 1 d . . . 
H14C H 0.7445 0.9888 0.6072 0.053 Uiso 1 1 calc R . . 
C15C C 0.6232(6) 0.9901(2) 0.5362(2) 0.0355(14) Uani 1 1 d . . . 
C16C C 0.5013(6) 0.9661(2) 0.3906(2) 0.0432(15) Uani 1 1 d . . . 
C17C C 0.5045(6) 0.9484(3) 0.3450(2) 0.0455(15) Uani 1 1 d . . . 
C18C C 0.4472(13) 1.0439(4) 0.2383(6) 0.169(6) Uani 1 1 d . . . 
H18E H 0.3885 1.0675 0.2156 0.254 Uiso 1 1 calc R . . 
H18F H 0.5506 1.0504 0.2348 0.254 Uiso 1 1 calc R . . 
H18G H 0.4272 1.0520 0.2753 0.254 Uiso 1 1 calc R . . 
C19C C 0.1990(9) 0.9635(4) 0.2179(4) 0.109(3) Uani 1 1 d . . . 
H19D H 0.1700 0.9757 0.2530 0.164 Uiso 1 1 calc R . . 
H19E H 0.1716 0.9251 0.2097 0.164 Uiso 1 1 calc R . . 
H19F H 0.1500 0.9853 0.1912 0.164 Uiso 1 1 calc R . . 
C20C C 0.4457(12) 0.9482(5) 0.1490(3) 0.153(5) Uani 1 1 d . . . 
H20E H 0.4347 0.9785 0.1262 0.229 Uiso 1 1 calc R . . 
H20F H 0.3799 0.9184 0.1346 0.229 Uiso 1 1 calc R . . 
H20G H 0.5464 0.9356 0.1505 0.229 Uiso 1 1 calc R . . 
C22C C 0.4290(12) 0.7904(4) 0.2148(4) 0.127(4) Uani 1 1 d . . . 
H22E H 0.3901 0.7537 0.2171 0.190 Uiso 1 1 calc R . . 
H22F H 0.5312 0.7883 0.2074 0.190 Uiso 1 1 calc R . . 
H22G H 0.3730 0.8078 0.1862 0.190 Uiso 1 1 calc R . . 
C21C C 0.2272(12) 0.8356(5) 0.2950(7) 0.199(8) Uani 1 1 d . . . 
H21D H 0.1648 0.8460 0.2642 0.299 Uiso 1 1 calc R . . 
H21E H 0.2211 0.8630 0.3247 0.299 Uiso 1 1 calc R . . 
H21F H 0.1949 0.8002 0.3052 0.299 Uiso 1 1 calc R . . 
C23C C 0.515(2) 0.7956(5) 0.3335(5) 0.236(9) Uani 1 1 d . . . 
H23E H 0.6084 0.8142 0.3441 0.354 Uiso 1 1 calc R . . 
H23F H 0.5324 0.7578 0.3213 0.354 Uiso 1 1 calc R . . 
H23G H 0.4565 0.7965 0.3639 0.354 Uiso 1 1 calc R . . 
Si4C Si 0.7687(2) 0.91418(15) 0.26890(12) 0.1276(14) Uani 1 1 d . . . 
C24C C 0.8081(9) 0.8733(4) 0.2095(3) 0.099(3) Uani 1 1 d . . . 
H24E H 0.7830 0.8936 0.1783 0.148 Uiso 1 1 calc R . . 
H24F H 0.7507 0.8395 0.2065 0.148 Uiso 1 1 calc R . . 
H24G H 0.9120 0.8647 0.2116 0.148 Uiso 1 1 calc R . . 
C25C C 0.8616(15) 0.8843(13) 0.3230(5) 0.47(3) Uani 1 1 d . . . 
H25E H 0.9273 0.9113 0.3431 0.709 Uiso 1 1 calc R . . 
H25F H 0.9181 0.8535 0.3098 0.709 Uiso 1 1 calc R . . 
H25G H 0.7910 0.8716 0.3460 0.709 Uiso 1 1 calc R . . 
C26C C 0.8342(14) 0.9841(7) 0.2678(12) 0.49(3) Uani 1 1 d . . . 
H26D H 0.8344 0.9934 0.2309 0.733 Uiso 1 1 calc R . . 
H26E H 0.9332 0.9875 0.2852 0.733 Uiso 1 1 calc R . . 
H26F H 0.7700 1.0088 0.2865 0.733 Uiso 1 1 calc R . . 
 
loop_ 
 _atom_site_aniso_label 
 _atom_site_aniso_U_11 
 _atom_site_aniso_U_22 
 _atom_site_aniso_U_33 
 _atom_site_aniso_U_23 
 _atom_site_aniso_U_13 
 _atom_site_aniso_U_12 
Si1A 0.0485(11) 0.0442(10) 0.0383(9) 0.0014(8) 0.0033(8) 0.0051(8) 
Si2A 0.0406(10) 0.0401(9) 0.0354(9) 0.0010(7) 0.0086(7) 0.0004(7) 
Si5A 0.0677(15) 0.0901(17) 0.0872(17) -0.0183(13) -0.0245(12) 0.0106(12) 
Si3A 0.0774(16) 0.0981(18) 0.0880(17) 0.0448(14) 0.0151(13) -0.0091(13) 
Si4A 0.131(2) 0.0549(14) 0.0866(17) -0.0192(12) -0.0351(15) 0.0385(14) 
Si6A 0.0626(13) 0.0433(11) 0.0632(12) 0.0036(9) 0.0160(10) 0.0097(9) 
Si7A 0.0472(11) 0.0513(11) 0.0556(11) 0.0091(9) 0.0106(9) -0.0064(8) 
Si8A 0.0440(11) 0.0587(12) 0.0587(12) 0.0008(9) 0.0013(9) -0.0024(9) 
C1A 0.032(3) 0.037(3) 0.038(3) 0.000(3) 0.010(3) -0.004(3) 
C2A 0.032(4) 0.039(3) 0.042(4) 0.003(3) 0.006(3) -0.003(3) 
C3A 0.040(4) 0.046(4) 0.040(3) 0.002(3) 0.011(3) -0.001(3) 
C4A 0.041(4) 0.036(3) 0.045(4) 0.005(3) 0.009(3) 0.001(3) 
C5A 0.040(4) 0.045(4) 0.053(4) 0.006(3) 0.010(3) -0.003(3) 
C6A 0.045(4) 0.031(3) 0.062(4) 0.011(3) 0.017(3) -0.002(3) 
C7A 0.047(4) 0.053(4) 0.073(5) 0.019(4) 0.020(4) 0.011(3) 
C8A 0.055(5) 0.047(4) 0.091(6) 0.014(4) 0.024(4) 0.013(3) 
C9A 0.038(4) 0.051(4) 0.107(7) 0.029(4) 0.012(4) 0.013(3) 
C10A 0.052(4) 0.042(4) 0.069(5) 0.013(3) 0.000(4) 0.005(3) 
C11A 0.038(4) 0.034(3) 0.058(4) 0.022(3) 0.004(3) -0.002(3) 
C12A 0.043(4) 0.035(3) 0.052(4) 0.003(3) 0.007(3) 0.002(3) 
C13A 0.033(4) 0.028(3) 0.055(4) 0.004(3) 0.007(3) 0.003(3) 
C14A 0.045(4) 0.040(3) 0.031(3) -0.002(3) 0.008(3) -0.005(3) 
C15A 0.036(4) 0.035(3) 0.038(3) 0.000(3) 0.002(3) -0.002(3) 
C16A 0.035(4) 0.036(3) 0.040(4) -0.002(3) 0.003(3) -0.004(3) 
C17A 0.033(3) 0.032(3) 0.043(4) 0.006(3) 0.012(3) -0.005(3) 
C18A 0.046(4) 0.038(3) 0.040(3) 0.002(3) 0.015(3) -0.001(3) 
C19A 0.032(4) 0.038(3) 0.046(4) 0.010(3) 0.005(3) 0.001(3) 
C20A 0.045(4) 0.039(4) 0.052(4) 0.006(3) 0.011(3) -0.002(3) 
C21A 0.042(4) 0.031(3) 0.067(5) 0.009(3) 0.010(3) 0.001(3) 
C22A 0.055(5) 0.054(4) 0.072(5) 0.008(4) 0.017(4) 0.011(4) 
C23A 0.057(5) 0.058(5) 0.092(6) 0.023(4) 0.021(4) 0.020(4) 
C24A 0.044(4) 0.060(5) 0.096(6) 0.023(4) 0.008(4) 0.011(4) 
C25A 0.046(4) 0.051(4) 0.070(5) 0.020(3) 0.007(4) 0.004(3) 
C26A 0.026(4) 0.040(4) 0.074(5) 0.018(3) 0.006(3) 0.002(3) 
C27A 0.044(4) 0.041(4) 0.054(4) 0.010(3) 0.000(3) 0.002(3) 
C28A 0.038(4) 0.037(3) 0.045(4) 0.009(3) 0.004(3) -0.002(3) 
C29A 0.037(4) 0.036(3) 0.044(4) 0.002(3) 0.005(3) 0.002(3) 
C30A 0.029(3) 0.038(3) 0.041(3) 0.002(3) 0.009(3) -0.007(3) 
C31A 0.033(4) 0.046(4) 0.043(4) 0.001(3) 0.005(3) 0.000(3) 
C32A 0.040(4) 0.047(4) 0.047(4) 0.000(3) 0.008(3) 0.006(3) 
C33A 0.077(8) 0.170(13) 0.36(2) 0.077(14) 0.009(11) -0.044(8) 
C34A 0.081(6) 0.128(8) 0.129(8) 0.026(7) -0.013(6) 0.036(6) 
C35A 0.199(15) 0.41(3) 0.156(12) -0.177(15) -0.114(11) 0.163(17) 
C36A 0.118(9) 0.059(7) 0.40(2) 0.077(10) 0.036(12) 0.009(6) 
C37A 0.211(15) 0.40(3) 0.083(8) 0.094(12) 0.011(9) -0.123(16) 
C38A 0.070(6) 0.106(7) 0.106(7) 0.012(5) 0.002(5) -0.034(5) 
C39A 0.47(3) 0.38(2) 0.072(8) -0.068(11) -0.057(12) 0.37(2) 
C40A 0.128(8) 0.089(7) 0.101(7) -0.003(5) -0.024(6) 0.050(6) 
C41A 0.161(13) 0.068(8) 0.63(4) 0.096(14) -0.121(18) -0.028(8) 
C42A 0.033(3) 0.040(4) 0.051(4) 0.003(3) 0.007(3) 0.002(3) 
C43A 0.036(4) 0.047(4) 0.040(4) 0.004(3) 0.006(3) -0.004(3) 
C44A 0.102(6) 0.059(5) 0.095(6) 0.032(4) 0.019(5) 0.008(4) 
C45A 0.066(6) 0.074(6) 0.177(10) 0.022(6) 0.005(6) 0.018(5) 
C46A 0.155(9) 0.061(5) 0.092(6) -0.005(5) 0.049(6) 0.025(5) 
C47A 0.071(5) 0.097(6) 0.065(5) 0.004(4) 0.008(4) -0.027(4) 
C48A 0.082(6) 0.134(8) 0.063(5) 0.003(5) 0.028(4) -0.031(5) 
C49A 0.089(6) 0.053(5) 0.194(11) 0.036(6) 0.030(7) -0.014(4) 
C50A 0.110(8) 0.254(15) 0.068(6) -0.030(8) -0.014(6) 0.006(9) 
C51A 0.062(6) 0.069(6) 0.233(13) 0.018(7) -0.026(7) 0.012(5) 
C52A 0.052(5) 0.105(7) 0.179(10) 0.040(7) 0.006(6) -0.014(5) 
Si1B 0.0488(11) 0.0414(10) 0.0411(10) 0.0005(8) 0.0051(8) 0.0052(8) 
Si2B 0.0681(16) 0.0831(17) 0.125(2) -0.0281(15) -0.0314(15) 0.0063(13) 
Si3B 0.0839(16) 0.0788(15) 0.0670(14) 0.0268(12) 0.0219(12) -0.0051(12) 
Si4B 0.125(2) 0.0582(14) 0.0843(17) -0.0100(12) -0.0173(15) 0.0385(14) 
C1B 0.041(4) 0.050(4) 0.038(4) 0.003(3) 0.015(3) -0.004(3) 
C2B 0.047(4) 0.037(4) 0.047(4) 0.004(3) 0.006(3) -0.004(3) 
C3B 0.041(4) 0.044(4) 0.047(4) 0.000(3) 0.015(3) -0.003(3) 
C4B 0.044(4) 0.032(3) 0.057(4) 0.004(3) 0.013(3) -0.004(3) 
C5B 0.046(4) 0.038(4) 0.059(4) 0.004(3) 0.015(3) 0.001(3) 
C6B 0.050(4) 0.027(3) 0.069(5) 0.006(3) 0.012(4) -0.004(3) 
C7B 0.057(5) 0.036(4) 0.091(6) 0.008(4) 0.025(4) 0.008(3) 
C8B 0.060(5) 0.039(4) 0.117(7) 0.010(4) 0.021(5) 0.005(4) 
C9B 0.059(5) 0.054(5) 0.108(7) 0.032(5) 0.006(5) 0.013(4) 
C10B 0.055(5) 0.057(5) 0.085(5) 0.022(4) 0.000(4) 0.001(4) 
C11B 0.046(4) 0.034(4) 0.079(5) 0.019(3) 0.002(4) -0.001(3) 
C12B 0.050(4) 0.050(4) 0.062(4) 0.013(3) 0.004(4) 0.002(3) 
C13B 0.050(4) 0.035(3) 0.054(4) 0.006(3) 0.010(3) -0.006(3) 
C14B 0.052(4) 0.042(4) 0.046(4) 0.001(3) 0.011(3) -0.002(3) 
C15B 0.046(4) 0.038(4) 0.048(4) 0.001(3) 0.014(3) -0.006(3) 
C16B 0.046(4) 0.048(4) 0.044(4) 0.005(3) 0.008(3) -0.006(3) 
C17B 0.046(4) 0.049(4) 0.046(4) 0.008(3) 0.006(3) 0.003(3) 
C18B 0.070(8) 0.151(12) 0.47(3) 0.105(15) 0.025(12) -0.029(8) 
C19B 0.104(8) 0.114(8) 0.141(9) 0.018(7) -0.043(7) 0.029(6) 
C20B 0.241(17) 0.259(18) 0.281(19) -0.210(16) -0.190(15) 0.144(15) 
C21B 0.107(7) 0.058(6) 0.176(10) 0.041(6) 0.012(7) 0.002(5) 
C22B 0.216(14) 0.201(14) 0.083(8) 0.057(8) 0.046(8) -0.009(11) 
C23B 0.063(5) 0.088(6) 0.143(8) 0.006(6) 0.021(5) -0.007(5) 
C24B 0.271(17) 0.259(17) 0.095(8) -0.080(10) -0.041(10) 0.201(15) 
C25B 0.108(7) 0.116(8) 0.102(7) 0.029(6) -0.004(6) 0.058(6) 
C26B 0.185(13) 0.078(8) 0.38(2) 0.094(11) -0.092(14) -0.032(8) 
Si1C 0.0420(10) 0.0609(12) 0.0362(10) -0.0016(8) 0.0077(8) 0.0033(8) 
Si2C 0.0945(17) 0.0716(15) 0.0773(15) 0.0298(12) 0.0213(13) 0.0142(12) 
Si3C 0.0970(17) 0.0542(13) 0.0827(16) 0.0088(11) 0.0337(13) 0.0068(11) 
C1C 0.036(4) 0.038(3) 0.032(3) 0.003(3) 0.012(3) -0.002(3) 
C2C 0.033(4) 0.037(3) 0.041(4) 0.004(3) 0.010(3) -0.003(3) 
C3C 0.039(4) 0.041(4) 0.045(4) 0.003(3) 0.009(3) -0.005(3) 
C4C 0.045(4) 0.038(3) 0.044(4) 0.004(3) 0.009(3) -0.001(3) 
C5C 0.043(4) 0.042(4) 0.051(4) 0.002(3) 0.011(3) 0.005(3) 
C6C 0.042(4) 0.030(3) 0.064(4) 0.009(3) 0.014(3) -0.001(3) 
C7C 0.048(4) 0.043(4) 0.081(5) 0.012(3) 0.013(4) 0.011(3) 
C8C 0.041(4) 0.051(4) 0.099(6) 0.018(4) 0.019(4) 0.007(3) 
C9C 0.044(4) 0.054(4) 0.094(6) 0.026(4) 0.007(4) 0.002(3) 
C10C 0.042(4) 0.053(4) 0.078(5) 0.020(4) 0.004(4) 0.001(3) 
C11C 0.038(4) 0.035(3) 0.062(4) 0.013(3) 0.009(3) -0.003(3) 
C12C 0.042(4) 0.050(4) 0.042(4) 0.012(3) -0.001(3) 0.003(3) 
C13C 0.034(4) 0.043(4) 0.047(4) 0.008(3) 0.006(3) -0.006(3) 
C14C 0.034(4) 0.055(4) 0.044(4) 0.007(3) 0.006(3) 0.001(3) 
C15C 0.030(3) 0.036(3) 0.042(4) 0.005(3) 0.007(3) -0.004(3) 
C16C 0.038(4) 0.050(4) 0.043(4) 0.005(3) 0.006(3) 0.002(3) 
C17C 0.033(4) 0.057(4) 0.044(4) -0.009(3) 0.001(3) 0.003(3) 
C18C 0.146(10) 0.075(7) 0.293(18) 0.073(9) 0.005(11) -0.007(7) 
C19C 0.088(7) 0.127(8) 0.115(8) 0.030(6) -0.005(6) 0.027(6) 
C20C 0.150(10) 0.254(15) 0.069(6) 0.078(8) 0.034(6) 0.071(10) 
C22C 0.176(11) 0.090(7) 0.113(8) -0.033(6) 0.038(7) -0.044(7) 
C21C 0.135(10) 0.101(9) 0.38(2) 0.012(11) 0.145(13) -0.044(8) 
C23C 0.47(3) 0.110(11) 0.138(12) 0.071(9) 0.005(15) 0.066(14) 
Si4C 0.0405(13) 0.211(3) 0.115(2) -0.103(2) 0.0168(14) -0.0072(17) 
C24C 0.071(6) 0.138(8) 0.083(6) -0.042(6) 0.030(5) 0.018(5) 
C25C 0.147(13) 1.16(7) 0.081(9) -0.11(2) -0.026(9) 0.35(3) 
C26C 0.094(10) 0.30(2) 1.04(7) -0.40(3) 0.26(2) -0.142(13) 
 
_geom_special_details 
; 
 All esds (except the esd in the dihedral angle between two l.s. planes) 
 are estimated using the full covariance matrix.  The cell esds are taken 
 into account individually in the estimation of esds in distances, angles 
 and torsion angles; correlations between esds in cell parameters are only 
 used when they are defined by crystal symmetry.  An approximate (isotropic) 
 treatment of cell esds is used for estimating esds involving l.s. planes. 
; 
 
loop_ 
 _geom_bond_atom_site_label_1 
 _geom_bond_atom_site_label_2 
 _geom_bond_distance 
 _geom_bond_site_symmetry_2 
 _geom_bond_publ_flag 
Si1A C32A 1.831(7) . ? 
Si1A Si4A 2.326(3) . ? 
Si1A Si5A 2.332(3) . ? 
Si1A Si3A 2.351(3) . ? 
Si2A C43A 1.835(6) . ? 
Si2A Si6A 2.334(2) . ? 
Si2A Si8A 2.343(2) . ? 
Si2A Si7A 2.365(2) . ? 
Si5A C33A 1.837(12) . ? 
Si5A C34A 1.841(9) . ? 
Si5A C35A 1.872(11) . ? 
Si3A C37A 1.815(11) . ? 
Si3A C38A 1.824(8) . ? 
Si3A C36A 1.891(10) . ? 
Si4A C40A 1.827(9) . ? 
Si4A C41A 1.845(14) . ? 
Si4A C39A 1.866(13) . ? 
Si6A C46A 1.874(8) . ? 
Si6A C44A 1.876(7) . ? 
Si6A C45A 1.876(8) . ? 
Si7A C49A 1.837(8) . ? 
Si7A C47A 1.866(7) . ? 
Si7A C48A 1.868(7) . ? 
Si8A C51A 1.817(8) . ? 
Si8A C52A 1.859(8) . ? 
Si8A C50A 1.867(9) . ? 
C1A C30A 1.413(7) . ? 
C1A C2A 1.414(8) . ? 
C1A C31A 1.434(8) . ? 
C2A C3A 1.381(8) . ? 
C2A C15A 1.457(8) . ? 
C3A C4A 1.369(8) . ? 
C3A H3A 0.9500 . ? 
C4A C5A 1.410(8) . ? 
C4A C13A 1.443(8) . ? 
C5A C6A 1.381(8) . ? 
C5A H5A 0.9500 . ? 
C6A C7A 1.428(9) . ? 
C6A C11A 1.440(9) . ? 
C7A C8A 1.336(9) . ? 
C7A H7A 0.9500 . ? 
C8A C9A 1.425(10) . ? 
C8A H8A 0.9500 . ? 
C9A C10A 1.342(9) . ? 
C9A H9A 0.9500 . ? 
C10A C11A 1.426(8) . ? 
C10A H10A 0.9500 . ? 
C11A C12A 1.377(8) . ? 
C12A C13A 1.394(8) . ? 
C12A H12A 0.9500 . ? 
C13A C14A 1.399(8) . ? 
C14A C15A 1.395(8) . ? 
C14A H14A 0.9500 . ? 
C15A C16A 1.412(8) . ? 
C16A C17A 1.407(8) . ? 
C16A C42A 1.432(8) . ? 
C17A C18A 1.397(8) . ? 
C17A C30A 1.456(8) . ? 
C18A C19A 1.399(8) . ? 
C18A H18A 0.9500 . ? 
C19A C20A 1.400(8) . ? 
C19A C28A 1.452(8) . ? 
C20A C21A 1.359(8) . ? 
C20A H20A 0.9500 . ? 
C21A C22A 1.424(9) . ? 
C21A C26A 1.457(9) . ? 
C22A C23A 1.350(10) . ? 
C22A H22A 0.9500 . ? 
C23A C24A 1.407(10) . ? 
C23A H23A 0.9500 . ? 
C24A C25A 1.346(9) . ? 
C24A H24A 0.9500 . ? 
C25A C26A 1.417(8) . ? 
C25A H25A 0.9500 . ? 
C26A C27A 1.369(8) . ? 
C27A C28A 1.398(8) . ? 
C27A H27A 0.9500 . ? 
C28A C29A 1.398(8) . ? 
C29A C30A 1.392(8) . ? 
C29A H29A 0.9500 . ? 
C31A C32A 1.204(8) . ? 
C33A H33A 0.9800 . ? 
C33A H33B 0.9800 . ? 
C33A H33C 0.9800 . ? 
C34A H34A 0.9800 . ? 
C34A H34B 0.9800 . ? 
C34A H34C 0.9800 . ? 
C35A H35A 0.9807 . ? 
C35A H35B 0.9807 . ? 
C35A H35C 0.9807 . ? 
C36A H36A 0.9800 . ? 
C36A H36B 0.9800 . ? 
C36A H36C 0.9800 . ? 
C37A H37A 0.9800 . ? 
C37A H37B 0.9800 . ? 
C37A H37C 0.9800 . ? 
C38A H38A 0.9800 . ? 
C38A H38B 0.9800 . ? 
C38A H38C 0.9800 . ? 
C39A H39A 0.9890 . ? 
C39A H39B 0.9885 . ? 
C39A H39C 0.9886 . ? 
C40A H40A 0.9800 . ? 
C40A H40B 0.9800 . ? 
C40A H40C 0.9800 . ? 
C41A H41A 0.9800 . ? 
C41A H41B 0.9800 . ? 
C41A H41C 0.9800 . ? 
C42A C43A 1.196(8) . ? 
C44A H44A 0.9800 . ? 
C44A H44B 0.9800 . ? 
C44A H44C 0.9800 . ? 
C45A H45A 0.9800 . ? 
C45A H45B 0.9800 . ? 
C45A H45C 0.9800 . ? 
C46A H46A 0.9800 . ? 
C46A H46B 0.9800 . ? 
C46A H46C 0.9800 . ? 
C47A H47A 0.9800 . ? 
C47A H47B 0.9800 . ? 
C47A H47C 0.9800 . ? 
C48A H48A 0.9800 . ? 
C48A H48B 0.9800 . ? 
C48A H48C 0.9800 . ? 
C49A H49A 0.9800 . ? 
C49A H49B 0.9800 . ? 
C49A H49C 0.9800 . ? 
C50A H50A 0.9800 . ? 
C50A H50B 0.9800 . ? 
C50A H50C 0.9800 . ? 
C51A H51A 0.9800 . ? 
C51A H51B 0.9800 . ? 
C51A H51C 0.9800 . ? 
C52A H52A 0.9800 . ? 
C52A H52B 0.9800 . ? 
C52A H52C 0.9800 . ? 
Si1B C17B 1.833(7) . ? 
Si1B Si2B 2.321(3) . ? 
Si1B Si4B 2.324(3) . ? 
Si1B Si3B 2.351(3) . ? 
Si2B C19B 1.837(9) . ? 
Si2B C20B 1.854(11) . ? 
Si2B C18B 1.868(13) . ? 
Si3B C22B 1.836(10) . ? 
Si3B C21B 1.875(9) . ? 
Si3B C23B 1.874(9) . ? 
Si4B C25B 1.838(9) . ? 
Si4B C26B 1.860(12) . ? 
Si4B C24B 1.890(11) . ? 
C1B C2B 1.406(8) . ? 
C1B C16B 1.420(8) . ? 
C1B C15B 1.422(8) 2_365 ? 
C2B C3B 1.393(8) . ? 
C2B C15B 1.455(8) . ? 
C3B C4B 1.389(8) . ? 
C3B H3B 0.9500 . ? 
C4B C5B 1.401(8) . ? 
C4B C13B 1.456(8) . ? 
C5B C6B 1.381(9) . ? 
C5B H5B 0.9500 . ? 
C6B C7B 1.422(9) . ? 
C6B C11B 1.431(9) . ? 
C7B C8B 1.342(10) . ? 
C7B H7B 0.9500 . ? 
C8B C9B 1.413(11) . ? 
C8B H8B 0.9500 . ? 
C9B C10B 1.359(10) . ? 
C9B H9B 0.9500 . ? 
C10B C11B 1.418(9) . ? 
C10B H10B 0.9500 . ? 
C11B C12B 1.382(9) . ? 
C12B C13B 1.397(9) . ? 
C12B H12B 0.9500 . ? 
C13B C14B 1.391(8) . ? 
C14B C15B 1.395(8) . ? 
C14B H14B 0.9500 . ? 
C15B C1B 1.422(8) 2_365 ? 
C16B C17B 1.208(8) . ? 
C18B H18B 0.9800 . ? 
C18B H18C 0.9800 . ? 
C18B H18D 0.9800 . ? 
C19B H19A 0.9800 . ? 
C19B H19B 0.9800 . ? 
C19B H19C 0.9800 . ? 
C20B H20B 0.9800 . ? 
C20B H20C 0.9800 . ? 
C20B H20D 0.9800 . ? 
C21B H21A 0.9800 . ? 
C21B H21B 0.9800 . ? 
C21B H21C 0.9800 . ? 
C22B H22B 0.9800 . ? 
C22B H22C 0.9800 . ? 
C22B H22D 0.9800 . ? 
C23B H23B 0.9800 . ? 
C23B H23C 0.9800 . ? 
C23B H23D 0.9800 . ? 
C24B H24B 0.9800 . ? 
C24B H24C 0.9800 . ? 
C24B H24D 0.9800 . ? 
C25B H25B 0.9800 . ? 
C25B H25C 0.9800 . ? 
C25B H25D 0.9800 . ? 
C26B H26A 0.9800 . ? 
C26B H26B 0.9800 . ? 
C26B H26C 0.9800 . ? 
Si1C C17C 1.831(6) . ? 
Si1C Si4C 2.307(3) . ? 
Si1C Si2C 2.335(3) . ? 
Si1C Si3C 2.346(3) . ? 
Si2C C18C 1.860(11) . ? 
Si2C C19C 1.867(9) . ? 
Si2C C20C 1.879(10) . ? 
Si3C C21C 1.823(10) . ? 
Si3C C22C 1.845(9) . ? 
Si3C C23C 1.884(12) . ? 
C1C C2C 1.408(8) . ? 
C1C C16C 1.422(8) . ? 
C1C C15C 1.416(8) 2_676 ? 
C2C C3C 1.387(8) . ? 
C2C C15C 1.449(8) . ? 
C3C C4C 1.394(8) . ? 
C3C H3C 0.9500 . ? 
C4C C5C 1.407(8) . ? 
C4C C13C 1.443(8) . ? 
C5C C6C 1.370(8) . ? 
C5C H5C 0.9500 . ? 
C6C C7C 1.418(9) . ? 
C6C C11C 1.451(9) . ? 
C7C C8C 1.349(9) . ? 
C7C H7C 0.9500 . ? 
C8C C9C 1.410(10) . ? 
C8C H8C 0.9500 . ? 
C9C C10C 1.346(9) . ? 
C9C H9C 0.9500 . ? 
C10C C11C 1.419(9) . ? 
C10C H10C 0.9500 . ? 
C11C C12C 1.378(8) . ? 
C12C C13C 1.400(8) . ? 
C12C H12C 0.9500 . ? 
C13C C14C 1.398(8) . ? 
C14C C15C 1.401(8) . ? 
C14C H14C 0.9500 . ? 
C15C C1C 1.416(8) 2_676 ? 
C16C C17C 1.210(8) . ? 
C18C H18E 0.9800 . ? 
C18C H18F 0.9800 . ? 
C18C H18G 0.9800 . ? 
C19C H19D 0.9800 . ? 
C19C H19E 0.9800 . ? 
C19C H19F 0.9800 . ? 
C20C H20E 0.9811 . ? 
C20C H20F 0.9811 . ? 
C20C H20G 0.9811 . ? 
C22C H22E 0.9800 . ? 
C22C H22F 0.9800 . ? 
C22C H22G 0.9800 . ? 
C21C H21D 0.9800 . ? 
C21C H21E 0.9800 . ? 
C21C H21F 0.9800 . ? 
C23C H23E 0.9800 . ? 
C23C H23F 0.9800 . ? 
C23C H23G 0.9800 . ? 
Si4C C25C 1.765(17) . ? 
Si4C C24C 1.817(7) . ? 
Si4C C26C 1.828(18) . ? 
C24C H24E 0.9800 . ? 
C24C H24F 0.9800 . ? 
C24C H24G 0.9800 . ? 
C25C H25E 0.9801 . ? 
C25C H25F 0.9801 . ? 
C25C H25G 0.9801 . ? 
C26C H26D 0.9941 . ? 
C26C H26E 0.9944 . ? 
C26C H26F 0.9942 . ? 
 
loop_ 
 _geom_angle_atom_site_label_1 
 _geom_angle_atom_site_label_2 
 _geom_angle_atom_site_label_3 
 _geom_angle 
 _geom_angle_site_symmetry_1 
 _geom_angle_site_symmetry_3 
 _geom_angle_publ_flag 
C32A Si1A Si4A 105.8(2) . . ? 
C32A Si1A Si5A 111.0(2) . . ? 
Si4A Si1A Si5A 110.03(12) . . ? 
C32A Si1A Si3A 99.7(2) . . ? 
Si4A Si1A Si3A 115.20(13) . . ? 
Si5A Si1A Si3A 114.24(12) . . ? 
C43A Si2A Si6A 104.7(2) . . ? 
C43A Si2A Si8A 108.8(2) . . ? 
Si6A Si2A Si8A 110.70(10) . . ? 
C43A Si2A Si7A 101.7(2) . . ? 
Si6A Si2A Si7A 114.99(9) . . ? 
Si8A Si2A Si7A 114.78(9) . . ? 
C33A Si5A C34A 109.4(5) . . ? 
C33A Si5A C35A 109.9(8) . . ? 
C34A Si5A C35A 107.6(6) . . ? 
C33A Si5A Si1A 110.0(4) . . ? 
C34A Si5A Si1A 113.1(3) . . ? 
C35A Si5A Si1A 106.9(4) . . ? 
C37A Si3A C38A 109.7(5) . . ? 
C37A Si3A C36A 108.4(7) . . ? 
C38A Si3A C36A 107.2(5) . . ? 
C37A Si3A Si1A 115.3(5) . . ? 
C38A Si3A Si1A 110.1(3) . . ? 
C36A Si3A Si1A 105.8(4) . . ? 
C40A Si4A C41A 109.2(6) . . ? 
C40A Si4A C39A 106.4(6) . . ? 
C41A Si4A C39A 111.7(9) . . ? 
C40A Si4A Si1A 110.9(3) . . ? 
C41A Si4A Si1A 112.1(5) . . ? 
C39A Si4A Si1A 106.4(4) . . ? 
C46A Si6A C44A 109.0(4) . . ? 
C46A Si6A C45A 111.2(4) . . ? 
C44A Si6A C45A 107.6(4) . . ? 
C46A Si6A Si2A 110.1(3) . . ? 
C44A Si6A Si2A 108.8(3) . . ? 
C45A Si6A Si2A 110.0(3) . . ? 
C49A Si7A C47A 106.9(4) . . ? 
C49A Si7A C48A 110.2(5) . . ? 
C47A Si7A C48A 110.0(4) . . ? 
C49A Si7A Si2A 109.0(3) . . ? 
C47A Si7A Si2A 109.2(2) . . ? 
C48A Si7A Si2A 111.4(3) . . ? 
C51A Si8A C52A 109.7(4) . . ? 
C51A Si8A C50A 108.2(6) . . ? 
C52A Si8A C50A 107.5(5) . . ? 
C51A Si8A Si2A 110.6(3) . . ? 
C52A Si8A Si2A 110.9(3) . . ? 
C50A Si8A Si2A 110.0(3) . . ? 
C30A C1A C2A 121.3(5) . . ? 
C30A C1A C31A 120.0(5) . . ? 
C2A C1A C31A 118.6(5) . . ? 
C3A C2A C1A 122.3(5) . . ? 
C3A C2A C15A 118.6(5) . . ? 
C1A C2A C15A 119.0(5) . . ? 
C4A C3A C2A 122.9(6) . . ? 
C4A C3A H3A 118.5 . . ? 
C2A C3A H3A 118.5 . . ? 
C3A C4A C5A 122.3(6) . . ? 
C3A C4A C13A 119.7(5) . . ? 
C5A C4A C13A 118.0(6) . . ? 
C6A C5A C4A 121.8(6) . . ? 
C6A C5A H5A 119.1 . . ? 
C4A C5A H5A 119.1 . . ? 
C5A C6A C7A 122.3(6) . . ? 
C5A C6A C11A 119.5(6) . . ? 
C7A C6A C11A 118.2(6) . . ? 
C8A C7A C6A 121.6(7) . . ? 
C8A C7A H7A 119.2 . . ? 
C6A C7A H7A 119.2 . . ? 
C7A C8A C9A 120.5(7) . . ? 
C7A C8A H8A 119.7 . . ? 
C9A C8A H8A 119.7 . . ? 
C10A C9A C8A 120.0(7) . . ? 
C10A C9A H9A 120.0 . . ? 
C8A C9A H9A 120.0 . . ? 
C9A C10A C11A 122.2(7) . . ? 
C9A C10A H10A 118.9 . . ? 
C11A C10A H10A 118.9 . . ? 
C12A C11A C10A 123.2(6) . . ? 
C12A C11A C6A 119.3(6) . . ? 
C10A C11A C6A 117.5(6) . . ? 
C11A C12A C13A 121.8(6) . . ? 
C11A C12A H12A 119.1 . . ? 
C13A C12A H12A 119.1 . . ? 
C12A C13A C14A 122.2(6) . . ? 
C12A C13A C4A 119.6(5) . . ? 
C14A C13A C4A 118.1(5) . . ? 
C15A C14A C13A 122.3(5) . . ? 
C15A C14A H14A 118.9 . . ? 
C13A C14A H14A 118.8 . . ? 
C14A C15A C16A 121.6(5) . . ? 
C14A C15A C2A 118.3(5) . . ? 
C16A C15A C2A 120.1(5) . . ? 
C17A C16A C15A 120.3(5) . . ? 
C17A C16A C42A 118.9(5) . . ? 
C15A C16A C42A 120.9(5) . . ? 
C18A C17A C16A 121.3(5) . . ? 
C18A C17A C30A 118.3(5) . . ? 
C16A C17A C30A 120.5(5) . . ? 
C17A C18A C19A 122.5(5) . . ? 
C17A C18A H18A 118.7 . . ? 
C19A C18A H18A 118.7 . . ? 
C18A C19A C20A 122.3(6) . . ? 
C18A C19A C28A 119.0(5) . . ? 
C20A C19A C28A 118.7(5) . . ? 
C21A C20A C19A 122.5(6) . . ? 
C21A C20A H20A 118.7 . . ? 
C19A C20A H20A 118.7 . . ? 
C20A C21A C22A 123.0(6) . . ? 
C20A C21A C26A 119.1(6) . . ? 
C22A C21A C26A 117.9(6) . . ? 
C23A C22A C21A 120.6(7) . . ? 
C23A C22A H22A 119.7 . . ? 
C21A C22A H22A 119.7 . . ? 
C22A C23A C24A 121.3(7) . . ? 
C22A C23A H23A 119.3 . . ? 
C24A C23A H23A 119.3 . . ? 
C25A C24A C23A 120.8(7) . . ? 
C25A C24A H24A 119.6 . . ? 
C23A C24A H24A 119.6 . . ? 
C24A C25A C26A 120.9(7) . . ? 
C24A C25A H25A 119.5 . . ? 
C26A C25A H25A 119.5 . . ? 
C27A C26A C25A 122.6(7) . . ? 
C27A C26A C21A 118.9(6) . . ? 
C25A C26A C21A 118.5(6) . . ? 
C26A C27A C28A 122.6(6) . . ? 
C26A C27A H27A 118.7 . . ? 
C28A C27A H27A 118.7 . . ? 
C27A C28A C29A 123.5(6) . . ? 
C27A C28A C19A 118.1(5) . . ? 
C29A C28A C19A 118.4(5) . . ? 
C30A C29A C28A 122.5(5) . . ? 
C30A C29A H29A 118.7 . . ? 
C28A C29A H29A 118.7 . . ? 
C29A C30A C1A 121.9(5) . . ? 
C29A C30A C17A 119.2(5) . . ? 
C1A C30A C17A 118.8(5) . . ? 
C32A C31A C1A 176.4(6) . . ? 
C31A C32A Si1A 169.3(6) . . ? 
Si5A C33A H33A 109.5 . . ? 
Si5A C33A H33B 109.5 . . ? 
H33A C33A H33B 109.5 . . ? 
Si5A C33A H33C 109.5 . . ? 
H33A C33A H33C 109.5 . . ? 
H33B C33A H33C 109.5 . . ? 
Si5A C34A H34A 109.5 . . ? 
Si5A C34A H34B 109.5 . . ? 
H34A C34A H34B 109.5 . . ? 
Si5A C34A H34C 109.5 . . ? 
H34A C34A H34C 109.5 . . ? 
H34B C34A H34C 109.5 . . ? 
Si5A C35A H35A 109.6 . . ? 
Si5A C35A H35B 109.5 . . ? 
H35A C35A H35B 109.4 . . ? 
Si5A C35A H35C 109.5 . . ? 
H35A C35A H35C 109.4 . . ? 
H35B C35A H35C 109.4 . . ? 
Si3A C36A H36A 109.5 . . ? 
Si3A C36A H36B 109.5 . . ? 
H36A C36A H36B 109.5 . . ? 
Si3A C36A H36C 109.5 . . ? 
H36A C36A H36C 109.5 . . ? 
H36B C36A H36C 109.5 . . ? 
Si3A C37A H37A 109.6 . . ? 
Si3A C37A H37B 109.5 . . ? 
H37A C37A H37B 109.5 . . ? 
Si3A C37A H37C 109.4 . . ? 
H37A C37A H37C 109.5 . . ? 
H37B C37A H37C 109.5 . . ? 
Si3A C38A H38A 109.5 . . ? 
Si3A C38A H38B 109.5 . . ? 
H38A C38A H38B 109.5 . . ? 
Si3A C38A H38C 109.5 . . ? 
H38A C38A H38C 109.5 . . ? 
H38B C38A H38C 109.5 . . ? 
Si4A C39A H39A 110.5 . . ? 
Si4A C39A H39B 109.9 . . ? 
H39A C39A H39B 108.7 . . ? 
Si4A C39A H39C 110.0 . . ? 
H39A C39A H39C 108.8 . . ? 
H39B C39A H39C 108.8 . . ? 
Si4A C40A H40A 109.5 . . ? 
Si4A C40A H40B 109.5 . . ? 
H40A C40A H40B 109.5 . . ? 
Si4A C40A H40C 109.5 . . ? 
H40A C40A H40C 109.5 . . ? 
H40B C40A H40C 109.5 . . ? 
Si4A C41A H41A 109.4 . . ? 
Si4A C41A H41B 109.5 . . ? 
H41A C41A H41B 109.5 . . ? 
Si4A C41A H41C 109.5 . . ? 
H41A C41A H41C 109.5 . . ? 
H41B C41A H41C 109.5 . . ? 
C43A C42A C16A 175.4(6) . . ? 
C42A C43A Si2A 172.0(5) . . ? 
Si6A C44A H44A 109.5 . . ? 
Si6A C44A H44B 109.5 . . ? 
H44A C44A H44B 109.5 . . ? 
Si6A C44A H44C 109.5 . . ? 
H44A C44A H44C 109.5 . . ? 
H44B C44A H44C 109.5 . . ? 
Si6A C45A H45A 109.5 . . ? 
Si6A C45A H45B 109.5 . . ? 
H45A C45A H45B 109.5 . . ? 
Si6A C45A H45C 109.5 . . ? 
H45A C45A H45C 109.5 . . ? 
H45B C45A H45C 109.5 . . ? 
Si6A C46A H46A 109.5 . . ? 
Si6A C46A H46B 109.5 . . ? 
H46A C46A H46B 109.5 . . ? 
Si6A C46A H46C 109.5 . . ? 
H46A C46A H46C 109.5 . . ? 
H46B C46A H46C 109.5 . . ? 
Si7A C47A H47A 109.5 . . ? 
Si7A C47A H47B 109.5 . . ? 
H47A C47A H47B 109.5 . . ? 
Si7A C47A H47C 109.5 . . ? 
H47A C47A H47C 109.5 . . ? 
H47B C47A H47C 109.5 . . ? 
Si7A C48A H48A 109.5 . . ? 
Si7A C48A H48B 109.5 . . ? 
H48A C48A H48B 109.5 . . ? 
Si7A C48A H48C 109.5 . . ? 
H48A C48A H48C 109.5 . . ? 
H48B C48A H48C 109.5 . . ? 
Si7A C49A H49A 109.5 . . ? 
Si7A C49A H49B 109.5 . . ? 
H49A C49A H49B 109.5 . . ? 
Si7A C49A H49C 109.5 . . ? 
H49A C49A H49C 109.5 . . ? 
H49B C49A H49C 109.5 . . ? 
Si8A C50A H50A 109.5 . . ? 
Si8A C50A H50B 109.5 . . ? 
H50A C50A H50B 109.5 . . ? 
Si8A C50A H50C 109.5 . . ? 
H50A C50A H50C 109.5 . . ? 
H50B C50A H50C 109.5 . . ? 
Si8A C51A H51A 109.5 . . ? 
Si8A C51A H51B 109.5 . . ? 
H51A C51A H51B 109.5 . . ? 
Si8A C51A H51C 109.5 . . ? 
H51A C51A H51C 109.5 . . ? 
H51B C51A H51C 109.5 . . ? 
Si8A C52A H52A 109.5 . . ? 
Si8A C52A H52B 109.5 . . ? 
H52A C52A H52B 109.5 . . ? 
Si8A C52A H52C 109.5 . . ? 
H52A C52A H52C 109.5 . . ? 
H52B C52A H52C 109.5 . . ? 
C17B Si1B Si2B 109.4(2) . . ? 
C17B Si1B Si4B 106.4(2) . . ? 
Si2B Si1B Si4B 111.04(12) . . ? 
C17B Si1B Si3B 101.5(2) . . ? 
Si2B Si1B Si3B 113.51(12) . . ? 
Si4B Si1B Si3B 114.20(12) . . ? 
C19B Si2B C20B 111.3(6) . . ? 
C19B Si2B C18B 108.3(5) . . ? 
C20B Si2B C18B 108.2(9) . . ? 
C19B Si2B Si1B 112.8(3) . . ? 
C20B Si2B Si1B 108.0(4) . . ? 
C18B Si2B Si1B 108.0(5) . . ? 
C22B Si3B C21B 110.4(5) . . ? 
C22B Si3B C23B 108.5(5) . . ? 
C21B Si3B C23B 110.3(4) . . ? 
C22B Si3B Si1B 112.6(4) . . ? 
C21B Si3B Si1B 105.9(3) . . ? 
C23B Si3B Si1B 109.1(3) . . ? 
C25B Si4B C26B 106.9(5) . . ? 
C25B Si4B C24B 107.3(5) . . ? 
C26B Si4B C24B 114.0(7) . . ? 
C25B Si4B Si1B 111.2(3) . . ? 
C26B Si4B Si1B 110.0(4) . . ? 
C24B Si4B Si1B 107.4(4) . . ? 
C2B C1B C16B 119.3(5) . . ? 
C2B C1B C15B 120.4(6) . 2_365 ? 
C16B C1B C15B 120.2(6) . 2_365 ? 
C3B C2B C1B 121.3(6) . . ? 
C3B C2B C15B 118.3(6) . . ? 
C1B C2B C15B 120.3(6) . . ? 
C4B C3B C2B 122.5(6) . . ? 
C4B C3B H3B 118.7 . . ? 
C2B C3B H3B 118.7 . . ? 
C3B C4B C5B 122.5(6) . . ? 
C3B C4B C13B 119.2(5) . . ? 
C5B C4B C13B 118.3(6) . . ? 
C6B C5B C4B 122.6(6) . . ? 
C6B C5B H5B 118.7 . . ? 
C4B C5B H5B 118.7 . . ? 
C5B C6B C7B 122.7(7) . . ? 
C5B C6B C11B 118.4(6) . . ? 
C7B C6B C11B 118.9(6) . . ? 
C8B C7B C6B 120.1(7) . . ? 
C8B C7B H7B 119.9 . . ? 
C6B C7B H7B 119.9 . . ? 
C7B C8B C9B 121.7(7) . . ? 
C7B C8B H8B 119.1 . . ? 
C9B C8B H8B 119.1 . . ? 
C10B C9B C8B 119.8(7) . . ? 
C10B C9B H9B 120.1 . . ? 
C8B C9B H9B 120.1 . . ? 
C9B C10B C11B 120.9(8) . . ? 
C9B C10B H10B 119.5 . . ? 
C11B C10B H10B 119.5 . . ? 
C12B C11B C10B 120.9(7) . . ? 
C12B C11B C6B 120.6(6) . . ? 
C10B C11B C6B 118.5(6) . . ? 
C11B C12B C13B 121.3(7) . . ? 
C11B C12B H12B 119.4 . . ? 
C13B C12B H12B 119.4 . . ? 
C14B C13B C12B 123.0(6) . . ? 
C14B C13B C4B 118.1(6) . . ? 
C12B C13B C4B 118.8(6) . . ? 
C13B C14B C15B 122.6(6) . . ? 
C13B C14B H14B 118.7 . . ? 
C15B C14B H14B 118.7 . . ? 
C14B C15B C1B 121.9(6) . 2_365 ? 
C14B C15B C2B 119.0(5) . . ? 
C1B C15B C2B 119.1(6) 2_365 . ? 
C17B C16B C1B 175.3(7) . . ? 
C16B C17B Si1B 173.5(6) . . ? 
Si2B C18B H18B 109.5 . . ? 
Si2B C18B H18C 109.4 . . ? 
H18B C18B H18C 109.5 . . ? 
Si2B C18B H18D 109.5 . . ? 
H18B C18B H18D 109.5 . . ? 
H18C C18B H18D 109.5 . . ? 
Si2B C19B H19A 109.5 . . ? 
Si2B C19B H19B 109.5 . . ? 
H19A C19B H19B 109.5 . . ? 
Si2B C19B H19C 109.5 . . ? 
H19A C19B H19C 109.5 . . ? 
H19B C19B H19C 109.5 . . ? 
Si2B C20B H20B 109.4 . . ? 
Si2B C20B H20C 109.5 . . ? 
H20B C20B H20C 109.5 . . ? 
Si2B C20B H20D 109.5 . . ? 
H20B C20B H20D 109.5 . . ? 
H20C C20B H20D 109.5 . . ? 
Si3B C21B H21A 109.5 . . ? 
Si3B C21B H21B 109.5 . . ? 
H21A C21B H21B 109.5 . . ? 
Si3B C21B H21C 109.5 . . ? 
H21A C21B H21C 109.5 . . ? 
H21B C21B H21C 109.5 . . ? 
Si3B C22B H22B 109.5 . . ? 
Si3B C22B H22C 109.5 . . ? 
H22B C22B H22C 109.5 . . ? 
Si3B C22B H22D 109.4 . . ? 
H22B C22B H22D 109.5 . . ? 
H22C C22B H22D 109.5 . . ? 
Si3B C23B H23B 109.5 . . ? 
Si3B C23B H23C 109.5 . . ? 
H23B C23B H23C 109.5 . . ? 
Si3B C23B H23D 109.5 . . ? 
H23B C23B H23D 109.5 . . ? 
H23C C23B H23D 109.5 . . ? 
Si4B C24B H24B 109.5 . . ? 
Si4B C24B H24C 109.5 . . ? 
H24B C24B H24C 109.5 . . ? 
Si4B C24B H24D 109.5 . . ? 
H24B C24B H24D 109.5 . . ? 
H24C C24B H24D 109.5 . . ? 
Si4B C25B H25B 109.4 . . ? 
Si4B C25B H25C 109.5 . . ? 
H25B C25B H25C 109.5 . . ? 
Si4B C25B H25D 109.5 . . ? 
H25B C25B H25D 109.5 . . ? 
H25C C25B H25D 109.5 . . ? 
Si4B C26B H26A 109.5 . . ? 
Si4B C26B H26B 109.5 . . ? 
H26A C26B H26B 109.5 . . ? 
Si4B C26B H26C 109.5 . . ? 
H26A C26B H26C 109.5 . . ? 
H26B C26B H26C 109.5 . . ? 
C17C Si1C Si4C 106.1(2) . . ? 
C17C Si1C Si2C 108.0(2) . . ? 
Si4C Si1C Si2C 112.03(14) . . ? 
C17C Si1C Si3C 104.1(2) . . ? 
Si4C Si1C Si3C 113.08(14) . . ? 
Si2C Si1C Si3C 112.88(12) . . ? 
C18C Si2C C19C 107.5(5) . . ? 
C18C Si2C C20C 114.7(6) . . ? 
C19C Si2C C20C 106.6(5) . . ? 
C18C Si2C Si1C 108.4(4) . . ? 
C19C Si2C Si1C 110.8(3) . . ? 
C20C Si2C Si1C 108.8(3) . . ? 
C21C Si3C C22C 111.8(6) . . ? 
C21C Si3C C23C 105.4(8) . . ? 
C22C Si3C C23C 109.3(6) . . ? 
C21C Si3C Si1C 111.4(4) . . ? 
C22C Si3C Si1C 111.6(3) . . ? 
C23C Si3C Si1C 107.1(5) . . ? 
C2C C1C C16C 119.1(5) . . ? 
C2C C1C C15C 120.9(5) . 2_676 ? 
C16C C1C C15C 120.0(5) . 2_676 ? 
C3C C2C C1C 121.4(5) . . ? 
C3C C2C C15C 118.5(5) . . ? 
C1C C2C C15C 120.1(5) . . ? 
C2C C3C C4C 122.5(6) . . ? 
C2C C3C H3C 118.7 . . ? 
C4C C3C H3C 118.7 . . ? 
C3C C4C C5C 122.6(6) . . ? 
C3C C4C C13C 119.3(5) . . ? 
C5C C4C C13C 118.1(6) . . ? 
C6C C5C C4C 122.3(6) . . ? 
C6C C5C H5C 118.9 . . ? 
C4C C5C H5C 118.9 . . ? 
C5C C6C C7C 123.0(6) . . ? 
C5C C6C C11C 119.6(6) . . ? 
C7C C6C C11C 117.5(6) . . ? 
C8C C7C C6C 121.4(7) . . ? 
C8C C7C H7C 119.3 . . ? 
C6C C7C H7C 119.3 . . ? 
C7C C8C C9C 121.0(7) . . ? 
C7C C8C H8C 119.5 . . ? 
C9C C8C H8C 119.5 . . ? 
C10C C9C C8C 120.4(7) . . ? 
C10C C9C H9C 119.8 . . ? 
C8C C9C H9C 119.8 . . ? 
C9C C10C C11C 121.1(7) . . ? 
C9C C10C H10C 119.5 . . ? 
C11C C10C H10C 119.5 . . ? 
C12C C11C C10C 122.6(6) . . ? 
C12C C11C C6C 118.7(6) . . ? 
C10C C11C C6C 118.7(6) . . ? 
C11C C12C C13C 122.0(6) . . ? 
C11C C12C H12C 119.0 . . ? 
C13C C12C H12C 119.0 . . ? 
C12C C13C C14C 122.3(6) . . ? 
C12C C13C C4C 119.3(5) . . ? 
C14C C13C C4C 118.4(5) . . ? 
C13C C14C C15C 122.2(6) . . ? 
C13C C14C H14C 118.9 . . ? 
C15C C14C H14C 118.9 . . ? 
C14C C15C C1C 122.0(5) . 2_676 ? 
C14C C15C C2C 119.0(5) . . ? 
C1C C15C C2C 119.0(5) 2_676 . ? 
C17C C16C C1C 176.7(6) . . ? 
C16C C17C Si1C 174.7(6) . . ? 
Si2C C18C H18E 109.5 . . ? 
Si2C C18C H18F 109.5 . . ? 
H18E C18C H18F 109.5 . . ? 
Si2C C18C H18G 109.4 . . ? 
H18E C18C H18G 109.5 . . ? 
H18F C18C H18G 109.5 . . ? 
Si2C C19C H19D 109.5 . . ? 
Si2C C19C H19E 109.5 . . ? 
H19D C19C H19E 109.5 . . ? 
Si2C C19C H19F 109.5 . . ? 
H19D C19C H19F 109.5 . . ? 
H19E C19C H19F 109.5 . . ? 
Si2C C20C H20E 109.6 . . ? 
Si2C C20C H20F 109.5 . . ? 
H20E C20C H20F 109.4 . . ? 
Si2C C20C H20G 109.6 . . ? 
H20E C20C H20G 109.4 . . ? 
H20F C20C H20G 109.4 . . ? 
Si3C C22C H22E 109.5 . . ? 
Si3C C22C H22F 109.5 . . ? 
H22E C22C H22F 109.5 . . ? 
Si3C C22C H22G 109.5 . . ? 
H22E C22C H22G 109.5 . . ? 
H22F C22C H22G 109.5 . . ? 
Si3C C21C H21D 109.5 . . ? 
Si3C C21C H21E 109.5 . . ? 
H21D C21C H21E 109.5 . . ? 
Si3C C21C H21F 109.5 . . ? 
H21D C21C H21F 109.5 . . ? 
H21E C21C H21F 109.5 . . ? 
Si3C C23C H23E 109.5 . . ? 
Si3C C23C H23F 109.5 . . ? 
H23E C23C H23F 109.5 . . ? 
Si3C C23C H23G 109.5 . . ? 
H23E C23C H23G 109.5 . . ? 
H23F C23C H23G 109.5 . . ? 
C25C Si4C C24C 106.6(7) . . ? 
C25C Si4C C26C 109.0(12) . . ? 
C24C Si4C C26C 111.2(8) . . ? 
C25C Si4C Si1C 110.5(6) . . ? 
C24C Si4C Si1C 111.9(3) . . ? 
C26C Si4C Si1C 107.6(5) . . ? 
Si4C C24C H24E 109.5 . . ? 
Si4C C24C H24F 109.5 . . ? 
H24E C24C H24F 109.5 . . ? 
Si4C C24C H24G 109.5 . . ? 
H24E C24C H24G 109.5 . . ? 
H24F C24C H24G 109.5 . . ? 
Si4C C25C H25E 109.5 . . ? 
Si4C C25C H25F 109.5 . . ? 
H25E C25C H25F 109.5 . . ? 
Si4C C25C H25G 109.5 . . ? 
H25E C25C H25G 109.5 . . ? 
H25F C25C H25G 109.5 . . ? 
Si4C C26C H26D 110.5 . . ? 
Si4C C26C H26E 110.7 . . ? 
H26D C26C H26E 108.3 . . ? 
Si4C C26C H26F 110.6 . . ? 
H26D C26C H26F 108.3 . . ? 
H26E C26C H26F 108.3 . . ? 
 
loop_ 
 _geom_torsion_atom_site_label_1 
 _geom_torsion_atom_site_label_2 
 _geom_torsion_atom_site_label_3 
 _geom_torsion_atom_site_label_4 
 _geom_torsion 
 _geom_torsion_site_symmetry_1 
 _geom_torsion_site_symmetry_2 
 _geom_torsion_site_symmetry_3 
 _geom_torsion_site_symmetry_4 
 _geom_torsion_publ_flag 
C32A Si1A Si5A C33A 49.8(6) . . . . ? 
Si4A Si1A Si5A C33A -67.0(5) . . . . ? 
Si3A Si1A Si5A C33A 161.6(5) . . . . ? 
C32A Si1A Si5A C34A -72.8(4) . . . . ? 
Si4A Si1A Si5A C34A 170.4(4) . . . . ? 
Si3A Si1A Si5A C34A 39.0(4) . . . . ? 
C32A Si1A Si5A C35A 169.0(7) . . . . ? 
Si4A Si1A Si5A C35A 52.2(7) . . . . ? 
Si3A Si1A Si5A C35A -79.2(7) . . . . ? 
C32A Si1A Si3A C37A 177.5(6) . . . . ? 
Si4A Si1A Si3A C37A -69.7(6) . . . . ? 
Si5A Si1A Si3A C37A 59.1(6) . . . . ? 
C32A Si1A Si3A C38A -57.8(4) . . . . ? 
Si4A Si1A Si3A C38A 55.0(4) . . . . ? 
Si5A Si1A Si3A C38A -176.2(3) . . . . ? 
C32A Si1A Si3A C36A 57.7(5) . . . . ? 
Si4A Si1A Si3A C36A 170.5(5) . . . . ? 
Si5A Si1A Si3A C36A -60.7(5) . . . . ? 
C32A Si1A Si4A C40A 46.0(4) . . . . ? 
Si5A Si1A Si4A C40A 166.0(4) . . . . ? 
Si3A Si1A Si4A C40A -63.1(4) . . . . ? 
C32A Si1A Si4A C41A -76.3(8) . . . . ? 
Si5A Si1A Si4A C41A 43.7(7) . . . . ? 
Si3A Si1A Si4A C41A 174.5(7) . . . . ? 
C32A Si1A Si4A C39A 161.3(7) . . . . ? 
Si5A Si1A Si4A C39A -78.7(7) . . . . ? 
Si3A Si1A Si4A C39A 52.2(7) . . . . ? 
C43A Si2A Si6A C46A 171.6(4) . . . . ? 
Si8A Si2A Si6A C46A 54.5(3) . . . . ? 
Si7A Si2A Si6A C46A -77.6(3) . . . . ? 
C43A Si2A Si6A C44A 52.2(3) . . . . ? 
Si8A Si2A Si6A C44A -65.0(3) . . . . ? 
Si7A Si2A Si6A C44A 162.9(3) . . . . ? 
C43A Si2A Si6A C45A -65.5(4) . . . . ? 
Si8A Si2A Si6A C45A 177.4(3) . . . . ? 
Si7A Si2A Si6A C45A 45.3(4) . . . . ? 
C43A Si2A Si7A C49A -70.7(4) . . . . ? 
Si6A Si2A Si7A C49A 176.8(4) . . . . ? 
Si8A Si2A Si7A C49A 46.7(4) . . . . ? 
C43A Si2A Si7A C47A 45.8(3) . . . . ? 
Si6A Si2A Si7A C47A -66.7(3) . . . . ? 
Si8A Si2A Si7A C47A 163.2(3) . . . . ? 
C43A Si2A Si7A C48A 167.5(4) . . . . ? 
Si6A Si2A Si7A C48A 55.0(3) . . . . ? 
Si8A Si2A Si7A C48A -75.1(3) . . . . ? 
C43A Si2A Si8A C51A 58.6(5) . . . . ? 
Si6A Si2A Si8A C51A 173.2(4) . . . . ? 
Si7A Si2A Si8A C51A -54.6(4) . . . . ? 
C43A Si2A Si8A C52A -63.3(4) . . . . ? 
Si6A Si2A Si8A C52A 51.3(4) . . . . ? 
Si7A Si2A Si8A C52A -176.4(4) . . . . ? 
C43A Si2A Si8A C50A 178.0(5) . . . . ? 
Si6A Si2A Si8A C50A -67.4(5) . . . . ? 
Si7A Si2A Si8A C50A 64.8(5) . . . . ? 
C30A C1A C2A C3A 178.2(5) . . . . ? 
C31A C1A C2A C3A -4.6(8) . . . . ? 
C30A C1A C2A C15A -0.3(8) . . . . ? 
C31A C1A C2A C15A 176.9(5) . . . . ? 
C1A C2A C3A C4A -179.4(5) . . . . ? 
C15A C2A C3A C4A -0.9(9) . . . . ? 
C2A C3A C4A C5A -179.9(5) . . . . ? 
C2A C3A C4A C13A -1.0(9) . . . . ? 
C3A C4A C5A C6A 177.9(5) . . . . ? 
C13A C4A C5A C6A -1.0(8) . . . . ? 
C4A C5A C6A C7A 179.7(5) . . . . ? 
C4A C5A C6A C11A 0.9(9) . . . . ? 
C5A C6A C7A C8A -178.9(6) . . . . ? 
C11A C6A C7A C8A -0.1(9) . . . . ? 
C6A C7A C8A C9A -1.3(10) . . . . ? 
C7A C8A C9A C10A 2.2(10) . . . . ? 
C8A C9A C10A C11A -1.6(10) . . . . ? 
C9A C10A C11A C12A 179.9(6) . . . . ? 
C9A C10A C11A C6A 0.2(9) . . . . ? 
C5A C6A C11A C12A -0.2(8) . . . . ? 
C7A C6A C11A C12A -179.0(5) . . . . ? 
C5A C6A C11A C10A 179.5(5) . . . . ? 
C7A C6A C11A C10A 0.7(8) . . . . ? 
C10A C11A C12A C13A 179.9(5) . . . . ? 
C6A C11A C12A C13A -0.4(8) . . . . ? 
C11A C12A C13A C14A -179.6(5) . . . . ? 
C11A C12A C13A C4A 0.3(8) . . . . ? 
C3A C4A C13A C12A -178.6(5) . . . . ? 
C5A C4A C13A C12A 0.3(8) . . . . ? 
C3A C4A C13A C14A 1.3(8) . . . . ? 
C5A C4A C13A C14A -179.8(5) . . . . ? 
C12A C13A C14A C15A -179.7(5) . . . . ? 
C4A C13A C14A C15A 0.4(8) . . . . ? 
C13A C14A C15A C16A 179.0(5) . . . . ? 
C13A C14A C15A C2A -2.2(8) . . . . ? 
C3A C2A C15A C14A 2.5(8) . . . . ? 
C1A C2A C15A C14A -179.0(5) . . . . ? 
C3A C2A C15A C16A -178.7(5) . . . . ? 
C1A C2A C15A C16A -0.2(8) . . . . ? 
C14A C15A C16A C17A 179.5(5) . . . . ? 
C2A C15A C16A C17A 0.8(8) . . . . ? 
C14A C15A C16A C42A -1.6(8) . . . . ? 
C2A C15A C16A C42A 179.7(5) . . . . ? 
C15A C16A C17A C18A -179.8(5) . . . . ? 
C42A C16A C17A C18A 1.2(8) . . . . ? 
C15A C16A C17A C30A -0.9(8) . . . . ? 
C42A C16A C17A C30A -179.8(5) . . . . ? 
C16A C17A C18A C19A 179.7(5) . . . . ? 
C30A C17A C18A C19A 0.7(8) . . . . ? 
C17A C18A C19A C20A -179.1(5) . . . . ? 
C17A C18A C19A C28A 0.3(8) . . . . ? 
C18A C19A C20A C21A 179.2(5) . . . . ? 
C28A C19A C20A C21A -0.1(9) . . . . ? 
C19A C20A C21A C22A -178.7(6) . . . . ? 
C19A C20A C21A C26A 0.7(9) . . . . ? 
C20A C21A C22A C23A -179.6(6) . . . . ? 
C26A C21A C22A C23A 1.0(9) . . . . ? 
C21A C22A C23A C24A -0.6(11) . . . . ? 
C22A C23A C24A C25A 0.0(11) . . . . ? 
C23A C24A C25A C26A 0.1(10) . . . . ? 
C24A C25A C26A C27A -179.4(6) . . . . ? 
C24A C25A C26A C21A 0.4(9) . . . . ? 
C20A C21A C26A C27A -0.6(8) . . . . ? 
C22A C21A C26A C27A 178.9(6) . . . . ? 
C20A C21A C26A C25A 179.7(5) . . . . ? 
C22A C21A C26A C25A -0.9(8) . . . . ? 
C25A C26A C27A C28A 179.6(6) . . . . ? 
C21A C26A C27A C28A -0.1(9) . . . . ? 
C26A C27A C28A C29A -178.8(5) . . . . ? 
C26A C27A C28A C19A 0.7(9) . . . . ? 
C18A C19A C28A C27A -180.0(5) . . . . ? 
C20A C19A C28A C27A -0.6(8) . . . . ? 
C18A C19A C28A C29A -0.4(8) . . . . ? 
C20A C19A C28A C29A 179.0(5) . . . . ? 
C27A C28A C29A C30A 179.0(5) . . . . ? 
C19A C28A C29A C30A -0.5(8) . . . . ? 
C28A C29A C30A C1A -179.4(5) . . . . ? 
C28A C29A C30A C17A 1.6(8) . . . . ? 
C2A C1A C30A C29A -178.8(5) . . . . ? 
C31A C1A C30A C29A 4.0(8) . . . . ? 
C2A C1A C30A C17A 0.2(8) . . . . ? 
C31A C1A C30A C17A -176.9(5) . . . . ? 
C18A C17A C30A C29A -1.6(8) . . . . ? 
C16A C17A C30A C29A 179.4(5) . . . . ? 
C18A C17A C30A C1A 179.3(5) . . . . ? 
C16A C17A C30A C1A 0.3(8) . . . . ? 
C30A C1A C31A C32A 168(10) . . . . ? 
C2A C1A C31A C32A -9(11) . . . . ? 
C1A C31A C32A Si1A 50(13) . . . . ? 
Si4A Si1A C32A C31A -83(3) . . . . ? 
Si5A Si1A C32A C31A 158(3) . . . . ? 
Si3A Si1A C32A C31A 37(3) . . . . ? 
C17A C16A C42A C43A 4(8) . . . . ? 
C15A C16A C42A C43A -175(100) . . . . ? 
C16A C42A C43A Si2A -32(11) . . . . ? 
Si6A Si2A C43A C42A 77(4) . . . . ? 
Si8A Si2A C43A C42A -165(4) . . . . ? 
Si7A Si2A C43A C42A -43(4) . . . . ? 
C17B Si1B Si2B C19B -76.6(5) . . . . ? 
Si4B Si1B Si2B C19B 166.2(4) . . . . ? 
Si3B Si1B Si2B C19B 35.9(4) . . . . ? 
C17B Si1B Si2B C20B 160.0(7) . . . . ? 
Si4B Si1B Si2B C20B 42.8(7) . . . . ? 
Si3B Si1B Si2B C20B -87.5(7) . . . . ? 
C17B Si1B Si2B C18B 43.2(5) . . . . ? 
Si4B Si1B Si2B C18B -74.0(5) . . . . ? 
Si3B Si1B Si2B C18B 155.7(5) . . . . ? 
C17B Si1B Si3B C22B 172.2(5) . . . . ? 
Si2B Si1B Si3B C22B 54.9(5) . . . . ? 
Si4B Si1B Si3B C22B -73.7(5) . . . . ? 
C17B Si1B Si3B C21B 51.4(4) . . . . ? 
Si2B Si1B Si3B C21B -65.9(4) . . . . ? 
Si4B Si1B Si3B C21B 165.5(4) . . . . ? 
C17B Si1B Si3B C23B -67.3(4) . . . . ? 
Si2B Si1B Si3B C23B 175.4(3) . . . . ? 
Si4B Si1B Si3B C23B 46.8(3) . . . . ? 
C17B Si1B Si4B C25B 46.2(4) . . . . ? 
Si2B Si1B Si4B C25B 165.3(4) . . . . ? 
Si3B Si1B Si4B C25B -64.8(4) . . . . ? 
C17B Si1B Si4B C26B -72.0(6) . . . . ? 
Si2B Si1B Si4B C26B 47.0(6) . . . . ? 
Si3B Si1B Si4B C26B 176.9(6) . . . . ? 
C17B Si1B Si4B C24B 163.4(6) . . . . ? 
Si2B Si1B Si4B C24B -77.6(5) . . . . ? 
Si3B Si1B Si4B C24B 52.3(5) . . . . ? 
C16B C1B C2B C3B -7.8(9) . . . . ? 
C15B C1B C2B C3B 174.7(5) 2_365 . . . ? 
C16B C1B C2B C15B 173.6(5) . . . . ? 
C15B C1B C2B C15B -3.9(9) 2_365 . . . ? 
C1B C2B C3B C4B 178.9(5) . . . . ? 
C15B C2B C3B C4B -2.5(9) . . . . ? 
C2B C3B C4B C5B 179.5(5) . . . . ? 
C2B C3B C4B C13B -1.7(9) . . . . ? 
C3B C4B C5B C6B 178.7(6) . . . . ? 
C13B C4B C5B C6B -0.1(8) . . . . ? 
C4B C5B C6B C7B 178.5(5) . . . . ? 
C4B C5B C6B C11B -1.3(9) . . . . ? 
C5B C6B C7B C8B -178.9(6) . . . . ? 
C11B C6B C7B C8B 0.8(9) . . . . ? 
C6B C7B C8B C9B -1.9(10) . . . . ? 
C7B C8B C9B C10B 1.1(11) . . . . ? 
C8B C9B C10B C11B 0.8(11) . . . . ? 
C9B C10B C11B C12B 177.2(6) . . . . ? 
C9B C10B C11B C6B -1.8(9) . . . . ? 
C5B C6B C11B C12B 1.8(9) . . . . ? 
C7B C6B C11B C12B -178.0(6) . . . . ? 
C5B C6B C11B C10B -179.2(6) . . . . ? 
C7B C6B C11B C10B 1.0(8) . . . . ? 
C10B C11B C12B C13B -179.8(6) . . . . ? 
C6B C11B C12B C13B -0.8(9) . . . . ? 
C11B C12B C13B C14B 177.2(6) . . . . ? 
C11B C12B C13B C4B -0.7(9) . . . . ? 
C3B C4B C13B C14B 4.4(8) . . . . ? 
C5B C4B C13B C14B -176.8(5) . . . . ? 
C3B C4B C13B C12B -177.7(6) . . . . ? 
C5B C4B C13B C12B 1.1(8) . . . . ? 
C12B C13B C14B C15B 179.4(6) . . . . ? 
C4B C13B C14B C15B -2.8(9) . . . . ? 
C13B C14B C15B C1B 177.5(5) . . . 2_365 ? 
C13B C14B C15B C2B -1.4(9) . . . . ? 
C3B C2B C15B C14B 4.1(8) . . . . ? 
C1B C2B C15B C14B -177.3(5) . . . . ? 
C3B C2B C15B C1B -174.8(5) . . . 2_365 ? 
C1B C2B C15B C1B 3.8(9) . . . 2_365 ? 
C2B C1B C16B C17B -44(8) . . . . ? 
C15B C1B C16B C17B 134(8) 2_365 . . . ? 
C1B C16B C17B Si1B 75(10) . . . . ? 
Si2B Si1B C17B C16B 173(5) . . . . ? 
Si4B Si1B C17B C16B -67(5) . . . . ? 
Si3B Si1B C17B C16B 53(5) . . . . ? 
C17C Si1C Si2C C18C 44.1(5) . . . . ? 
Si4C Si1C Si2C C18C -72.3(5) . . . . ? 
Si3C Si1C Si2C C18C 158.7(4) . . . . ? 
C17C Si1C Si2C C19C -73.6(4) . . . . ? 
Si4C Si1C Si2C C19C 169.9(4) . . . . ? 
Si3C Si1C Si2C C19C 40.9(4) . . . . ? 
C17C Si1C Si2C C20C 169.5(5) . . . . ? 
Si4C Si1C Si2C C20C 53.0(5) . . . . ? 
Si3C Si1C Si2C C20C -76.0(5) . . . . ? 
C17C Si1C Si3C C21C 57.2(6) . . . . ? 
Si4C Si1C Si3C C21C 171.8(6) . . . . ? 
Si2C Si1C Si3C C21C -59.7(6) . . . . ? 
C17C Si1C Si3C C22C -177.2(5) . . . . ? 
Si4C Si1C Si3C C22C -62.5(4) . . . . ? 
Si2C Si1C Si3C C22C 66.0(4) . . . . ? 
C17C Si1C Si3C C23C -57.5(6) . . . . ? 
Si4C Si1C Si3C C23C 57.1(6) . . . . ? 
Si2C Si1C Si3C C23C -174.4(5) . . . . ? 
C16C C1C C2C C3C 3.9(8) . . . . ? 
C15C C1C C2C C3C -177.1(5) 2_676 . . . ? 
C16C C1C C2C C15C -176.3(5) . . . . ? 
C15C C1C C2C C15C 2.6(9) 2_676 . . . ? 
C1C C2C C3C C4C -179.9(5) . . . . ? 
C15C C2C C3C C4C 0.3(8) . . . . ? 
C2C C3C C4C C5C -179.5(5) . . . . ? 
C2C C3C C4C C13C 1.8(9) . . . . ? 
C3C C4C C5C C6C -179.0(6) . . . . ? 
C13C C4C C5C C6C -0.3(9) . . . . ? 
C4C C5C C6C C7C -178.7(6) . . . . ? 
C4C C5C C6C C11C 1.3(9) . . . . ? 
C5C C6C C7C C8C 180.0(6) . . . . ? 
C11C C6C C7C C8C -0.1(9) . . . . ? 
C6C C7C C8C C9C -0.1(10) . . . . ? 
C7C C8C C9C C10C -0.2(10) . . . . ? 
C8C C9C C10C C11C 0.7(10) . . . . ? 
C9C C10C C11C C12C -179.6(6) . . . . ? 
C9C C10C C11C C6C -0.9(9) . . . . ? 
C5C C6C C11C C12C -0.8(8) . . . . ? 
C7C C6C C11C C12C 179.3(5) . . . . ? 
C5C C6C C11C C10C -179.5(6) . . . . ? 
C7C C6C C11C C10C 0.6(8) . . . . ? 
C10C C11C C12C C13C 177.8(6) . . . . ? 
C6C C11C C12C C13C -0.9(9) . . . . ? 
C11C C12C C13C C14C -178.1(6) . . . . ? 
C11C C12C C13C C4C 2.0(9) . . . . ? 
C3C C4C C13C C12C 177.4(5) . . . . ? 
C5C C4C C13C C12C -1.4(8) . . . . ? 
C3C C4C C13C C14C -2.5(8) . . . . ? 
C5C C4C C13C C14C 178.8(5) . . . . ? 
C12C C13C C14C C15C -178.8(5) . . . . ? 
C4C C13C C14C C15C 1.1(9) . . . . ? 
C13C C14C C15C C1C -177.9(5) . . . 2_676 ? 
C13C C14C C15C C2C 1.0(8) . . . . ? 
C3C C2C C15C C14C -1.8(8) . . . . ? 
C1C C2C C15C C14C 178.5(5) . . . . ? 
C3C C2C C15C C1C 177.2(5) . . . 2_676 ? 
C1C C2C C15C C1C -2.6(9) . . . 2_676 ? 
C2C C1C C16C C17C 45(11) . . . . ? 
C15C C1C C16C C17C -134(11) 2_676 . . . ? 
C1C C16C C17C Si1C -23(16) . . . . ? 
Si4C Si1C C17C C16C -47(6) . . . . ? 
Si2C Si1C C17C C16C -168(6) . . . . ? 
Si3C Si1C C17C C16C 72(6) . . . . ? 
C17C Si1C Si4C C25C 50.9(10) . . . . ? 
Si2C Si1C Si4C C25C 168.5(10) . . . . ? 
Si3C Si1C Si4C C25C -62.6(10) . . . . ? 
C17C Si1C Si4C C24C 169.5(4) . . . . ? 
Si2C Si1C Si4C C24C -72.9(4) . . . . ? 
Si3C Si1C Si4C C24C 56.0(4) . . . . ? 
C17C Si1C Si4C C26C -68.1(10) . . . . ? 
Si2C Si1C Si4C C26C 49.5(10) . . . . ? 
Si3C Si1C Si4C C26C 178.4(10) . . . . ? 
 
_diffrn_measured_fraction_theta_max    0.994 
_diffrn_reflns_theta_full              60.00 
_diffrn_measured_fraction_theta_full   0.994 
_refine_diff_density_max    0.805 
_refine_diff_density_min   -0.558 
_refine_diff_density_rms    0.060 
