 
data_x05108 
 
_audit_creation_method            SHELXL-97 
_chemical_name_systematic 
; 
 ? 
; 
_chemical_name_common             ? 
_chemical_melting_point           ? 
_chemical_formula_moiety          ? 
_chemical_formula_sum 
 'C40 H50 Se2 Si2' 
_chemical_formula_weight          744.90 
 
loop_ 
 _atom_type_symbol 
 _atom_type_description 
 _atom_type_scat_dispersion_real 
 _atom_type_scat_dispersion_imag 
 _atom_type_scat_source 
 'C'  'C'    .0181    .0091 
 'International Tables Vol C Tables 4.2.6.8 and 6.1.1.4' 
 'H'  'H'    .0000    .0000 
 'International Tables Vol C Tables 4.2.6.8 and 6.1.1.4' 
 'Si'  'Si'    .2541    .3302 
 'International Tables Vol C Tables 4.2.6.8 and 6.1.1.4' 
 'Se'  'Se'   -.7943   1.1372 
 'International Tables Vol C Tables 4.2.6.8 and 6.1.1.4' 
 
_symmetry_cell_setting            triclinic
_symmetry_space_group_name_H-M    'P -1'
 
loop_ 
 _symmetry_equiv_pos_as_xyz 
 'x, y, z' 
 '-x, -y, -z' 
 
_cell_length_a                    8.87380(1) 
_cell_length_b                    10.41360(1) 
_cell_length_c                    11.17370(1) 
_cell_angle_alpha                 67.9770(1) 
_cell_angle_beta                  82.5880(1) 
_cell_angle_gamma                 77.5300(1) 
_cell_volume                      933.303(16) 
_cell_formula_units_Z             1 
_cell_measurement_temperature     90.0(2) 
_cell_measurement_reflns_used     6126
_cell_measurement_theta_min       4.66
_cell_measurement_theta_max       67.96
 
_exptl_crystal_description        block
_exptl_crystal_colour             red
_exptl_crystal_size_max           0.18 
_exptl_crystal_size_mid           0.15 
_exptl_crystal_size_min           0.14 
_exptl_crystal_density_meas       ? 
_exptl_crystal_density_diffrn     1.325 
_exptl_crystal_density_method     'not measured' 
_exptl_crystal_F_000              386 
_exptl_absorpt_coefficient_mu     3.275 
_exptl_absorpt_correction_type    multi-scan
_exptl_absorpt_correction_T_min   0.5371 
_exptl_absorpt_correction_T_max   0.6570 
_exptl_absorpt_process_details    'SADABS in APEX2 (Bruker-Nonius, 2004)'
 
_exptl_special_details 
; 
 ? 
; 
 
_diffrn_ambient_temperature       90.0(2) 
_diffrn_radiation_wavelength      1.54178 
_diffrn_radiation_type            CuK\a 
_diffrn_radiation_source          'fine-focus rotating anode' 
_diffrn_radiation_monochromator   'graded multilayer optics'
_diffrn_measurement_device_type   'Bruker-Nonius X8 Proteum'
_diffrn_measurement_method        '\w and \f scans'
_diffrn_detector_area_resol_mean  18
_diffrn_standards_number          ? 
_diffrn_standards_interval_count  ? 
_diffrn_standards_interval_time   ? 
_diffrn_standards_decay_%         ? 
_diffrn_reflns_number             12135 
_diffrn_reflns_av_R_equivalents   0.0299 
_diffrn_reflns_av_sigmaI/netI     0.0266 
_diffrn_reflns_limit_h_min        -10 
_diffrn_reflns_limit_h_max        9 
_diffrn_reflns_limit_k_min        -12 
_diffrn_reflns_limit_k_max        12 
_diffrn_reflns_limit_l_min        -13 
_diffrn_reflns_limit_l_max        13 
_diffrn_reflns_theta_min          4.27 
_diffrn_reflns_theta_max          67.95 
_reflns_number_total              3288 
_reflns_number_gt                 3269 
_reflns_threshold_expression      >2\s(I)    
 
_computing_data_collection        'COLLECT (Nonius, 1998)'
_computing_cell_refinement        'SCALEPACK (Otwinowski & Minor, 1997)'
_computing_data_reduction         'DENZO-SMN (Otwinowski & Minor, 1997)'
_computing_structure_solution     'SHELXS-97 (Sheldrick, 1990)' 
_computing_structure_refinement   'SHELXL-97 (Sheldrick, 1997)' 
_computing_molecular_graphics     'XP in SHELXTL (Sheldrick, 1994)'
_computing_publication_material
; 
SHELX97-2 (Sheldrick, 1997) and local procedures 
; 
 
_refine_special_details 
; 
 Refinement of F^2^ against ALL reflections.  The weighted R-factor wR and 
 goodness of fit S are based on F^2^, conventional R-factors R are based 
 on F, with F set to zero for negative F^2^. The threshold expression of 
 F^2^ > 2sigma(F^2^) is used only for calculating R-factors(gt) etc. and is 
 not relevant to the choice of reflections for refinement.  R-factors based 
 on F^2^ are statistically about twice as large as those based on F, and R- 
 factors based on ALL data will be even larger. 
; 
 
_refine_ls_structure_factor_coef  Fsqd  
_refine_ls_matrix_type            full 
_refine_ls_weighting_scheme       calc  
_refine_ls_weighting_details 
 'calc w=1/[\s^2^(Fo^2^)+(0.0000P)^2^+1.9844P] where P=(Fo^2^+2Fc^2^)/3' 
_atom_sites_solution_primary      direct 
_atom_sites_solution_secondary    difmap 
_atom_sites_solution_hydrogens    geom 
_refine_ls_hydrogen_treatment     constr 
_refine_ls_extinction_method      SHELXL 
_refine_ls_extinction_coef        0.0089(7) 
_refine_ls_extinction_expression 
 'Fc^*^=kFc[1+0.001xFc^2^\l^3^/sin(2\q)]^-1/4^' 
_refine_ls_number_reflns          3288 
_refine_ls_number_parameters      216 
_refine_ls_number_restraints      10 
_refine_ls_R_factor_all           0.0445 
_refine_ls_R_factor_gt            0.0444 
_refine_ls_wR_factor_ref          0.1090 
_refine_ls_wR_factor_gt           0.1089 
_refine_ls_goodness_of_fit_ref    1.343 
_refine_ls_restrained_S_all       1.342 
_refine_ls_shift/su_max           0.007 
_refine_ls_shift/su_mean          0.002 
 
loop_ 
 _atom_site_label 
 _atom_site_type_symbol 
 _atom_site_fract_x 
 _atom_site_fract_y 
 _atom_site_fract_z 
 _atom_site_U_iso_or_equiv 
 _atom_site_adp_type 
 _atom_site_occupancy 
 _atom_site_symmetry_multiplicity 
 _atom_site_calc_flag 
 _atom_site_refinement_flags 
 _atom_site_disorder_assembly 
 _atom_site_disorder_group 
Si1 Si 0.04211(9) -0.38898(8) -0.27866(7) 0.0162(2) Uani 1 1 d . . . 
C1 C 0.0058(3) -0.0839(3) -0.0757(3) 0.0164(6) Uani 1 1 d . . . 
C2 C 0.1291(3) -0.0120(3) -0.0886(3) 0.0159(6) Uani 1 1 d . B . 
C3 C 0.2580(4) -0.0222(3) -0.1755(3) 0.0192(6) Uani 1 1 d . . . 
H3 H 0.2627 -0.0773 -0.2275 0.023 Uiso 1 1 calc R A 1 
C4 C 0.3760(3) 0.0476(3) -0.1848(3) 0.0192(6) Uani 0.6531(16) 1 d PD B 1 
Se5 Se 0.55785(7) 0.05002(6) -0.29387(6) 0.0209(2) Uani 0.6531(16) 1 d PD B 1 
C6 C 0.6140(6) 0.1659(5) -0.2178(5) 0.0208(10) Uani 0.6531(16) 1 d PD B 1 
H6 H 0.7085 0.2004 -0.2393 0.025 Uiso 0.6531(16) 1 calc PR B 1 
C7 C 0.5052(9) 0.1952(10) -0.1286(9) 0.0241(4) Uani 0.6531(16) 1 d PD B 1 
H7 H 0.5174 0.2535 -0.0837 0.029 Uiso 0.6531(16) 1 calc PR B 1 
C8 C 0.3715(3) 0.1317(3) -0.1075(3) 0.0187(6) Uani 0.6531(16) 1 d PD B 1 
C4' C 0.3760(3) 0.0476(3) -0.1848(3) 0.0192(6) Uani 0.3469(16) 1 d PD B 2 
C5' C 0.5180(14) 0.0385(14) -0.2613(13) 0.0209(2) Uani 0.3469(16) 1 d PD B 2 
H5' H 0.5400 -0.0155 -0.3157 0.025 Uiso 0.3469(16) 1 calc PR B 2 
C6' C 0.6181(11) 0.1142(10) -0.2490(9) 0.0208(10) Uani 0.3469(16) 1 d PD B 2 
H6' H 0.7158 0.1185 -0.2950 0.025 Uiso 0.3469(16) 1 calc PR B 2 
Se7' Se 0.54769(13) 0.21009(15) -0.13351(14) 0.0241(4) 
     Uani 0.3469(16) 1 d PD B 2 
C8' C 0.3715(3) 0.1317(3) -0.1075(3) 0.0187(6) Uani 0.3469(16) 1 d PD B 2 
C9 C 0.2466(3) 0.1442(3) -0.0235(3) 0.0173(6) Uani 1 1 d . . . 
H9 H 0.2432 0.2010 0.0266 0.021 Uiso 1 1 calc R B 1 
C10 C 0.1226(3) 0.0730(3) -0.0110(3) 0.0153(6) Uani 1 1 d . . . 
C11 C 0.0144(3) -0.1736(3) -0.1481(3) 0.0167(6) Uani 1 1 d . . . 
C12 C 0.0247(3) -0.2553(3) -0.2035(3) 0.0192(6) Uani 1 1 d . . . 
C13 C -0.0665(4) -0.5299(3) -0.1669(3) 0.0222(7) Uani 1 1 d . . . 
H13 H 0.0034 -0.5899 -0.0954 0.027 Uiso 1 1 calc R . . 
C14 C -0.2173(4) -0.4772(4) -0.1013(3) 0.0303(8) Uani 1 1 d . . . 
H14A H -0.2901 -0.4161 -0.1674 0.045 Uiso 1 1 calc R . . 
H14B H -0.1953 -0.4241 -0.0515 0.045 Uiso 1 1 calc R . . 
H14C H -0.2628 -0.5579 -0.0433 0.045 Uiso 1 1 calc R . . 
C15 C -0.0954(5) -0.6284(4) -0.2314(3) 0.0317(8) Uani 1 1 d . . . 
H15A H -0.1394 -0.7066 -0.1668 0.048 Uiso 1 1 calc R . . 
H15B H 0.0025 -0.6657 -0.2686 0.048 Uiso 1 1 calc R . . 
H15C H -0.1678 -0.5759 -0.3001 0.048 Uiso 1 1 calc R . . 
C16 C -0.0408(4) -0.2967(3) -0.4427(3) 0.0222(7) Uani 1 1 d . . . 
H16 H -0.0324 -0.3694 -0.4827 0.027 Uiso 1 1 calc R . . 
C17 C -0.2112(4) -0.2301(4) -0.4375(4) 0.0336(8) Uani 1 1 d . . . 
H17A H -0.2250 -0.1629 -0.3930 0.050 Uiso 1 1 calc R . . 
H17B H -0.2720 -0.3039 -0.3904 0.050 Uiso 1 1 calc R . . 
H17C H -0.2461 -0.1809 -0.5256 0.050 Uiso 1 1 calc R . . 
C18 C 0.0537(5) -0.1867(4) -0.5311(3) 0.0325(8) Uani 1 1 d . . . 
H18A H 0.0084 -0.1404 -0.6157 0.049 Uiso 1 1 calc R . . 
H18B H 0.1604 -0.2330 -0.5417 0.049 Uiso 1 1 calc R . . 
H18C H 0.0528 -0.1162 -0.4924 0.049 Uiso 1 1 calc R . . 
C19 C 0.2543(4) -0.4704(3) -0.2898(3) 0.0208(7) Uani 1 1 d . . . 
H19 H 0.2750 -0.5490 -0.2050 0.025 Uiso 1 1 calc R . . 
C20 C 0.2910(4) -0.5389(4) -0.3925(3) 0.0297(8) Uani 1 1 d . . . 
H20A H 0.2732 -0.4662 -0.4783 0.044 Uiso 1 1 calc R . . 
H20B H 0.2241 -0.6079 -0.3758 0.044 Uiso 1 1 calc R . . 
H20C H 0.3994 -0.5863 -0.3891 0.044 Uiso 1 1 calc R . . 
C21 C 0.3681(4) -0.3727(4) -0.3059(4) 0.0315(8) Uani 1 1 d . . . 
H21A H 0.4737 -0.4271 -0.2973 0.047 Uiso 1 1 calc R . . 
H21B H 0.3438 -0.3305 -0.2390 0.047 Uiso 1 1 calc R . . 
H21C H 0.3598 -0.2981 -0.3915 0.047 Uiso 1 1 calc R . . 
 
loop_ 
 _atom_site_aniso_label 
 _atom_site_aniso_U_11 
 _atom_site_aniso_U_22 
 _atom_site_aniso_U_33 
 _atom_site_aniso_U_23 
 _atom_site_aniso_U_13 
 _atom_site_aniso_U_12 
Si1 0.0181(4) 0.0170(4) 0.0161(4) -0.0089(3) -0.0005(3) -0.0032(3) 
C1 0.0190(15) 0.0148(14) 0.0159(14) -0.0067(11) -0.0027(11) -0.0007(11) 
C2 0.0151(15) 0.0154(14) 0.0163(14) -0.0051(11) -0.0019(11) -0.0014(11) 
C3 0.0215(16) 0.0189(15) 0.0184(15) -0.0098(12) 0.0000(12) -0.0008(12) 
C4 0.0169(15) 0.0179(14) 0.0196(15) -0.0053(12) 0.0011(12) 0.0000(12) 
Se5 0.0153(4) 0.0258(3) 0.0232(4) -0.0123(3) 0.0056(2) -0.0049(2) 
C6 0.017(2) 0.024(3) 0.025(3) -0.0088(19) -0.0020(19) -0.010(2) 
C7 0.0135(8) 0.0232(6) 0.0296(6) -0.0017(4) 0.0004(6) -0.0059(5) 
C8 0.0181(16) 0.0164(14) 0.0200(15) -0.0054(12) -0.0033(12) -0.0007(12) 
C4' 0.0169(15) 0.0179(14) 0.0196(15) -0.0053(12) 0.0011(12) 0.0000(12) 
C5' 0.0153(4) 0.0258(3) 0.0232(4) -0.0123(3) 0.0056(2) -0.0049(2) 
C6' 0.017(2) 0.024(3) 0.025(3) -0.0088(19) -0.0020(19) -0.010(2) 
Se7' 0.0135(8) 0.0232(6) 0.0296(6) -0.0017(4) 0.0004(6) -0.0059(5) 
C8' 0.0181(16) 0.0164(14) 0.0200(15) -0.0054(12) -0.0033(12) -0.0007(12) 
C9 0.0174(15) 0.0156(14) 0.0191(14) -0.0071(12) -0.0019(12) -0.0015(11) 
C10 0.0156(15) 0.0152(14) 0.0149(14) -0.0061(11) -0.0010(11) -0.0008(11) 
C11 0.0147(15) 0.0170(14) 0.0175(14) -0.0057(12) -0.0001(11) -0.0024(11) 
C12 0.0176(16) 0.0222(15) 0.0190(15) -0.0083(12) 0.0015(12) -0.0059(12) 
C13 0.0254(17) 0.0237(16) 0.0199(15) -0.0077(13) -0.0036(13) -0.0080(13) 
C14 0.0260(18) 0.039(2) 0.0289(18) -0.0128(15) 0.0017(14) -0.0122(15) 
C15 0.043(2) 0.0281(18) 0.0290(18) -0.0104(15) -0.0051(16) -0.0148(16) 
C16 0.0285(18) 0.0199(15) 0.0201(15) -0.0102(13) -0.0042(13) -0.0011(13) 
C17 0.0286(19) 0.041(2) 0.0295(18) -0.0137(16) -0.0096(15) 0.0045(16) 
C18 0.040(2) 0.0271(18) 0.0244(17) -0.0056(14) 0.0000(15) -0.0025(15) 
C19 0.0219(16) 0.0230(15) 0.0204(15) -0.0114(13) -0.0028(12) -0.0023(13) 
C20 0.0253(18) 0.0356(19) 0.0314(18) -0.0211(16) -0.0043(14) 0.0057(14) 
C21 0.0212(18) 0.038(2) 0.040(2) -0.0193(17) 0.0019(15) -0.0076(15) 
 
_geom_special_details 
; 
 All esds (except the esd in the dihedral angle between two l.s. planes) 
 are estimated using the full covariance matrix.  The cell esds are taken 
 into account individually in the estimation of esds in distances, angles 
 and torsion angles; correlations between esds in cell parameters are only 
 used when they are defined by crystal symmetry.  An approximate (isotropic) 
 treatment of cell esds is used for estimating esds involving l.s. planes. 
; 
 
loop_ 
 _geom_bond_atom_site_label_1 
 _geom_bond_atom_site_label_2 
 _geom_bond_distance 
 _geom_bond_site_symmetry_2 
 _geom_bond_publ_flag 
Si1 C12 1.849(3) . ? 
Si1 C16 1.883(3) . ? 
Si1 C13 1.889(3) . ? 
Si1 C19 1.900(3) . ? 
C1 C10 1.411(4) 2 ? 
C1 C2 1.418(4) . ? 
C1 C11 1.433(4) . ? 
C2 C3 1.414(4) . ? 
C2 C10 1.443(4) . ? 
C3 C4 1.372(4) . ? 
C3 H3 0.9500 . ? 
C4 C8 1.434(4) . ? 
C4 Se5 1.891(3) . ? 
Se5 C6 1.889(5) . ? 
C6 C7 1.368(10) . ? 
C6 H6 0.9500 . ? 
C7 C8 1.432(8) . ? 
C7 H7 0.9500 . ? 
C8 C9 1.373(4) . ? 
C5' C6' 1.358(13) . ? 
C5' H5' 0.9500 . ? 
C6' Se7' 1.882(9) . ? 
C6' H6' 0.9500 . ? 
C9 C10 1.419(4) . ? 
C9 H9 0.9500 . ? 
C10 C1 1.412(4) 2 ? 
C11 C12 1.209(4) . ? 
C13 C15 1.534(4) . ? 
C13 C14 1.536(5) . ? 
C13 H13 1.0000 . ? 
C14 H14A 0.9800 . ? 
C14 H14B 0.9800 . ? 
C14 H14C 0.9800 . ? 
C15 H15A 0.9800 . ? 
C15 H15B 0.9800 . ? 
C15 H15C 0.9800 . ? 
C16 C17 1.525(5) . ? 
C16 C18 1.531(5) . ? 
C16 H16 1.0000 . ? 
C17 H17A 0.9800 . ? 
C17 H17B 0.9800 . ? 
C17 H17C 0.9800 . ? 
C18 H18A 0.9800 . ? 
C18 H18B 0.9800 . ? 
C18 H18C 0.9800 . ? 
C19 C21 1.532(5) . ? 
C19 C20 1.533(4) . ? 
C19 H19 1.0000 . ? 
C20 H20A 0.9800 . ? 
C20 H20B 0.9800 . ? 
C20 H20C 0.9800 . ? 
C21 H21A 0.9800 . ? 
C21 H21B 0.9800 . ? 
C21 H21C 0.9800 . ? 
 
loop_ 
 _geom_angle_atom_site_label_1 
 _geom_angle_atom_site_label_2 
 _geom_angle_atom_site_label_3 
 _geom_angle 
 _geom_angle_site_symmetry_1 
 _geom_angle_site_symmetry_3 
 _geom_angle_publ_flag 
C12 Si1 C16 107.32(14) . . ? 
C12 Si1 C13 107.09(14) . . ? 
C16 Si1 C13 112.98(14) . . ? 
C12 Si1 C19 108.38(14) . . ? 
C16 Si1 C19 112.05(14) . . ? 
C13 Si1 C19 108.79(14) . . ? 
C10 C1 C2 121.2(3) 2 . ? 
C10 C1 C11 119.3(3) 2 . ? 
C2 C1 C11 119.5(3) . . ? 
C3 C2 C1 121.5(3) . . ? 
C3 C2 C10 119.5(3) . . ? 
C1 C2 C10 119.1(3) . . ? 
C4 C3 C2 120.0(3) . . ? 
C4 C3 H3 120.0 . . ? 
C2 C3 H3 120.0 . . ? 
C3 C4 C8 121.1(3) . . ? 
C3 C4 Se5 127.3(2) . . ? 
C8 C4 Se5 111.6(2) . . ? 
C6 Se5 C4 86.40(17) . . ? 
C7 C6 Se5 113.3(4) . . ? 
C7 C6 H6 123.4 . . ? 
Se5 C6 H6 123.4 . . ? 
C6 C7 C8 115.3(7) . . ? 
C6 C7 H7 122.4 . . ? 
C8 C7 H7 122.4 . . ? 
C9 C8 C7 126.7(5) . . ? 
C9 C8 C4 119.9(3) . . ? 
C7 C8 C4 113.4(5) . . ? 
C6' C5' H5' 123.0 . . ? 
C5' C6' Se7' 114.6(8) . . ? 
C5' C6' H6' 122.7 . . ? 
Se7' C6' H6' 122.7 . . ? 
C8 C9 C10 120.6(3) . . ? 
C8 C9 H9 119.7 . . ? 
C10 C9 H9 119.7 . . ? 
C1 C10 C9 121.3(3) 2 . ? 
C1 C10 C2 119.8(3) 2 . ? 
C9 C10 C2 119.0(3) . . ? 
C12 C11 C1 176.5(3) . . ? 
C11 C12 Si1 176.5(3) . . ? 
C15 C13 C14 110.2(3) . . ? 
C15 C13 Si1 112.6(2) . . ? 
C14 C13 Si1 115.7(2) . . ? 
C15 C13 H13 105.9 . . ? 
C14 C13 H13 105.9 . . ? 
Si1 C13 H13 105.9 . . ? 
C13 C14 H14A 109.5 . . ? 
C13 C14 H14B 109.5 . . ? 
H14A C14 H14B 109.5 . . ? 
C13 C14 H14C 109.5 . . ? 
H14A C14 H14C 109.5 . . ? 
H14B C14 H14C 109.5 . . ? 
C13 C15 H15A 109.5 . . ? 
C13 C15 H15B 109.5 . . ? 
H15A C15 H15B 109.5 . . ? 
C13 C15 H15C 109.5 . . ? 
H15A C15 H15C 109.5 . . ? 
H15B C15 H15C 109.5 . . ? 
C17 C16 C18 110.4(3) . . ? 
C17 C16 Si1 113.5(2) . . ? 
C18 C16 Si1 111.1(2) . . ? 
C17 C16 H16 107.2 . . ? 
C18 C16 H16 107.2 . . ? 
Si1 C16 H16 107.2 . . ? 
C16 C17 H17A 109.5 . . ? 
C16 C17 H17B 109.5 . . ? 
H17A C17 H17B 109.5 . . ? 
C16 C17 H17C 109.5 . . ? 
H17A C17 H17C 109.5 . . ? 
H17B C17 H17C 109.5 . . ? 
C16 C18 H18A 109.5 . . ? 
C16 C18 H18B 109.5 . . ? 
H18A C18 H18B 109.5 . . ? 
C16 C18 H18C 109.5 . . ? 
H18A C18 H18C 109.5 . . ? 
H18B C18 H18C 109.5 . . ? 
C21 C19 C20 110.5(3) . . ? 
C21 C19 Si1 115.2(2) . . ? 
C20 C19 Si1 112.7(2) . . ? 
C21 C19 H19 105.9 . . ? 
C20 C19 H19 105.9 . . ? 
Si1 C19 H19 105.9 . . ? 
C19 C20 H20A 109.5 . . ? 
C19 C20 H20B 109.5 . . ? 
H20A C20 H20B 109.5 . . ? 
C19 C20 H20C 109.5 . . ? 
H20A C20 H20C 109.5 . . ? 
H20B C20 H20C 109.5 . . ? 
C19 C21 H21A 109.5 . . ? 
C19 C21 H21B 109.5 . . ? 
H21A C21 H21B 109.5 . . ? 
C19 C21 H21C 109.5 . . ? 
H21A C21 H21C 109.5 . . ? 
H21B C21 H21C 109.5 . . ? 
 
loop_ 
 _geom_torsion_atom_site_label_1 
 _geom_torsion_atom_site_label_2 
 _geom_torsion_atom_site_label_3 
 _geom_torsion_atom_site_label_4 
 _geom_torsion 
 _geom_torsion_site_symmetry_1 
 _geom_torsion_site_symmetry_2 
 _geom_torsion_site_symmetry_3 
 _geom_torsion_site_symmetry_4 
 _geom_torsion_publ_flag 
C10 C1 C2 C3 -179.8(3) 2 . . . ? 
C11 C1 C2 C3 2.6(4) . . . . ? 
C10 C1 C2 C10 0.3(5) 2 . . . ? 
C11 C1 C2 C10 -177.3(3) . . . . ? 
C1 C2 C3 C4 -179.4(3) . . . . ? 
C10 C2 C3 C4 0.5(4) . . . . ? 
C2 C3 C4 C8 -0.1(4) . . . . ? 
C2 C3 C4 Se5 -179.7(2) . . . . ? 
C3 C4 Se5 C6 -179.0(3) . . . . ? 
C8 C4 Se5 C6 1.4(2) . . . . ? 
C4 Se5 C6 C7 -1.4(5) . . . . ? 
Se5 C6 C7 C8 1.1(9) . . . . ? 
C6 C7 C8 C9 179.9(5) . . . . ? 
C6 C7 C8 C4 0.0(9) . . . . ? 
C3 C4 C8 C9 -0.6(4) . . . . ? 
Se5 C4 C8 C9 179.0(2) . . . . ? 
C3 C4 C8 C7 179.2(5) . . . . ? 
Se5 C4 C8 C7 -1.1(5) . . . . ? 
C7 C8 C9 C10 -178.9(5) . . . . ? 
C4 C8 C9 C10 0.9(4) . . . . ? 
C8 C9 C10 C1 179.4(3) . . . 2 ? 
C8 C9 C10 C2 -0.4(4) . . . . ? 
C3 C2 C10 C1 179.8(3) . . . 2 ? 
C1 C2 C10 C1 -0.3(4) . . . 2 ? 
C3 C2 C10 C9 -0.3(4) . . . . ? 
C1 C2 C10 C9 179.6(3) . . . . ? 
C10 C1 C11 C12 -82(5) 2 . . . ? 
C2 C1 C11 C12 95(5) . . . . ? 
C1 C11 C12 Si1 13(9) . . . . ? 
C16 Si1 C12 C11 162(4) . . . . ? 
C13 Si1 C12 C11 41(5) . . . . ? 
C19 Si1 C12 C11 -77(5) . . . . ? 
C12 Si1 C13 C15 166.1(2) . . . . ? 
C16 Si1 C13 C15 48.1(3) . . . . ? 
C19 Si1 C13 C15 -77.0(3) . . . . ? 
C12 Si1 C13 C14 38.2(3) . . . . ? 
C16 Si1 C13 C14 -79.7(3) . . . . ? 
C19 Si1 C13 C14 155.2(2) . . . . ? 
C12 Si1 C16 C17 -61.2(3) . . . . ? 
C13 Si1 C16 C17 56.6(3) . . . . ? 
C19 Si1 C16 C17 179.9(2) . . . . ? 
C12 Si1 C16 C18 63.9(3) . . . . ? 
C13 Si1 C16 C18 -178.3(2) . . . . ? 
C19 Si1 C16 C18 -55.0(3) . . . . ? 
C12 Si1 C19 C21 -30.3(3) . . . . ? 
C16 Si1 C19 C21 87.9(3) . . . . ? 
C13 Si1 C19 C21 -146.4(2) . . . . ? 
C12 Si1 C19 C20 -158.4(2) . . . . ? 
C16 Si1 C19 C20 -40.1(3) . . . . ? 
C13 Si1 C19 C20 85.5(3) . . . . ? 
 
_diffrn_measured_fraction_theta_max     .965 
_diffrn_reflns_theta_full              67.95 
_diffrn_measured_fraction_theta_full    .965 
_refine_diff_density_max     .320 
_refine_diff_density_min    -.478 
_refine_diff_density_rms     .087 
