 
data_x13009sx 
 
_audit_creation_method            SHELXL-97 
_chemical_name_systematic 
; 
 ? 
; 
_chemical_name_common             ? 
_chemical_melting_point           ? 
_chemical_formula_moiety 
 'C60 H76 F2 S2 Si2' 
_chemical_formula_sum 
 'C60 H76 F2 S2 Si2' 
_chemical_formula_weight          955.51 
 
loop_ 
 _atom_type_symbol 
 _atom_type_description 
 _atom_type_scat_dispersion_real 
 _atom_type_scat_dispersion_imag 
 _atom_type_scat_source 
 'C'  'C'   0.0181   0.0091 
 'International Tables Vol C Tables 4.2.6.8 and 6.1.1.4' 
 'H'  'H'   0.0000   0.0000 
 'International Tables Vol C Tables 4.2.6.8 and 6.1.1.4' 
 'F'  'F'   0.0727   0.0534 
 'International Tables Vol C Tables 4.2.6.8 and 6.1.1.4' 
 'Si'  'Si'   0.2541   0.3302 
 'International Tables Vol C Tables 4.2.6.8 and 6.1.1.4' 
 'S'  'S'   0.3331   0.5567 
 'International Tables Vol C Tables 4.2.6.8 and 6.1.1.4' 
 
_symmetry_cell_setting            triclinic 
_symmetry_space_group_name_H-M    'P -1' 
_symmetry_space_group_name_Hall   '-P 1' 
 
loop_ 
 _symmetry_equiv_pos_as_xyz 
 'x, y, z' 
 '-x, -y, -z' 
 
_cell_length_a                    9.0185(2) 
_cell_length_b                    11.1498(2) 
_cell_length_c                    13.6960(3) 
_cell_angle_alpha                 84.062(1) 
_cell_angle_beta                  89.316(1) 
_cell_angle_gamma                 81.541(1) 
_cell_volume                      1354.90(5) 
_cell_formula_units_Z             1 
_cell_measurement_temperature     90.0(2) 
_cell_measurement_reflns_used     8263 
_cell_measurement_theta_min       3.24 
_cell_measurement_theta_max       67.51 
 
_exptl_crystal_description        plate 
_exptl_crystal_colour             green 
_exptl_crystal_size_max           0.28 
_exptl_crystal_size_mid           0.15 
_exptl_crystal_size_min           0.02 
_exptl_crystal_density_meas       ? 
_exptl_crystal_density_diffrn     1.171 
_exptl_crystal_density_method     'not measured' 
_exptl_crystal_F_000              514 
_exptl_absorpt_coefficient_mu     1.647 
_exptl_absorpt_correction_type    multi-scan 
_exptl_absorpt_correction_T_min   0.767 
_exptl_absorpt_correction_T_max   0.968 
_exptl_absorpt_process_details    'Sadabs in APEX2 (BrukerAXS, 2006)' 
 
_exptl_special_details 
; 
 ? 
; 
 
_diffrn_ambient_temperature       90.0(2) 
_diffrn_radiation_wavelength      1.54178 
_diffrn_radiation_type            CuK\a 
_diffrn_radiation_source          'fine-focus rotating anode' 
_diffrn_radiation_monochromator   'graded multilayer optics' 
_diffrn_measurement_device_type   'Bruker X8 Proteum diffractometer'
_diffrn_measurement_method        '\f and \w scans'            
_diffrn_detector_area_resol_mean  5.6
_diffrn_standards_number          0 
_diffrn_standards_interval_count  . 
_diffrn_standards_interval_time   . 
_diffrn_standards_decay_%         ? 
_diffrn_reflns_number             17831 
_diffrn_reflns_av_R_equivalents   0.0403 
_diffrn_reflns_av_sigmaI/netI     0.0335 
_diffrn_reflns_limit_h_min        -9 
_diffrn_reflns_limit_h_max        10 
_diffrn_reflns_limit_k_min        -13 
_diffrn_reflns_limit_k_max        13 
_diffrn_reflns_limit_l_min        -16 
_diffrn_reflns_limit_l_max        15 
_diffrn_reflns_theta_min          3.24 
_diffrn_reflns_theta_max          67.66 
_reflns_number_total              4811 
_reflns_number_gt                 3806 
_reflns_threshold_expression      >2\s(I)    
 
_computing_data_collection        'APEX2 (Bruker-AXS, 2006)'            
_computing_cell_refinement        'APEX2'
_computing_data_reduction         'APEX2'
_computing_structure_solution     'SHELXS-97 (Sheldrick, 2008)' 
_computing_structure_refinement   'SHELXL-97 (Sheldrick, 2008)' 
_computing_molecular_graphics     'XP in SHELXTL (Sheldrick, 2008)'
_computing_publication_material
; 
SHELX-97 (Sheldrick, 2008) and local procedures 
; 
 
_publ_section_exptl_refinement
;
H atoms were found in difference Fourier maps and subsequently placed 
in idealized positions with constrained distances of 0.98 \%A (RCH~3~), 
0.99 \%A (R~2~CH~2~), 1.00 \%A (R~3~CH), 0.95 \%A (C~sp2~H), and with 
U~iso~(H) values set to either 1.2U~eq~ or 1.5U~eq~ (RCH~3~) of the 
attached atom. 

To ensure satisfactory refinement of the disordered parts of the structure, 
a combination of constraints and restraints were needed.  The constraints 
(SHELXL97 commands EXYZ and EADP) were used to make the coordinates and/or 
displacement parameters of superimposed atoms equal.  The restraints 
(SHELXL97 commands SAME, DELU) were used to ensure similar geometries and 
displacement parameters of overlapping, chemically similar groups. 
;

_refine_special_details 
; 
Refinement of F^2^ against all reflections.  The weighted R-value wR and 
goodness of fit S are based on F^2^. Conventional R-values R are based 
on F, with F set to zero for negative F^2^.  The threshold expression of 
F^2^ > 2\s(F^2^) is used only for calculating R-factors(gt) etc. and is 
not relevant to the choice of reflections for refinement.  R-values based 
on F^2^ are statistically about twice as large as those based on F, and  
R-values based on ALL data will be even larger. 
; 
 
_refine_ls_structure_factor_coef  Fsqd  
_refine_ls_matrix_type            full 
_refine_ls_weighting_scheme       calc  
_refine_ls_weighting_details 
 'calc w=1/[\s^2^(Fo^2^)+(0.1396P)^2^+1.7680P] where P=(Fo^2^+2Fc^2^)/3' 
_atom_sites_solution_primary      direct 
_atom_sites_solution_secondary    difmap 
_atom_sites_solution_hydrogens    geom 
_refine_ls_hydrogen_treatment     constr 
_refine_ls_extinction_method      none 
_refine_ls_extinction_coef        ? 
_refine_ls_number_reflns          4811 
_refine_ls_number_parameters      349 
_refine_ls_number_restraints      82 
_refine_ls_R_factor_all           0.1006 
_refine_ls_R_factor_gt            0.0831 
_refine_ls_wR_factor_ref          0.2602 
_refine_ls_wR_factor_gt           0.2387 
_refine_ls_goodness_of_fit_ref    1.085 
_refine_ls_restrained_S_all       1.089 
_refine_ls_shift/su_max           0.000 
_refine_ls_shift/su_mean          0.000 
 
loop_ 
 _atom_site_label 
 _atom_site_type_symbol 
 _atom_site_fract_x 
 _atom_site_fract_y 
 _atom_site_fract_z 
 _atom_site_U_iso_or_equiv 
 _atom_site_adp_type 
 _atom_site_occupancy 
 _atom_site_symmetry_multiplicity 
 _atom_site_calc_flag 
 _atom_site_refinement_flags 
 _atom_site_disorder_assembly 
 _atom_site_disorder_group 
Si1 Si 0.51241(12) 0.86219(9) 0.78360(8) 0.0472(3) Uani 1 1 d . . . 
C1 C 0.5014(4) 0.5889(3) 0.5670(2) 0.0354(7) Uani 1 1 d . . . 
C2 C 0.6222(4) 0.5685(3) 0.5010(2) 0.0345(7) Uani 1 1 d . . . 
C3 C 0.7451(4) 0.6321(3) 0.5001(2) 0.0360(7) Uani 1 1 d . . . 
H3 H 0.7467 0.6913 0.5452 0.043 Uiso 1 1 calc R . . 
C4 C 0.8649(4) 0.6122(3) 0.4362(2) 0.0366(7) Uani 1 1 d . B . 
C5 C 0.9893(4) 0.6764(3) 0.4369(3) 0.0394(8) Uani 1 1 d . . . 
H5 H 0.9925 0.7350 0.4822 0.047 Uiso 1 1 calc R A 1 
C6 C 1.1040(4) 0.6543(3) 0.3731(3) 0.0411(8) Uani 0.602(3) 1 d PDU B 1 
S7 S 1.2649(3) 0.7237(2) 0.35755(19) 0.0442(5) Uani 0.602(3) 1 d PDU B 1 
C8 C 1.3255(8) 0.6313(7) 0.2643(6) 0.0463(15) Uani 0.602(3) 1 d PDU B 1 
F1 F 1.4586(4) 0.6456(4) 0.2244(3) 0.0586(9) Uani 0.602(3) 1 d PDU B 1 
C9 C 1.233(2) 0.553(2) 0.2438(16) 0.0477(9) Uani 0.602(3) 1 d PDU B 1 
H9 H 1.2525 0.4966 0.1961 0.057 Uiso 0.602(3) 1 calc PR B 1 
C10 C 1.1018(4) 0.5659(3) 0.3035(3) 0.0414(8) Uani 0.602(3) 1 d PDU B 1 
C6' C 1.1040(4) 0.6543(3) 0.3731(3) 0.0411(8) Uani 0.398(3) 1 d PDU B 2 
C7' C 1.240(2) 0.7075(19) 0.3707(15) 0.0442(5) Uani 0.398(3) 1 d PDU B 2 
H7' H 1.2650 0.7615 0.4151 0.053 Uiso 0.398(3) 1 calc PR B 2 
F1' F 1.4622(7) 0.6972(7) 0.2688(5) 0.0586(9) Uani 0.398(3) 1 d PDU B 2 
C8' C 1.3252(12) 0.6696(11) 0.2971(9) 0.0463(15) Uani 0.398(3) 1 d PDU B 2 
S9' S 1.2592(7) 0.5597(7) 0.2325(5) 0.0477(9) Uani 0.398(3) 1 d PDU B 2 
C10' C 1.1018(4) 0.5659(3) 0.3035(3) 0.0414(8) Uani 0.398(3) 1 d PDU B 2 
C11 C 0.9841(4) 0.5024(3) 0.3009(3) 0.0406(8) Uani 1 1 d . . . 
H11 H 0.9835 0.4443 0.2549 0.049 Uiso 1 1 calc R B 1 
C12 C 0.8622(4) 0.5230(3) 0.3666(2) 0.0369(7) Uani 1 1 d . B . 
C13 C 0.7407(4) 0.4593(3) 0.3671(2) 0.0372(7) Uani 1 1 d . . . 
H13 H 0.7391 0.4007 0.3216 0.045 Uiso 1 1 calc R B . 
C14 C 0.6205(4) 0.4781(3) 0.4323(2) 0.0354(7) Uani 1 1 d . . . 
C15 C 0.5024(4) 0.6786(3) 0.6347(3) 0.0399(8) Uani 1 1 d . . . 
C16 C 0.5039(4) 0.7528(3) 0.6922(3) 0.0440(8) Uani 1 1 d . C . 
C17 C 0.4650(11) 0.7843(14) 0.904(3) 0.061(4) Uani 0.733(7) 1 d PDU C 1 
H17 H 0.4496 0.8487 0.9506 0.073 Uiso 0.733(7) 1 calc PR C 1 
C18 C 0.3119(8) 0.7404(8) 0.8951(5) 0.0742(18) Uani 0.733(7) 1 d PDU C 1 
H18A H 0.2396 0.8095 0.8651 0.089 Uiso 0.733(7) 1 calc PR C 1 
H18B H 0.3226 0.6761 0.8498 0.089 Uiso 0.733(7) 1 calc PR C 1 
C19 C 0.2463(10) 0.6904(9) 0.9916(6) 0.095(2) Uani 0.733(7) 1 d PDU C 1 
H19A H 0.2342 0.7540 1.0376 0.114 Uiso 0.733(7) 1 calc PR C 1 
H19B H 0.3164 0.6200 1.0217 0.114 Uiso 0.733(7) 1 calc PR C 1 
C20 C 0.0929(13) 0.6500(13) 0.9745(10) 0.125(5) Uani 0.733(7) 1 d PDU C 1 
H20A H 0.0141 0.7210 0.9723 0.188 Uiso 0.733(7) 1 calc PR C 1 
H20B H 0.0725 0.5896 1.0282 0.188 Uiso 0.733(7) 1 calc PR C 1 
H20C H 0.0945 0.6140 0.9121 0.188 Uiso 0.733(7) 1 calc PR C 1 
C21 C 0.5871(14) 0.6853(15) 0.9507(9) 0.084(3) Uani 0.733(7) 1 d PDU C 1 
H21A H 0.5660 0.6680 1.0207 0.126 Uiso 0.733(7) 1 calc PR C 1 
H21B H 0.6848 0.7137 0.9430 0.126 Uiso 0.733(7) 1 calc PR C 1 
H21C H 0.5886 0.6110 0.9180 0.126 Uiso 0.733(7) 1 calc PR C 1 
C17' C 0.477(3) 0.788(4) 0.916(8) 0.061(4) Uani 0.267(7) 1 d PDU C 2 
H17' H 0.5149 0.8392 0.9633 0.073 Uiso 0.267(7) 1 calc PR C 2 
C18' C 0.315(2) 0.7717(18) 0.9467(15) 0.0742(18) Uani 0.267(7) 1 d PDU C 2 
H18C H 0.3088 0.7609 1.0192 0.089 Uiso 0.267(7) 1 calc PR C 2 
H18D H 0.2459 0.8461 0.9230 0.089 Uiso 0.267(7) 1 calc PR C 2 
C19' C 0.267(3) 0.664(2) 0.9060(15) 0.095(2) Uani 0.267(7) 1 d PDU C 2 
H19C H 0.3603 0.6106 0.8911 0.114 Uiso 0.267(7) 1 calc PR C 2 
H19D H 0.2188 0.6955 0.8419 0.114 Uiso 0.267(7) 1 calc PR C 2 
C20' C 0.165(4) 0.581(3) 0.957(3) 0.125(5) Uani 0.267(7) 1 d PDU C 2 
H20D H 0.1451 0.5215 0.9130 0.188 Uiso 0.267(7) 1 calc PR C 2 
H20E H 0.0708 0.6299 0.9739 0.188 Uiso 0.267(7) 1 calc PR C 2 
H20F H 0.2143 0.5388 1.0169 0.188 Uiso 0.267(7) 1 calc PR C 2 
C21' C 0.575(4) 0.662(5) 0.929(3) 0.084(3) Uani 0.267(7) 1 d PDU C 2 
H21D H 0.6794 0.6713 0.9132 0.126 Uiso 0.267(7) 1 calc PR C 2 
H21E H 0.5393 0.6086 0.8850 0.126 Uiso 0.267(7) 1 calc PR C 2 
H21F H 0.5691 0.6265 0.9972 0.126 Uiso 0.267(7) 1 calc PR C 2 
C22 C 0.3650(6) 0.9988(4) 0.7486(3) 0.0618(11) Uani 1 1 d . C . 
H22 H 0.2668 0.9671 0.7496 0.074 Uiso 1 1 calc R . . 
C23 C 0.3524(8) 1.0915(5) 0.8239(4) 0.0942(19) Uani 1 1 d . . . 
H23A H 0.3427 1.0474 0.8896 0.113 Uiso 1 1 calc R C . 
H23B H 0.4477 1.1258 0.8235 0.113 Uiso 1 1 calc R . . 
C24 C 0.2287(8) 1.1938(6) 0.8112(6) 0.103(2) Uani 1 1 d D C . 
H24A H 0.2269 1.2323 0.7427 0.124 Uiso 1 1 calc R . . 
H24B H 0.2441 1.2559 0.8553 0.124 Uiso 1 1 calc R . . 
C25 C 0.0841(9) 1.1490(7) 0.8344(6) 0.121(3) Uani 1 1 d D . . 
H25A H 0.0526 1.1101 0.7787 0.181 Uiso 1 1 calc R C . 
H25B H 0.0078 1.2177 0.8471 0.181 Uiso 1 1 calc R . . 
H25C H 0.0963 1.0896 0.8928 0.181 Uiso 1 1 calc R . . 
C26 C 0.3837(7) 1.0568(5) 0.6451(4) 0.0844(16) Uani 1 1 d . . . 
H26A H 0.2989 1.1210 0.6284 0.127 Uiso 1 1 calc R C . 
H26B H 0.3873 0.9947 0.5991 0.127 Uiso 1 1 calc R . . 
H26C H 0.4772 1.0921 0.6408 0.127 Uiso 1 1 calc R . . 
C27 C 0.6997(11) 0.9162(10) 0.7706(8) 0.057(2) Uani 0.601(7) 1 d PDU C 1 
H27 H 0.6975 0.9839 0.7165 0.069 Uiso 0.601(7) 1 calc PR C 1 
C28 C 0.8249(8) 0.8138(7) 0.7550(7) 0.0695(16) Uani 0.601(7) 1 d PDU C 1 
H28A H 0.7930 0.7673 0.7033 0.083 Uiso 0.601(7) 1 calc PR C 1 
H28B H 0.8379 0.7580 0.8164 0.083 Uiso 0.601(7) 1 calc PR C 1 
C29 C 0.9789(11) 0.8514(14) 0.7259(10) 0.090(3) Uani 0.601(7) 1 d PDU C 1 
H29A H 1.0213 0.8857 0.7814 0.109 Uiso 0.601(7) 1 calc PR C 1 
H29B H 1.0490 0.7790 0.7103 0.109 Uiso 0.601(7) 1 calc PR C 1 
C30 C 0.9601(16) 0.9470(11) 0.6360(10) 0.102(3) Uani 0.601(7) 1 d PDU C 1 
H30A H 0.9225 0.9115 0.5804 0.154 Uiso 0.601(7) 1 calc PR C 1 
H30B H 1.0572 0.9730 0.6190 0.154 Uiso 0.601(7) 1 calc PR C 1 
H30C H 0.8886 1.0176 0.6513 0.154 Uiso 0.601(7) 1 calc PR C 1 
C31 C 0.755(4) 0.9572(19) 0.8725(13) 0.093(8) Uani 0.601(7) 1 d PDU C 1 
H31A H 0.7676 0.8870 0.9226 0.140 Uiso 0.601(7) 1 calc PR C 1 
H31B H 0.6807 1.0218 0.8946 0.140 Uiso 0.601(7) 1 calc PR C 1 
H31C H 0.8515 0.9877 0.8620 0.140 Uiso 0.601(7) 1 calc PR C 1 
C27' C 0.725(2) 0.8767(16) 0.7911(11) 0.057(2) Uani 0.399(7) 1 d PDU C 2 
H27' H 0.7866 0.8016 0.8235 0.069 Uiso 0.399(7) 1 calc PR C 2 
C28' C 0.7848(12) 0.9190(11) 0.6908(9) 0.0695(16) Uani 0.399(7) 1 d PDU C 2 
H28C H 0.7673 1.0092 0.6809 0.083 Uiso 0.399(7) 1 calc PR C 2 
H28D H 0.7293 0.8883 0.6391 0.083 Uiso 0.399(7) 1 calc PR C 2 
C29' C 0.9558(15) 0.873(2) 0.6808(16) 0.090(3) Uani 0.399(7) 1 d PDU C 2 
H29C H 1.0076 0.8842 0.7418 0.109 Uiso 0.399(7) 1 calc PR C 2 
H29D H 0.9702 0.7849 0.6731 0.109 Uiso 0.399(7) 1 calc PR C 2 
C30' C 1.027(3) 0.9395(18) 0.5944(15) 0.102(3) Uani 0.399(7) 1 d PDU C 2 
H30D H 1.1330 0.9061 0.5907 0.154 Uiso 0.399(7) 1 calc PR C 2 
H30E H 1.0165 1.0265 0.6030 0.154 Uiso 0.399(7) 1 calc PR C 2 
H30F H 0.9759 0.9288 0.5337 0.154 Uiso 0.399(7) 1 calc PR C 2 
C31' C 0.733(6) 0.996(3) 0.847(2) 0.093(8) Uani 0.399(7) 1 d PDU C 2 
H31D H 0.6798 0.9894 0.9096 0.140 Uiso 0.399(7) 1 calc PR C 2 
H31E H 0.6870 1.0691 0.8060 0.140 Uiso 0.399(7) 1 calc PR C 2 
H31F H 0.8385 1.0032 0.8595 0.140 Uiso 0.399(7) 1 calc PR C 2 
 
loop_ 
 _atom_site_aniso_label 
 _atom_site_aniso_U_11 
 _atom_site_aniso_U_22 
 _atom_site_aniso_U_33 
 _atom_site_aniso_U_23 
 _atom_site_aniso_U_13 
 _atom_site_aniso_U_12 
Si1 0.0481(6) 0.0471(6) 0.0502(6) -0.0194(4) -0.0016(4) -0.0094(4) 
C1 0.0374(17) 0.0306(16) 0.0388(17) -0.0057(13) -0.0088(13) -0.0044(13) 
C2 0.0357(16) 0.0295(15) 0.0379(16) -0.0037(13) -0.0082(13) -0.0022(12) 
C3 0.0401(18) 0.0282(15) 0.0402(17) -0.0060(13) -0.0092(13) -0.0041(13) 
C4 0.0385(17) 0.0302(16) 0.0409(17) -0.0033(13) -0.0093(13) -0.0035(13) 
C5 0.0429(18) 0.0307(16) 0.0451(18) -0.0021(13) -0.0070(14) -0.0079(13) 
C6 0.0408(18) 0.0328(16) 0.0478(19) 0.0035(14) -0.0057(14) -0.0043(13) 
S7 0.0396(12) 0.0421(11) 0.0513(11) 0.0038(8) -0.0026(8) -0.0138(7) 
C8 0.042(2) 0.042(5) 0.053(5) 0.006(2) 0.001(3) -0.006(3) 
F1 0.0467(15) 0.069(3) 0.062(3) 0.0013(16) 0.0053(17) -0.0182(17) 
C9 0.042(2) 0.0492(14) 0.050(2) 0.0001(14) 0.0019(14) -0.0036(15) 
C10 0.0393(18) 0.0383(17) 0.0443(18) 0.0031(14) -0.0046(14) -0.0030(14) 
C6' 0.0408(18) 0.0328(16) 0.0478(19) 0.0035(14) -0.0057(14) -0.0043(13) 
C7' 0.0396(12) 0.0421(11) 0.0513(11) 0.0038(8) -0.0026(8) -0.0138(7) 
F1' 0.0467(15) 0.069(3) 0.062(3) 0.0013(16) 0.0053(17) -0.0182(17) 
C8' 0.042(2) 0.042(5) 0.053(5) 0.006(2) 0.001(3) -0.006(3) 
S9' 0.042(2) 0.0492(14) 0.050(2) 0.0001(14) 0.0019(14) -0.0036(15) 
C10' 0.0393(18) 0.0383(17) 0.0443(18) 0.0031(14) -0.0046(14) -0.0030(14) 
C11 0.0416(18) 0.0369(17) 0.0421(18) -0.0048(14) -0.0047(14) -0.0005(14) 
C12 0.0381(17) 0.0322(16) 0.0391(17) -0.0014(13) -0.0056(13) -0.0022(13) 
C13 0.0390(18) 0.0325(16) 0.0404(17) -0.0087(13) -0.0056(13) -0.0028(13) 
C14 0.0345(16) 0.0310(16) 0.0408(17) -0.0061(13) -0.0081(13) -0.0034(12) 
C15 0.0364(17) 0.0388(18) 0.0456(19) -0.0081(15) -0.0049(14) -0.0064(13) 
C16 0.0383(18) 0.0448(19) 0.052(2) -0.0129(16) -0.0024(15) -0.0089(14) 
C17 0.060(3) 0.063(3) 0.058(9) -0.009(3) 0.002(4) -0.001(2) 
C18 0.081(4) 0.091(5) 0.052(4) 0.008(4) 0.001(3) -0.027(3) 
C19 0.102(5) 0.119(6) 0.070(4) 0.003(4) 0.002(4) -0.048(5) 
C20 0.110(9) 0.159(11) 0.117(8) 0.011(9) 0.002(7) -0.073(8) 
C21 0.098(4) 0.093(8) 0.054(7) -0.012(4) -0.003(4) 0.013(4) 
C17' 0.060(3) 0.063(3) 0.058(9) -0.009(3) 0.002(4) -0.001(2) 
C18' 0.081(4) 0.091(5) 0.052(4) 0.008(4) 0.001(3) -0.027(3) 
C19' 0.102(5) 0.119(6) 0.070(4) 0.003(4) 0.002(4) -0.048(5) 
C20' 0.110(9) 0.159(11) 0.117(8) 0.011(9) 0.002(7) -0.073(8) 
C21' 0.098(4) 0.093(8) 0.054(7) -0.012(4) -0.003(4) 0.013(4) 
C22 0.073(3) 0.049(2) 0.062(3) -0.0145(19) -0.002(2) 0.000(2) 
C23 0.129(5) 0.068(3) 0.079(4) -0.021(3) -0.002(3) 0.016(3) 
C24 0.129(6) 0.071(4) 0.104(5) -0.020(3) -0.002(4) 0.009(4) 
C25 0.140(7) 0.089(5) 0.125(6) -0.008(4) -0.046(5) 0.014(4) 
C26 0.106(4) 0.067(3) 0.074(3) 0.000(3) 0.000(3) 0.004(3) 
C27 0.055(4) 0.060(7) 0.061(5) -0.016(4) -0.013(4) -0.012(4) 
C28 0.060(3) 0.064(4) 0.091(4) -0.029(3) -0.005(3) -0.017(3) 
C29 0.061(4) 0.073(7) 0.142(11) -0.018(7) -0.017(5) -0.018(4) 
C30 0.120(10) 0.089(5) 0.108(10) -0.031(6) 0.012(5) -0.038(6) 
C31 0.086(11) 0.119(15) 0.095(10) -0.057(12) 0.001(10) -0.049(13) 
C27' 0.055(4) 0.060(7) 0.061(5) -0.016(4) -0.013(4) -0.012(4) 
C28' 0.060(3) 0.064(4) 0.091(4) -0.029(3) -0.005(3) -0.017(3) 
C29' 0.061(4) 0.073(7) 0.142(11) -0.018(7) -0.017(5) -0.018(4) 
C30' 0.120(10) 0.089(5) 0.108(10) -0.031(6) 0.012(5) -0.038(6) 
C31' 0.086(11) 0.119(15) 0.095(10) -0.057(12) 0.001(10) -0.049(13) 
 
_geom_special_details 
; 
 All esds (except the esd in the dihedral angle between two l.s. planes) 
 are estimated using the full covariance matrix.  The cell esds are taken 
 into account individually in the estimation of esds in distances, angles 
 and torsion angles; correlations between esds in cell parameters are only 
 used when they are defined by crystal symmetry.  An approximate (isotropic) 
 treatment of cell esds is used for estimating esds involving l.s. planes. 
; 
 
loop_ 
 _geom_bond_atom_site_label_1 
 _geom_bond_atom_site_label_2 
 _geom_bond_distance 
 _geom_bond_site_symmetry_2 
 _geom_bond_publ_flag 
Si1 C16 1.845(4) . ? 
Si1 C17 1.86(3) . ? 
Si1 C27 1.875(12) . ? 
Si1 C22 1.893(4) . ? 
Si1 C27' 1.951(19) . ? 
Si1 C17' 1.96(9) . ? 
C1 C2 1.415(5) . ? 
C1 C14 1.416(4) 2_666 ? 
C1 C15 1.433(5) . ? 
C2 C3 1.400(5) . ? 
C2 C14 1.450(4) . ? 
C3 C4 1.389(5) . ? 
C3 H3 0.9500 . ? 
C4 C5 1.417(5) . ? 
C4 C12 1.451(5) . ? 
C5 C6 1.358(5) . ? 
C5 H5 0.9500 . ? 
C6 C10 1.442(5) . ? 
C6 S7 1.744(4) . ? 
S7 C8 1.755(7) . ? 
C8 F1 1.337(7) . ? 
C8 C9 1.345(18) . ? 
C9 C10 1.429(15) . ? 
C9 H9 0.9500 . ? 
C10 C11 1.362(5) . ? 
C7' C8' 1.327(19) . ? 
C7' H7' 0.9500 . ? 
F1' C8' 1.359(10) . ? 
C8' S9' 1.757(11) . ? 
C11 C12 1.420(5) . ? 
C11 H11 0.9500 . ? 
C12 C13 1.390(5) . ? 
C13 C14 1.402(5) . ? 
C13 H13 0.9500 . ? 
C14 C1 1.416(4) 2_666 ? 
C15 C16 1.202(5) . ? 
C17 C21 1.532(13) . ? 
C17 C18 1.542(12) . ? 
C17 H17 1.0000 . ? 
C18 C19 1.527(9) . ? 
C18 H18A 0.9900 . ? 
C18 H18B 0.9900 . ? 
C19 C20 1.544(12) . ? 
C19 H19A 0.9900 . ? 
C19 H19B 0.9900 . ? 
C20 H20A 0.9800 . ? 
C20 H20B 0.9800 . ? 
C20 H20C 0.9800 . ? 
C21 H21A 0.9800 . ? 
C21 H21B 0.9800 . ? 
C21 H21C 0.9800 . ? 
C17' C21' 1.539(19) . ? 
C17' C18' 1.55(2) . ? 
C17' H17' 1.0000 . ? 
C18' C19' 1.495(18) . ? 
C18' H18C 0.9900 . ? 
C18' H18D 0.9900 . ? 
C19' C20' 1.509(19) . ? 
C19' H19C 0.9900 . ? 
C19' H19D 0.9900 . ? 
C20' H20D 0.9800 . ? 
C20' H20E 0.9800 . ? 
C20' H20F 0.9800 . ? 
C21' H21D 0.9800 . ? 
C21' H21E 0.9800 . ? 
C21' H21F 0.9800 . ? 
C22 C26 1.514(7) . ? 
C22 C23 1.526(7) . ? 
C22 H22 1.0000 . ? 
C23 C24 1.471(9) . ? 
C23 H23A 0.9900 . ? 
C23 H23B 0.9900 . ? 
C24 C25 1.484(7) . ? 
C24 H24A 0.9900 . ? 
C24 H24B 0.9900 . ? 
C25 H25A 0.9800 . ? 
C25 H25B 0.9800 . ? 
C25 H25C 0.9800 . ? 
C26 H26A 0.9800 . ? 
C26 H26B 0.9800 . ? 
C26 H26C 0.9800 . ? 
C27 C28 1.512(11) . ? 
C27 C31 1.621(14) . ? 
C27 H27 1.0000 . ? 
C28 C29 1.545(12) . ? 
C28 H28A 0.9900 . ? 
C28 H28B 0.9900 . ? 
C29 C30 1.537(15) . ? 
C29 H29A 0.9900 . ? 
C29 H29B 0.9900 . ? 
C30 H30A 0.9800 . ? 
C30 H30B 0.9800 . ? 
C30 H30C 0.9800 . ? 
C31 H31A 0.9800 . ? 
C31 H31B 0.9800 . ? 
C31 H31C 0.9800 . ? 
C27' C28' 1.525(15) . ? 
C27' C31' 1.618(18) . ? 
C27' H27' 1.0000 . ? 
C28' C29' 1.561(15) . ? 
C28' H28C 0.9900 . ? 
C28' H28D 0.9900 . ? 
C29' C30' 1.514(18) . ? 
C29' H29C 0.9900 . ? 
C29' H29D 0.9900 . ? 
C30' H30D 0.9800 . ? 
C30' H30E 0.9800 . ? 
C30' H30F 0.9800 . ? 
C31' H31D 0.9800 . ? 
C31' H31E 0.9800 . ? 
C31' H31F 0.9800 . ? 
 
loop_ 
 _geom_angle_atom_site_label_1 
 _geom_angle_atom_site_label_2 
 _geom_angle_atom_site_label_3 
 _geom_angle 
 _geom_angle_site_symmetry_1 
 _geom_angle_site_symmetry_3 
 _geom_angle_publ_flag 
C16 Si1 C17 106.6(8) . . ? 
C16 Si1 C27 107.3(3) . . ? 
C17 Si1 C27 118.0(6) . . ? 
C16 Si1 C22 107.48(18) . . ? 
C17 Si1 C22 109.8(5) . . ? 
C27 Si1 C22 107.2(3) . . ? 
C16 Si1 C27' 104.2(5) . . ? 
C17 Si1 C27' 105.8(6) . . ? 
C27 Si1 C27' 15.5(6) . . ? 
C22 Si1 C27' 122.0(5) . . ? 
C16 Si1 C17' 111(2) . . ? 
C17 Si1 C17' 5(2) . . ? 
C27 Si1 C17' 112.9(15) . . ? 
C22 Si1 C17' 110.8(12) . . ? 
C27' Si1 C17' 101.1(14) . . ? 
C2 C1 C14 121.2(3) . 2_666 ? 
C2 C1 C15 119.5(3) . . ? 
C14 C1 C15 119.3(3) 2_666 . ? 
C3 C2 C1 122.2(3) . . ? 
C3 C2 C14 118.5(3) . . ? 
C1 C2 C14 119.3(3) . . ? 
C4 C3 C2 122.7(3) . . ? 
C4 C3 H3 118.7 . . ? 
C2 C3 H3 118.7 . . ? 
C3 C4 C5 122.1(3) . . ? 
C3 C4 C12 118.8(3) . . ? 
C5 C4 C12 119.1(3) . . ? 
C6 C5 C4 120.2(3) . . ? 
C6 C5 H5 119.9 . . ? 
C4 C5 H5 119.9 . . ? 
C5 C6 C10 121.0(3) . . ? 
C5 C6 S7 128.7(3) . . ? 
C10 C6 S7 110.3(3) . . ? 
C6 S7 C8 90.1(3) . . ? 
F1 C8 C9 128.3(9) . . ? 
F1 C8 S7 116.2(5) . . ? 
C9 C8 S7 115.5(8) . . ? 
C8 C9 C10 110.8(14) . . ? 
C8 C9 H9 124.6 . . ? 
C10 C9 H9 124.6 . . ? 
C11 C10 C9 126.4(8) . . ? 
C11 C10 C6 120.4(3) . . ? 
C9 C10 C6 113.2(8) . . ? 
C8' C7' H7' 125.2 . . ? 
C7' C8' F1' 129.0(10) . . ? 
C7' C8' S9' 115.8(9) . . ? 
F1' C8' S9' 115.0(7) . . ? 
C10 C11 C12 120.3(3) . . ? 
C10 C11 H11 119.9 . . ? 
C12 C11 H11 119.9 . . ? 
C13 C12 C11 122.1(3) . . ? 
C13 C12 C4 118.8(3) . . ? 
C11 C12 C4 119.1(3) . . ? 
C12 C13 C14 122.5(3) . . ? 
C12 C13 H13 118.7 . . ? 
C14 C13 H13 118.7 . . ? 
C13 C14 C1 121.9(3) . 2_666 ? 
C13 C14 C2 118.7(3) . . ? 
C1 C14 C2 119.5(3) 2_666 . ? 
C16 C15 C1 179.2(4) . . ? 
C15 C16 Si1 177.6(3) . . ? 
C21 C17 C18 113.6(8) . . ? 
C21 C17 Si1 115.7(13) . . ? 
C18 C17 Si1 108.5(17) . . ? 
C21 C17 H17 106.1 . . ? 
C18 C17 H17 106.1 . . ? 
Si1 C17 H17 106.1 . . ? 
C19 C18 C17 115.1(14) . . ? 
C19 C18 H18A 108.5 . . ? 
C17 C18 H18A 108.5 . . ? 
C19 C18 H18B 108.5 . . ? 
C17 C18 H18B 108.5 . . ? 
H18A C18 H18B 107.5 . . ? 
C18 C19 C20 111.0(8) . . ? 
C18 C19 H19A 109.4 . . ? 
C20 C19 H19A 109.4 . . ? 
C18 C19 H19B 109.4 . . ? 
C20 C19 H19B 109.4 . . ? 
H19A C19 H19B 108.0 . . ? 
C21' C17' C18' 108(2) . . ? 
C21' C17' Si1 107(5) . . ? 
C18' C17' Si1 119(5) . . ? 
C21' C17' H17' 107.3 . . ? 
C18' C17' H17' 107.3 . . ? 
Si1 C17' H17' 107.3 . . ? 
C19' C18' C17' 112(3) . . ? 
C19' C18' H18C 109.3 . . ? 
C17' C18' H18C 109.3 . . ? 
C19' C18' H18D 109.3 . . ? 
C17' C18' H18D 109.3 . . ? 
H18C C18' H18D 107.9 . . ? 
C18' C19' C20' 125(2) . . ? 
C18' C19' H19C 106.0 . . ? 
C20' C19' H19C 106.0 . . ? 
C18' C19' H19D 106.0 . . ? 
C20' C19' H19D 106.0 . . ? 
H19C C19' H19D 106.3 . . ? 
C19' C20' H20D 109.5 . . ? 
C19' C20' H20E 109.5 . . ? 
H20D C20' H20E 109.5 . . ? 
C19' C20' H20F 109.5 . . ? 
H20D C20' H20F 109.5 . . ? 
H20E C20' H20F 109.5 . . ? 
C17' C21' H21D 109.5 . . ? 
C17' C21' H21E 109.5 . . ? 
H21D C21' H21E 109.5 . . ? 
C17' C21' H21F 109.5 . . ? 
H21D C21' H21F 109.5 . . ? 
H21E C21' H21F 109.5 . . ? 
C26 C22 C23 112.3(4) . . ? 
C26 C22 Si1 113.0(3) . . ? 
C23 C22 Si1 112.3(3) . . ? 
C26 C22 H22 106.2 . . ? 
C23 C22 H22 106.2 . . ? 
Si1 C22 H22 106.2 . . ? 
C24 C23 C22 117.3(5) . . ? 
C24 C23 H23A 108.0 . . ? 
C22 C23 H23A 108.0 . . ? 
C24 C23 H23B 108.0 . . ? 
C22 C23 H23B 108.0 . . ? 
H23A C23 H23B 107.2 . . ? 
C23 C24 C25 109.8(6) . . ? 
C23 C24 H24A 109.7 . . ? 
C25 C24 H24A 109.7 . . ? 
C23 C24 H24B 109.7 . . ? 
C25 C24 H24B 109.7 . . ? 
H24A C24 H24B 108.2 . . ? 
C24 C25 H25A 109.5 . . ? 
C24 C25 H25B 109.5 . . ? 
H25A C25 H25B 109.5 . . ? 
C24 C25 H25C 109.5 . . ? 
H25A C25 H25C 109.5 . . ? 
H25B C25 H25C 109.5 . . ? 
C22 C26 H26A 109.5 . . ? 
C22 C26 H26B 109.5 . . ? 
H26A C26 H26B 109.5 . . ? 
C22 C26 H26C 109.5 . . ? 
H26A C26 H26C 109.5 . . ? 
H26B C26 H26C 109.5 . . ? 
C28 C27 C31 99.8(11) . . ? 
C28 C27 Si1 112.3(7) . . ? 
C31 C27 Si1 112.0(13) . . ? 
C28 C27 H27 110.8 . . ? 
C31 C27 H27 110.8 . . ? 
Si1 C27 H27 110.8 . . ? 
C27 C28 C29 116.4(9) . . ? 
C27 C28 H28A 108.2 . . ? 
C29 C28 H28A 108.2 . . ? 
C27 C28 H28B 108.2 . . ? 
C29 C28 H28B 108.2 . . ? 
H28A C28 H28B 107.3 . . ? 
C30 C29 C28 109.5(10) . . ? 
C30 C29 H29A 109.8 . . ? 
C28 C29 H29A 109.8 . . ? 
C30 C29 H29B 109.8 . . ? 
C28 C29 H29B 109.8 . . ? 
H29A C29 H29B 108.2 . . ? 
C28' C27' C31' 99.7(16) . . ? 
C28' C27' Si1 111.0(11) . . ? 
C31' C27' Si1 106(2) . . ? 
C28' C27' H27' 113.1 . . ? 
C31' C27' H27' 113.1 . . ? 
Si1 C27' H27' 113.1 . . ? 
C27' C28' C29' 111.9(12) . . ? 
C27' C28' H28C 109.2 . . ? 
C29' C28' H28C 109.2 . . ? 
C27' C28' H28D 109.2 . . ? 
C29' C28' H28D 109.2 . . ? 
H28C C28' H28D 107.9 . . ? 
C30' C29' C28' 112.8(16) . . ? 
C30' C29' H29C 109.0 . . ? 
C28' C29' H29C 109.0 . . ? 
C30' C29' H29D 109.0 . . ? 
C28' C29' H29D 109.0 . . ? 
H29C C29' H29D 107.8 . . ? 
C29' C30' H30D 109.5 . . ? 
C29' C30' H30E 109.5 . . ? 
H30D C30' H30E 109.5 . . ? 
C29' C30' H30F 109.5 . . ? 
H30D C30' H30F 109.5 . . ? 
H30E C30' H30F 109.5 . . ? 
C27' C31' H31D 109.5 . . ? 
C27' C31' H31E 109.5 . . ? 
H31D C31' H31E 109.5 . . ? 
C27' C31' H31F 109.5 . . ? 
H31D C31' H31F 109.5 . . ? 
H31E C31' H31F 109.5 . . ? 
 
loop_ 
 _geom_torsion_atom_site_label_1 
 _geom_torsion_atom_site_label_2 
 _geom_torsion_atom_site_label_3 
 _geom_torsion_atom_site_label_4 
 _geom_torsion 
 _geom_torsion_site_symmetry_1 
 _geom_torsion_site_symmetry_2 
 _geom_torsion_site_symmetry_3 
 _geom_torsion_site_symmetry_4 
 _geom_torsion_publ_flag 
C14 C1 C2 C3 -178.8(3) 2_666 . . . ? 
C15 C1 C2 C3 1.0(5) . . . . ? 
C14 C1 C2 C14 0.5(5) 2_666 . . . ? 
C15 C1 C2 C14 -179.7(3) . . . . ? 
C1 C2 C3 C4 179.5(3) . . . . ? 
C14 C2 C3 C4 0.1(5) . . . . ? 
C2 C3 C4 C5 -179.3(3) . . . . ? 
C2 C3 C4 C12 0.7(5) . . . . ? 
C3 C4 C5 C6 -179.9(3) . . . . ? 
C12 C4 C5 C6 0.1(5) . . . . ? 
C4 C5 C6 C10 0.1(5) . . . . ? 
C4 C5 C6 S7 178.0(3) . . . . ? 
C5 C6 S7 C8 180.0(4) . . . . ? 
C10 C6 S7 C8 -1.9(4) . . . . ? 
C6 S7 C8 F1 -178.1(6) . . . . ? 
C6 S7 C8 C9 0.4(13) . . . . ? 
F1 C8 C9 C10 179.5(10) . . . . ? 
S7 C8 C9 C10 1(2) . . . . ? 
C8 C9 C10 C11 178.9(9) . . . . ? 
C8 C9 C10 C6 -3(2) . . . . ? 
C5 C6 C10 C11 -0.2(5) . . . . ? 
S7 C6 C10 C11 -178.5(3) . . . . ? 
C5 C6 C10 C9 -178.7(12) . . . . ? 
S7 C6 C10 C9 3.0(12) . . . . ? 
C9 C10 C11 C12 178.4(13) . . . . ? 
C6 C10 C11 C12 0.1(5) . . . . ? 
C10 C11 C12 C13 -179.3(3) . . . . ? 
C10 C11 C12 C4 0.1(5) . . . . ? 
C3 C4 C12 C13 -0.8(5) . . . . ? 
C5 C4 C12 C13 179.2(3) . . . . ? 
C3 C4 C12 C11 179.9(3) . . . . ? 
C5 C4 C12 C11 -0.2(4) . . . . ? 
C11 C12 C13 C14 179.4(3) . . . . ? 
C4 C12 C13 C14 0.1(5) . . . . ? 
C12 C13 C14 C1 -179.0(3) . . . 2_666 ? 
C12 C13 C14 C2 0.7(5) . . . . ? 
C3 C2 C14 C13 -0.8(4) . . . . ? 
C1 C2 C14 C13 179.8(3) . . . . ? 
C3 C2 C14 C1 178.9(3) . . . 2_666 ? 
C1 C2 C14 C1 -0.5(5) . . . 2_666 ? 
C2 C1 C15 C16 -94(30) . . . . ? 
C14 C1 C15 C16 86(30) 2_666 . . . ? 
C1 C15 C16 Si1 19(36) . . . . ? 
C17 Si1 C16 C15 -58(8) . . . . ? 
C27 Si1 C16 C15 69(8) . . . . ? 
C22 Si1 C16 C15 -176(8) . . . . ? 
C27' Si1 C16 C15 53(8) . . . . ? 
C17' Si1 C16 C15 -55(8) . . . . ? 
C16 Si1 C17 C21 73.8(15) . . . . ? 
C27 Si1 C17 C21 -46.9(18) . . . . ? 
C22 Si1 C17 C21 -170.0(12) . . . . ? 
C27' Si1 C17 C21 -36.6(17) . . . . ? 
C17' Si1 C17 C21 -68(19) . . . . ? 
C16 Si1 C17 C18 -55.3(11) . . . . ? 
C27 Si1 C17 C18 -176.0(8) . . . . ? 
C22 Si1 C17 C18 60.9(13) . . . . ? 
C27' Si1 C17 C18 -165.7(11) . . . . ? 
C17' Si1 C17 C18 162(21) . . . . ? 
C21 C17 C18 C19 58(2) . . . . ? 
Si1 C17 C18 C19 -171.8(9) . . . . ? 
C17 C18 C19 C20 179.6(11) . . . . ? 
C16 Si1 C17' C21' 47(4) . . . . ? 
C17 Si1 C17' C21' 86(21) . . . . ? 
C27 Si1 C17' C21' -73(4) . . . . ? 
C22 Si1 C17' C21' 166(3) . . . . ? 
C27' Si1 C17' C21' -63(4) . . . . ? 
C16 Si1 C17' C18' -76(4) . . . . ? 
C17 Si1 C17' C18' -37(16) . . . . ? 
C27 Si1 C17' C18' 163(3) . . . . ? 
C22 Si1 C17' C18' 43(5) . . . . ? 
C27' Si1 C17' C18' 174(4) . . . . ? 
C21' C17' C18' C19' -44(7) . . . . ? 
Si1 C17' C18' C19' 78(3) . . . . ? 
C17' C18' C19' C20' 145(4) . . . . ? 
C16 Si1 C22 C26 -56.5(4) . . . . ? 
C17 Si1 C22 C26 -172.1(8) . . . . ? 
C27 Si1 C22 C26 58.6(5) . . . . ? 
C27' Si1 C22 C26 63.5(7) . . . . ? 
C17' Si1 C22 C26 -178(2) . . . . ? 
C16 Si1 C22 C23 175.3(4) . . . . ? 
C17 Si1 C22 C23 59.7(9) . . . . ? 
C27 Si1 C22 C23 -69.6(5) . . . . ? 
C27' Si1 C22 C23 -64.8(7) . . . . ? 
C17' Si1 C22 C23 54(2) . . . . ? 
C26 C22 C23 C24 59.0(8) . . . . ? 
Si1 C22 C23 C24 -172.4(5) . . . . ? 
C22 C23 C24 C25 71.0(8) . . . . ? 
C16 Si1 C27 C28 -41.2(8) . . . . ? 
C17 Si1 C27 C28 79.1(11) . . . . ? 
C22 Si1 C27 C28 -156.4(6) . . . . ? 
C27' Si1 C27 C28 39(2) . . . . ? 
C17' Si1 C27 C28 81(2) . . . . ? 
C16 Si1 C27 C31 -152.6(10) . . . . ? 
C17 Si1 C27 C31 -32.2(13) . . . . ? 
C22 Si1 C27 C31 92.3(11) . . . . ? 
C27' Si1 C27 C31 -72(3) . . . . ? 
C17' Si1 C27 C31 -30(2) . . . . ? 
C31 C27 C28 C29 -71.3(14) . . . . ? 
Si1 C27 C28 C29 169.9(8) . . . . ? 
C27 C28 C29 C30 -53.0(14) . . . . ? 
C16 Si1 C27' C28' 57.9(11) . . . . ? 
C17 Si1 C27' C28' 170.1(11) . . . . ? 
C27 Si1 C27' C28' -46(2) . . . . ? 
C22 Si1 C27' C28' -63.6(12) . . . . ? 
C17' Si1 C27' C28' 173(2) . . . . ? 
C16 Si1 C27' C31' 165.3(16) . . . . ? 
C17 Si1 C27' C31' -82.5(18) . . . . ? 
C27 Si1 C27' C31' 61(3) . . . . ? 
C22 Si1 C27' C31' 43.7(18) . . . . ? 
C17' Si1 C27' C31' -80(3) . . . . ? 
C31' C27' C28' C29' 96(3) . . . . ? 
Si1 C27' C28' C29' -152.2(14) . . . . ? 
C27' C28' C29' C30' -165.0(17) . . . . ? 
 
_diffrn_measured_fraction_theta_max    0.981 
_diffrn_reflns_theta_full              67.66 
_diffrn_measured_fraction_theta_full   0.981 
_refine_diff_density_max    0.619 
_refine_diff_density_min   -0.656 
_refine_diff_density_rms    0.077 
