 
data_k02202 
 
_audit_creation_method            SHELXL-97 
_chemical_name_systematic 
; 
 ? 
; 
_chemical_name_common             ? 
_chemical_melting_point           ? 
_chemical_formula_moiety          ? 
_chemical_formula_sum 
 'C32 H28 Cl2 Si2' 
_chemical_formula_weight          539.62 
 
loop_ 
 _atom_type_symbol 
 _atom_type_description 
 _atom_type_scat_dispersion_real 
 _atom_type_scat_dispersion_imag 
 _atom_type_scat_source 
 'C'  'C'   0.0033   0.0016 
 'International Tables Vol C Tables 4.2.6.8 and 6.1.1.4' 
 'H'  'H'   0.0000   0.0000 
 'International Tables Vol C Tables 4.2.6.8 and 6.1.1.4' 
 'Si'  'Si'   0.0817   0.0704 
 'International Tables Vol C Tables 4.2.6.8 and 6.1.1.4' 
 'Cl'  'Cl'   0.1484   0.1585 
 'International Tables Vol C Tables 4.2.6.8 and 6.1.1.4' 
 
_symmetry_cell_setting            triclinic
_symmetry_space_group_name_H-M    'P -1'
 
loop_ 
 _symmetry_equiv_pos_as_xyz 
 'x, y, z' 
 '-x, -y, -z' 
 
_cell_length_a                    6.1320(2) 
_cell_length_b                    14.9184(5) 
_cell_length_c                    15.4853(6) 
_cell_angle_alpha                 95.324(2) 
_cell_angle_beta                  100.997(2) 
_cell_angle_gamma                 100.363(2) 
_cell_volume                      1355.99(8) 
_cell_formula_units_Z             2 
_cell_measurement_temperature     90.0(2) 
_cell_measurement_reflns_used     29001
_cell_measurement_theta_min       1.00
_cell_measurement_theta_max       27.48
 
_exptl_crystal_description        rod
_exptl_crystal_colour             'deep blue'
_exptl_crystal_size_max           0.40 
_exptl_crystal_size_mid           0.20 
_exptl_crystal_size_min           0.15 
_exptl_crystal_density_meas       ? 
_exptl_crystal_density_diffrn     1.322 
_exptl_crystal_density_method     'not measured' 
_exptl_crystal_F_000              564 
_exptl_absorpt_coefficient_mu     0.348 
_exptl_absorpt_correction_type    none 
_exptl_absorpt_correction_T_min   ? 
_exptl_absorpt_correction_T_max   ? 
_exptl_absorpt_process_details    ? 
 
_exptl_special_details 
; 
 ? 
; 
 
_diffrn_ambient_temperature       90.0(2) 
_diffrn_radiation_wavelength      0.71073 
_diffrn_radiation_type            MoK\a 
_diffrn_radiation_source          'fine-focus sealed tube' 
_diffrn_radiation_monochromator   graphite 
_diffrn_measurement_device_type   'Nonius KappaCCD diffractometer' 
_diffrn_measurement_method        '\w scans at fixed \c = 55\%'
_diffrn_detector_area_resol_mean  18 
_diffrn_standards_number          ?
_diffrn_standards_interval_count  ? 
_diffrn_standards_interval_time   ? 
_diffrn_standards_decay_%         <1
_diffrn_reflns_number             12284 
_diffrn_reflns_av_R_equivalents   0.0503 
_diffrn_reflns_av_sigmaI/netI     0.0799 
_diffrn_reflns_limit_h_min        -7 
_diffrn_reflns_limit_h_max        7 
_diffrn_reflns_limit_k_min        -19 
_diffrn_reflns_limit_k_max        19 
_diffrn_reflns_limit_l_min        -20 
_diffrn_reflns_limit_l_max        20 
_diffrn_reflns_theta_min          1.40 
_diffrn_reflns_theta_max          27.48 
_reflns_number_total              6194 
_reflns_number_gt                 4603 
_reflns_threshold_expression      >2sigma(I) 
 
_computing_data_collection        'COLLECT (Nonius, 1998)' 
_computing_cell_refinement        'SCALEPACK (Otwinowski & Minor, 1997)'
_computing_data_reduction         'DENZO-SMN (Otwinowski & Minor, 1997)'
_computing_structure_solution     'SHELXS-97 (Sheldrick, 1990)' 
_computing_structure_refinement   'SHELXL-97 (Sheldrick, 1997)' 
_computing_molecular_graphics     'XP in Siemens SHELXTL (Sheldrick, 1994)'
_computing_publication_material   
;
SHELX97-2 (Sheldrick, 1997) and local procedures
;
 
_refine_special_details 
; 
 Refinement of F^2^ against ALL reflections.  The weighted R-factor wR and 
 goodness of fit S are based on F^2^, conventional R-factors R are based 
 on F, with F set to zero for negative F^2^. The threshold expression of 
 F^2^ > 2sigma(F^2^) is used only for calculating R-factors(gt) etc. and is 
 not relevant to the choice of reflections for refinement.  R-factors based 
 on F^2^ are statistically about twice as large as those based on F, and R- 
 factors based on ALL data will be even larger. 
; 
 
_refine_ls_structure_factor_coef  Fsqd  
_refine_ls_matrix_type            full 
_refine_ls_weighting_scheme       calc  
_refine_ls_weighting_details 
 'calc w=1/[\s^2^(Fo^2^)+(0.0389P)^2^+0.5290P] where P=(Fo^2^+2Fc^2^)/3' 
_atom_sites_solution_primary      direct 
_atom_sites_solution_secondary    difmap 
_atom_sites_solution_hydrogens    geom 
_refine_ls_hydrogen_treatment     mixed 
_refine_ls_extinction_method      none 
_refine_ls_extinction_coef        ? 
_refine_ls_number_reflns          6194 
_refine_ls_number_parameters      329 
_refine_ls_number_restraints      0 
_refine_ls_R_factor_all           0.0788 
_refine_ls_R_factor_gt            0.0496 
_refine_ls_wR_factor_ref          0.1078 
_refine_ls_wR_factor_gt           0.0990 
_refine_ls_goodness_of_fit_ref    1.033 
_refine_ls_restrained_S_all       1.033 
_refine_ls_shift/su_max           0.001 
_refine_ls_shift/su_mean          0.000 
 
loop_ 
 _atom_site_label 
 _atom_site_type_symbol 
 _atom_site_fract_x 
 _atom_site_fract_y 
 _atom_site_fract_z 
 _atom_site_U_iso_or_equiv 
 _atom_site_adp_type 
 _atom_site_occupancy 
 _atom_site_symmetry_multiplicity 
 _atom_site_calc_flag 
 _atom_site_refinement_flags 
 _atom_site_disorder_assembly 
 _atom_site_disorder_group 
Si1A Si 0.33551(10) 0.83493(4) 0.35462(4) 0.01597(15) Uani 1 1 d . . . 
Cl1A Cl 0.77525(9) 0.82109(4) 0.47340(4) 0.02728(16) Uani 1 1 d . . . 
C1A C 0.0657(3) 0.58043(13) 0.46192(13) 0.0119(4) Uani 1 1 d . . . 
C2A C -0.1576(3) 0.52817(13) 0.43188(13) 0.0130(4) Uani 1 1 d . . . 
C3A C -0.3170(3) 0.55300(13) 0.36442(13) 0.0140(5) Uani 1 1 d . . . 
H3A H -0.2735 0.6067 0.3382 0.017 Uiso 1 1 calc R . . 
C4A C -0.5350(3) 0.50123(13) 0.33549(13) 0.0142(5) Uani 1 1 d . . . 
C5A C -0.6987(3) 0.52579(14) 0.26719(13) 0.0170(5) Uani 1 1 d . . . 
H5A H -0.6574 0.5792 0.2402 0.020 Uiso 1 1 calc R . . 
C6A C -0.9115(4) 0.47411(14) 0.24045(14) 0.0182(5) Uani 1 1 d . . . 
H6A H -1.0172 0.4915 0.1950 0.022 Uiso 1 1 calc R . . 
C7A C -0.9774(4) 0.39364(14) 0.28040(14) 0.0194(5) Uani 1 1 d . . . 
H7A H -1.1264 0.3577 0.2609 0.023 Uiso 1 1 calc R . . 
C8A C -0.8295(3) 0.36814(14) 0.34571(14) 0.0167(5) Uani 1 1 d . . . 
H8A H -0.8769 0.3151 0.3723 0.020 Uiso 1 1 calc R . . 
C9A C -0.6020(3) 0.42038(13) 0.37520(13) 0.0130(4) Uani 1 1 d . . . 
C10A C -0.4478(3) 0.39502(13) 0.44183(13) 0.0132(4) Uani 1 1 d . . . 
H10A H -0.4941 0.3418 0.4683 0.016 Uiso 1 1 calc R . . 
C11A C -0.2246(3) 0.44611(13) 0.47125(13) 0.0122(4) Uani 1 1 d . . . 
C12A C 0.1359(3) 0.66270(14) 0.42430(13) 0.0131(4) Uani 1 1 d . . . 
C13A C 0.2019(3) 0.73243(14) 0.39543(14) 0.0155(5) Uani 1 1 d . . . 
C14A C 0.1380(4) 0.91396(16) 0.32762(18) 0.0321(6) Uani 1 1 d . . . 
H14A H 0.0092 0.8826 0.2804 0.048 Uiso 1 1 calc R . . 
H14B H 0.2176 0.9686 0.3076 0.048 Uiso 1 1 calc R . . 
H14C H 0.0830 0.9324 0.3806 0.048 Uiso 1 1 calc R . . 
C15A C 0.4497(4) 0.80024(15) 0.25743(14) 0.0220(5) Uani 1 1 d . . . 
H15A H 0.5579 0.7606 0.2741 0.033 Uiso 1 1 calc R . . 
H15B H 0.5267 0.8551 0.2369 0.033 Uiso 1 1 calc R . . 
H15C H 0.3250 0.7666 0.2097 0.033 Uiso 1 1 calc R . . 
C16A C 0.5750(4) 0.89498(14) 0.44851(15) 0.0225(5) Uani 1 1 d . . . 
H16A H 0.6519 0.9529 0.4316 0.027 Uiso 1 1 calc R . . 
H16B H 0.5146 0.9103 0.5017 0.027 Uiso 1 1 calc R . . 
Si1B Si 0.45966(10) 0.69013(4) 0.98199(4) 0.01498(15) Uani 1 1 d . . . 
Cl1B Cl 0.81634(10) 0.66207(4) 1.13878(4) 0.03225(17) Uani 1 1 d . . . 
C1B C 0.1124(3) 0.92706(13) 0.98023(13) 0.0128(4) Uani 1 1 d . . . 
C2B C -0.0917(3) 0.93402(13) 0.92242(13) 0.0124(4) Uani 1 1 d . . . 
C3B C -0.1851(3) 0.87225(13) 0.84414(13) 0.0142(4) Uani 1 1 d . . . 
H3B H -0.1082 0.8250 0.8294 0.017 Uiso 1 1 calc R . . 
C4B C -0.3857(3) 0.87817(13) 0.78785(13) 0.0134(4) Uani 1 1 d . . . 
C5B C -0.4792(3) 0.81698(14) 0.70720(14) 0.0179(5) Uani 1 1 d . . . 
H5B H -0.4014 0.7708 0.6905 0.022 Uiso 1 1 calc R . . 
C6B C -0.6784(4) 0.82408(14) 0.65408(14) 0.0190(5) Uani 1 1 d . . . 
H6B H -0.7362 0.7837 0.6001 0.023 Uiso 1 1 calc R . . 
C7B C -0.8001(4) 0.89136(14) 0.67882(14) 0.0188(5) Uani 1 1 d . . . 
H7B H -0.9407 0.8946 0.6420 0.023 Uiso 1 1 calc R . . 
C8B C -0.7172(3) 0.95122(14) 0.75467(13) 0.0168(5) Uani 1 1 d . . . 
H8B H -0.8010 0.9957 0.7703 0.020 Uiso 1 1 calc R . . 
C9B C -0.5059(3) 0.94823(13) 0.81119(13) 0.0133(4) Uani 1 1 d . . . 
C10B C -0.4140(3) 1.01065(13) 0.88706(13) 0.0140(5) Uani 1 1 d . . . 
H10B H -0.4929 1.0573 0.9015 0.017 Uiso 1 1 calc R . . 
C11B C -0.2067(3) 1.00700(13) 0.94350(13) 0.0124(4) Uani 1 1 d . . . 
C12B C 0.2196(3) 0.85061(13) 0.96558(13) 0.0127(4) Uani 1 1 d . . . 
C13B C 0.3123(3) 0.78610(14) 0.96112(13) 0.0163(5) Uani 1 1 d . . . 
C14B C 0.5578(4) 0.64206(15) 0.88526(14) 0.0217(5) Uani 1 1 d . . . 
H14D H 0.4304 0.5999 0.8449 0.033 Uiso 1 1 calc R . . 
H14E H 0.6777 0.6087 0.9055 0.033 Uiso 1 1 calc R . . 
H14F H 0.6173 0.6922 0.8541 0.033 Uiso 1 1 calc R . . 
C15B C 0.2677(4) 0.59990(15) 1.02192(15) 0.0235(5) Uani 1 1 d . . . 
H15D H 0.2246 0.6262 1.0750 0.035 Uiso 1 1 calc R . . 
H15E H 0.3458 0.5497 1.0365 0.035 Uiso 1 1 calc R . . 
H15F H 0.1313 0.5761 0.9754 0.035 Uiso 1 1 calc R . . 
C16B C 0.7136(4) 0.74539(15) 1.07281(14) 0.0222(5) Uani 1 1 d . . . 
H16C H 0.8364 0.7760 1.0459 0.027 Uiso 1 1 calc R . . 
H16D H 0.6712 0.7930 1.1116 0.027 Uiso 1 1 calc R . . 
 
loop_ 
 _atom_site_aniso_label 
 _atom_site_aniso_U_11 
 _atom_site_aniso_U_22 
 _atom_site_aniso_U_33 
 _atom_site_aniso_U_23 
 _atom_site_aniso_U_13 
 _atom_site_aniso_U_12 
Si1A 0.0142(3) 0.0131(3) 0.0227(3) 0.0074(2) 0.0058(3) 0.0035(2) 
Cl1A 0.0186(3) 0.0329(3) 0.0275(3) 0.0087(3) -0.0017(2) 0.0022(2) 
C1A 0.0155(11) 0.0093(10) 0.0129(10) 0.0019(8) 0.0073(9) 0.0033(8) 
C2A 0.0176(11) 0.0104(10) 0.0134(11) 0.0010(8) 0.0078(9) 0.0046(8) 
C3A 0.0185(12) 0.0111(10) 0.0141(11) 0.0022(8) 0.0071(9) 0.0036(9) 
C4A 0.0171(11) 0.0136(11) 0.0131(11) 0.0000(8) 0.0061(9) 0.0040(9) 
C5A 0.0215(12) 0.0154(11) 0.0159(11) 0.0021(9) 0.0057(9) 0.0065(9) 
C6A 0.0206(12) 0.0192(12) 0.0162(11) 0.0016(9) 0.0025(9) 0.0094(10) 
C7A 0.0147(11) 0.0195(12) 0.0233(12) -0.0011(9) 0.0041(10) 0.0036(9) 
C8A 0.0164(11) 0.0137(11) 0.0204(12) 0.0013(9) 0.0061(10) 0.0024(9) 
C9A 0.0151(11) 0.0109(10) 0.0145(11) -0.0011(8) 0.0061(9) 0.0050(8) 
C10A 0.0178(11) 0.0073(10) 0.0152(11) 0.0016(8) 0.0065(9) 0.0010(8) 
C11A 0.0144(11) 0.0113(10) 0.0119(10) -0.0012(8) 0.0059(9) 0.0031(8) 
C12A 0.0113(10) 0.0152(11) 0.0125(10) -0.0004(8) 0.0013(9) 0.0044(8) 
C13A 0.0119(11) 0.0155(11) 0.0190(11) 0.0024(9) 0.0017(9) 0.0044(9) 
C14A 0.0238(13) 0.0286(14) 0.0537(17) 0.0248(12) 0.0167(12) 0.0119(11) 
C15A 0.0235(13) 0.0196(12) 0.0220(12) 0.0055(9) 0.0055(10) -0.0003(10) 
C16A 0.0249(13) 0.0169(12) 0.0264(13) 0.0014(10) 0.0095(10) 0.0023(10) 
Si1B 0.0159(3) 0.0128(3) 0.0185(3) 0.0036(2) 0.0054(3) 0.0061(2) 
Cl1B 0.0276(3) 0.0410(4) 0.0331(4) 0.0142(3) 0.0031(3) 0.0184(3) 
C1B 0.0132(11) 0.0123(11) 0.0157(11) 0.0045(8) 0.0073(9) 0.0041(8) 
C2B 0.0135(11) 0.0103(10) 0.0154(11) 0.0036(8) 0.0072(9) 0.0027(8) 
C3B 0.0151(11) 0.0117(10) 0.0185(11) 0.0037(8) 0.0073(9) 0.0047(8) 
C4B 0.0136(11) 0.0128(11) 0.0146(11) 0.0037(8) 0.0055(9) 0.0009(8) 
C5B 0.0194(12) 0.0150(11) 0.0211(12) 0.0027(9) 0.0069(10) 0.0047(9) 
C6B 0.0210(12) 0.0183(12) 0.0154(11) -0.0001(9) 0.0027(10) 0.0004(9) 
C7B 0.0145(11) 0.0199(12) 0.0204(12) 0.0059(9) -0.0004(9) 0.0018(9) 
C8B 0.0161(11) 0.0158(11) 0.0205(12) 0.0058(9) 0.0052(9) 0.0052(9) 
C9B 0.0142(11) 0.0127(10) 0.0144(11) 0.0061(8) 0.0055(9) 0.0018(8) 
C10B 0.0149(11) 0.0117(10) 0.0180(11) 0.0042(8) 0.0079(9) 0.0036(8) 
C11B 0.0121(11) 0.0118(10) 0.0143(11) 0.0040(8) 0.0047(9) 0.0013(8) 
C12B 0.0116(11) 0.0141(11) 0.0110(10) 0.0005(8) 0.0021(9) -0.0007(9) 
C13B 0.0178(12) 0.0171(11) 0.0137(11) 0.0009(9) 0.0036(9) 0.0034(9) 
C14B 0.0240(13) 0.0184(12) 0.0260(13) 0.0024(9) 0.0094(10) 0.0087(10) 
C15B 0.0221(13) 0.0197(12) 0.0304(13) 0.0052(10) 0.0092(10) 0.0040(10) 
C16B 0.0230(13) 0.0228(12) 0.0226(12) 0.0076(10) 0.0039(10) 0.0080(10) 
 
_geom_special_details 
; 
 All esds (except the esd in the dihedral angle between two l.s. planes) 
 are estimated using the full covariance matrix.  The cell esds are taken 
 into account individually in the estimation of esds in distances, angles 
 and torsion angles; correlations between esds in cell parameters are only 
 used when they are defined by crystal symmetry.  An approximate (isotropic) 
 treatment of cell esds is used for estimating esds involving l.s. planes. 
; 
 
loop_ 
 _geom_bond_atom_site_label_1 
 _geom_bond_atom_site_label_2 
 _geom_bond_distance 
 _geom_bond_site_symmetry_2 
 _geom_bond_publ_flag 
Si1A C13A 1.826(2) . ? 
Si1A C15A 1.847(2) . ? 
Si1A C14A 1.856(2) . ? 
Si1A C16A 1.883(2) . ? 
Cl1A C16A 1.804(2) . ? 
C1A C2A 1.416(3) . ? 
C1A C11A 1.417(3) 2_566 ? 
C1A C12A 1.438(3) . ? 
C2A C3A 1.413(3) . ? 
C2A C11A 1.446(3) . ? 
C3A C4A 1.386(3) . ? 
C3A H3A 0.9500 . ? 
C4A C9A 1.434(3) . ? 
C4A C5A 1.435(3) . ? 
C5A C6A 1.357(3) . ? 
C5A H5A 0.9500 . ? 
C6A C7A 1.430(3) . ? 
C6A H6A 0.9500 . ? 
C7A C8A 1.355(3) . ? 
C7A H7A 0.9500 . ? 
C8A C9A 1.436(3) . ? 
C8A H8A 0.9500 . ? 
C9A C10A 1.390(3) . ? 
C10A C11A 1.408(3) . ? 
C10A H10A 0.9500 . ? 
C11A C1A 1.417(3) 2_566 ? 
C12A C13A 1.204(3) . ? 
C14A H14A 0.9800 . ? 
C14A H14B 0.9800 . ? 
C14A H14C 0.9800 . ? 
C15A H15A 0.9800 . ? 
C15A H15B 0.9800 . ? 
C15A H15C 0.9800 . ? 
C16A H16A 0.9900 . ? 
C16A H16B 0.9900 . ? 
Si1B C13B 1.847(2) . ? 
Si1B C14B 1.849(2) . ? 
Si1B C15B 1.855(2) . ? 
Si1B C16B 1.889(2) . ? 
Cl1B C16B 1.805(2) . ? 
C1B C2B 1.420(3) . ? 
C1B C11B 1.420(3) 2_577 ? 
C1B C12B 1.436(3) . ? 
C2B C3B 1.409(3) . ? 
C2B C11B 1.445(3) . ? 
C3B C4B 1.387(3) . ? 
C3B H3B 0.9500 . ? 
C4B C5B 1.431(3) . ? 
C4B C9B 1.441(3) . ? 
C5B C6B 1.364(3) . ? 
C5B H5B 0.9500 . ? 
C6B C7B 1.421(3) . ? 
C6B H6B 0.9500 . ? 
C7B C8B 1.360(3) . ? 
C7B H7B 0.9500 . ? 
C8B C9B 1.429(3) . ? 
C8B H8B 0.9500 . ? 
C9B C10B 1.386(3) . ? 
C10B C11B 1.411(3) . ? 
C10B H10B 0.9500 . ? 
C11B C1B 1.420(3) 2_577 ? 
C12B C13B 1.205(3) . ? 
C14B H14D 0.9800 . ? 
C14B H14E 0.9800 . ? 
C14B H14F 0.9800 . ? 
C15B H15D 0.9800 . ? 
C15B H15E 0.9800 . ? 
C15B H15F 0.9800 . ? 
C16B H16C 0.9900 . ? 
C16B H16D 0.9900 . ? 
 
loop_ 
 _geom_angle_atom_site_label_1 
 _geom_angle_atom_site_label_2 
 _geom_angle_atom_site_label_3 
 _geom_angle 
 _geom_angle_site_symmetry_1 
 _geom_angle_site_symmetry_3 
 _geom_angle_publ_flag 
C13A Si1A C15A 109.39(10) . . ? 
C13A Si1A C14A 112.23(10) . . ? 
C15A Si1A C14A 111.17(11) . . ? 
C13A Si1A C16A 105.42(10) . . ? 
C15A Si1A C16A 109.79(10) . . ? 
C14A Si1A C16A 108.67(11) . . ? 
C2A C1A C11A 121.67(17) . 2_566 ? 
C2A C1A C12A 119.92(17) . . ? 
C11A C1A C12A 118.42(17) 2_566 . ? 
C3A C2A C1A 122.35(18) . . ? 
C3A C2A C11A 118.81(18) . . ? 
C1A C2A C11A 118.85(17) . . ? 
C4A C3A C2A 121.81(18) . . ? 
C4A C3A H3A 119.1 . . ? 
C2A C3A H3A 119.1 . . ? 
C3A C4A C9A 119.35(18) . . ? 
C3A C4A C5A 122.39(18) . . ? 
C9A C4A C5A 118.26(18) . . ? 
C6A C5A C4A 121.17(19) . . ? 
C6A C5A H5A 119.4 . . ? 
C4A C5A H5A 119.4 . . ? 
C5A C6A C7A 120.3(2) . . ? 
C5A C6A H6A 119.9 . . ? 
C7A C6A H6A 119.9 . . ? 
C8A C7A C6A 120.7(2) . . ? 
C8A C7A H7A 119.6 . . ? 
C6A C7A H7A 119.6 . . ? 
C7A C8A C9A 120.70(19) . . ? 
C7A C8A H8A 119.7 . . ? 
C9A C8A H8A 119.7 . . ? 
C10A C9A C4A 119.66(18) . . ? 
C10A C9A C8A 121.49(18) . . ? 
C4A C9A C8A 118.84(18) . . ? 
C9A C10A C11A 121.79(18) . . ? 
C9A C10A H10A 119.1 . . ? 
C11A C10A H10A 119.1 . . ? 
C10A C11A C1A 121.94(18) . 2_566 ? 
C10A C11A C2A 118.57(18) . . ? 
C1A C11A C2A 119.48(17) 2_566 . ? 
C13A C12A C1A 177.5(2) . . ? 
C12A C13A Si1A 173.18(18) . . ? 
Si1A C14A H14A 109.5 . . ? 
Si1A C14A H14B 109.5 . . ? 
H14A C14A H14B 109.5 . . ? 
Si1A C14A H14C 109.5 . . ? 
H14A C14A H14C 109.5 . . ? 
H14B C14A H14C 109.5 . . ? 
Si1A C15A H15A 109.5 . . ? 
Si1A C15A H15B 109.5 . . ? 
H15A C15A H15B 109.5 . . ? 
Si1A C15A H15C 109.5 . . ? 
H15A C15A H15C 109.5 . . ? 
H15B C15A H15C 109.5 . . ? 
Cl1A C16A Si1A 109.57(11) . . ? 
Cl1A C16A H16A 109.8 . . ? 
Si1A C16A H16A 109.8 . . ? 
Cl1A C16A H16B 109.8 . . ? 
Si1A C16A H16B 109.8 . . ? 
H16A C16A H16B 108.2 . . ? 
C13B Si1B C14B 114.23(10) . . ? 
C13B Si1B C15B 108.14(10) . . ? 
C14B Si1B C15B 110.99(10) . . ? 
C13B Si1B C16B 102.79(9) . . ? 
C14B Si1B C16B 109.34(11) . . ? 
C15B Si1B C16B 111.09(10) . . ? 
C2B C1B C11B 120.32(17) . 2_577 ? 
C2B C1B C12B 120.73(18) . . ? 
C11B C1B C12B 118.86(17) 2_577 . ? 
C3B C2B C1B 121.92(18) . . ? 
C3B C2B C11B 118.69(18) . . ? 
C1B C2B C11B 119.39(18) . . ? 
C4B C3B C2B 122.17(19) . . ? 
C4B C3B H3B 118.9 . . ? 
C2B C3B H3B 118.9 . . ? 
C3B C4B C5B 122.55(19) . . ? 
C3B C4B C9B 119.06(18) . . ? 
C5B C4B C9B 118.38(18) . . ? 
C6B C5B C4B 120.9(2) . . ? 
C6B C5B H5B 119.5 . . ? 
C4B C5B H5B 119.5 . . ? 
C5B C6B C7B 120.48(19) . . ? 
C5B C6B H6B 119.8 . . ? 
C7B C6B H6B 119.8 . . ? 
C8B C7B C6B 120.62(19) . . ? 
C8B C7B H7B 119.7 . . ? 
C6B C7B H7B 119.7 . . ? 
C7B C8B C9B 121.0(2) . . ? 
C7B C8B H8B 119.5 . . ? 
C9B C8B H8B 119.5 . . ? 
C10B C9B C8B 122.00(19) . . ? 
C10B C9B C4B 119.42(18) . . ? 
C8B C9B C4B 118.58(18) . . ? 
C9B C10B C11B 122.01(19) . . ? 
C9B C10B H10B 119.0 . . ? 
C11B C10B H10B 119.0 . . ? 
C10B C11B C1B 121.20(18) . 2_577 ? 
C10B C11B C2B 118.54(18) . . ? 
C1B C11B C2B 120.26(17) 2_577 . ? 
C13B C12B C1B 174.3(2) . . ? 
C12B C13B Si1B 166.90(18) . . ? 
Si1B C14B H14D 109.5 . . ? 
Si1B C14B H14E 109.5 . . ? 
H14D C14B H14E 109.5 . . ? 
Si1B C14B H14F 109.5 . . ? 
H14D C14B H14F 109.5 . . ? 
H14E C14B H14F 109.5 . . ? 
Si1B C15B H15D 109.5 . . ? 
Si1B C15B H15E 109.5 . . ? 
H15D C15B H15E 109.5 . . ? 
Si1B C15B H15F 109.5 . . ? 
H15D C15B H15F 109.5 . . ? 
H15E C15B H15F 109.5 . . ? 
Cl1B C16B Si1B 111.67(11) . . ? 
Cl1B C16B H16C 109.3 . . ? 
Si1B C16B H16C 109.3 . . ? 
Cl1B C16B H16D 109.3 . . ? 
Si1B C16B H16D 109.3 . . ? 
H16C C16B H16D 107.9 . . ? 
 
loop_ 
 _geom_torsion_atom_site_label_1 
 _geom_torsion_atom_site_label_2 
 _geom_torsion_atom_site_label_3 
 _geom_torsion_atom_site_label_4 
 _geom_torsion 
 _geom_torsion_site_symmetry_1 
 _geom_torsion_site_symmetry_2 
 _geom_torsion_site_symmetry_3 
 _geom_torsion_site_symmetry_4 
 _geom_torsion_publ_flag 
C11A C1A C2A C3A -179.08(18) 2_566 . . . ? 
C12A C1A C2A C3A 0.9(3) . . . . ? 
C11A C1A C2A C11A 0.5(3) 2_566 . . . ? 
C12A C1A C2A C11A -179.53(17) . . . . ? 
C1A C2A C3A C4A 179.90(19) . . . . ? 
C11A C2A C3A C4A 0.3(3) . . . . ? 
C2A C3A C4A C9A 0.3(3) . . . . ? 
C2A C3A C4A C5A 179.84(19) . . . . ? 
C3A C4A C5A C6A -179.6(2) . . . . ? 
C9A C4A C5A C6A -0.1(3) . . . . ? 
C4A C5A C6A C7A 0.2(3) . . . . ? 
C5A C6A C7A C8A 0.4(3) . . . . ? 
C6A C7A C8A C9A -1.2(3) . . . . ? 
C3A C4A C9A C10A -0.1(3) . . . . ? 
C5A C4A C9A C10A -179.66(18) . . . . ? 
C3A C4A C9A C8A 178.97(18) . . . . ? 
C5A C4A C9A C8A -0.6(3) . . . . ? 
C7A C8A C9A C10A -179.7(2) . . . . ? 
C7A C8A C9A C4A 1.2(3) . . . . ? 
C4A C9A C10A C11A -0.7(3) . . . . ? 
C8A C9A C10A C11A -179.80(18) . . . . ? 
C9A C10A C11A C1A -178.89(19) . . . 2_566 ? 
C9A C10A C11A C2A 1.4(3) . . . . ? 
C3A C2A C11A C10A -1.1(3) . . . . ? 
C1A C2A C11A C10A 179.26(18) . . . . ? 
C3A C2A C11A C1A 179.11(18) . . . 2_566 ? 
C1A C2A C11A C1A -0.5(3) . . . 2_566 ? 
C2A C1A C12A C13A 167(5) . . . . ? 
C11A C1A C12A C13A -13(5) 2_566 . . . ? 
C1A C12A C13A Si1A 43(6) . . . . ? 
C15A Si1A C13A C12A 64.0(16) . . . . ? 
C14A Si1A C13A C12A -172.1(16) . . . . ? 
C16A Si1A C13A C12A -54.0(16) . . . . ? 
C13A Si1A C16A Cl1A 61.60(14) . . . . ? 
C15A Si1A C16A Cl1A -56.13(14) . . . . ? 
C14A Si1A C16A Cl1A -177.91(11) . . . . ? 
C11B C1B C2B C3B 177.21(18) 2_577 . . . ? 
C12B C1B C2B C3B -6.4(3) . . . . ? 
C11B C1B C2B C11B -2.1(3) 2_577 . . . ? 
C12B C1B C2B C11B 174.26(17) . . . . ? 
C1B C2B C3B C4B 179.36(18) . . . . ? 
C11B C2B C3B C4B -1.3(3) . . . . ? 
C2B C3B C4B C5B 178.59(18) . . . . ? 
C2B C3B C4B C9B -1.7(3) . . . . ? 
C3B C4B C5B C6B 179.10(19) . . . . ? 
C9B C4B C5B C6B -0.6(3) . . . . ? 
C4B C5B C6B C7B -1.4(3) . . . . ? 
C5B C6B C7B C8B 1.6(3) . . . . ? 
C6B C7B C8B C9B 0.2(3) . . . . ? 
C7B C8B C9B C10B 177.56(19) . . . . ? 
C7B C8B C9B C4B -2.2(3) . . . . ? 
C3B C4B C9B C10B 2.9(3) . . . . ? 
C5B C4B C9B C10B -177.37(18) . . . . ? 
C3B C4B C9B C8B -177.36(17) . . . . ? 
C5B C4B C9B C8B 2.4(3) . . . . ? 
C8B C9B C10B C11B 179.18(18) . . . . ? 
C4B C9B C10B C11B -1.1(3) . . . . ? 
C9B C10B C11B C1B 178.41(18) . . . 2_577 ? 
C9B C10B C11B C2B -1.9(3) . . . . ? 
C3B C2B C11B C10B 3.1(3) . . . . ? 
C1B C2B C11B C10B -177.57(17) . . . . ? 
C3B C2B C11B C1B -177.23(18) . . . 2_577 ? 
C1B C2B C11B C1B 2.1(3) . . . 2_577 ? 
C2B C1B C12B C13B -136(2) . . . . ? 
C11B C1B C12B C13B 40(2) 2_577 . . . ? 
C1B C12B C13B Si1B -1(3) . . . . ? 
C14B Si1B C13B C12B -169.9(8) . . . . ? 
C15B Si1B C13B C12B 65.9(8) . . . . ? 
C16B Si1B C13B C12B -51.6(8) . . . . ? 
C13B Si1B C16B Cl1B 154.60(12) . . . . ? 
C14B Si1B C16B Cl1B -83.68(14) . . . . ? 
C15B Si1B C16B Cl1B 39.15(15) . . . . ? 
 
_diffrn_measured_fraction_theta_max    0.998 
_diffrn_reflns_theta_full              27.48 
_diffrn_measured_fraction_theta_full   0.998 
_refine_diff_density_max    0.439 
_refine_diff_density_min   -0.336 
_refine_diff_density_rms    0.064 
