 
data_k02243 
 
_audit_creation_method            SHELXL-97 
_chemical_name_systematic 
; 
 ? 
; 
_chemical_name_common             ? 
_chemical_melting_point           ? 
_chemical_formula_moiety          ? 
_chemical_formula_sum 
 'C38 H30 Si2' 
_chemical_formula_weight          542.80 
 
loop_ 
 _atom_type_symbol 
 _atom_type_description 
 _atom_type_scat_dispersion_real 
 _atom_type_scat_dispersion_imag 
 _atom_type_scat_source 
 'C'  'C'   0.0033   0.0016 
 'International Tables Vol C Tables 4.2.6.8 and 6.1.1.4' 
 'H'  'H'   0.0000   0.0000 
 'International Tables Vol C Tables 4.2.6.8 and 6.1.1.4' 
 'Si'  'Si'   0.0817   0.0704 
 'International Tables Vol C Tables 4.2.6.8 and 6.1.1.4' 
 
_symmetry_cell_setting            monoclinic
_symmetry_space_group_name_H-M    P 21/c
 
loop_ 
 _symmetry_equiv_pos_as_xyz 
 'x, y, z' 
 '-x, y+1/2, -z+1/2' 
 '-x, -y, -z' 
 'x, -y-1/2, z-1/2' 
 
_cell_length_a                    11.5150(2) 
_cell_length_b                    6.67200(10) 
_cell_length_c                    19.5730(5) 
_cell_angle_alpha                 90.00 
_cell_angle_beta                  92.3620(9) 
_cell_angle_gamma                 90.00 
_cell_volume                      1502.48(5) 
_cell_formula_units_Z             2 
_cell_measurement_temperature     90.0(2) 
_cell_measurement_reflns_used     3737
_cell_measurement_theta_min       1.00
_cell_measurement_theta_max       27.48
 
_exptl_crystal_description        rod
_exptl_crystal_colour             'deep blue'
_exptl_crystal_size_max           0.40 
_exptl_crystal_size_mid           0.32 
_exptl_crystal_size_min           0.10 
_exptl_crystal_density_meas       ? 
_exptl_crystal_density_diffrn     1.200 
_exptl_crystal_density_method     'not measured' 
_exptl_crystal_F_000              572 
_exptl_absorpt_coefficient_mu     0.143 
_exptl_absorpt_correction_type    multi-scan 
_exptl_absorpt_correction_T_min   0.9449 
_exptl_absorpt_correction_T_max   0.9858 
_exptl_absorpt_process_details    'Scalepack (Otwinowski & Minor, 1997)' 
 
_exptl_special_details 
; 
 ? 
; 
 
_diffrn_ambient_temperature       90.0(2) 
_diffrn_radiation_wavelength      0.71073 
_diffrn_radiation_type            MoK\a 
_diffrn_radiation_source          'fine-focus sealed tube' 
_diffrn_radiation_monochromator   graphite 
_diffrn_measurement_device_type   'Nonius KappaCCD diffractometer' 
_diffrn_measurement_method        '\w scans at fixed \c = 55\%'
_diffrn_detector_area_resol_mean  18 
_diffrn_standards_number          ?
_diffrn_standards_interval_count  ? 
_diffrn_standards_interval_time   ? 
_diffrn_standards_decay_%         <1
_diffrn_reflns_number             6568 
_diffrn_reflns_av_R_equivalents   0.0237 
_diffrn_reflns_av_sigmaI/netI     0.0388 
_diffrn_reflns_limit_h_min        -14 
_diffrn_reflns_limit_h_max        14 
_diffrn_reflns_limit_k_min        -8 
_diffrn_reflns_limit_k_max        8 
_diffrn_reflns_limit_l_min        -25 
_diffrn_reflns_limit_l_max        25 
_diffrn_reflns_theta_min          1.77 
_diffrn_reflns_theta_max          27.48 
_reflns_number_total              3438 
_reflns_number_gt                 2708 
_reflns_threshold_expression      >2sigma(I) 
 
_computing_data_collection        'COLLECT (Nonius, 1998)' 
_computing_cell_refinement        'SCALEPACK (Otwinowski & Minor, 1997)'
_computing_data_reduction         'DENZO-SMN (Otwinowski & Minor, 1997)'
_computing_structure_solution     'SHELXS-97 (Sheldrick, 1990)' 
_computing_structure_refinement   'SHELXL-97 (Sheldrick, 1997)' 
_computing_molecular_graphics     'XP in Siemens SHELXTL (Sheldrick, 1994)'
_computing_publication_material   
;
SHELX97-2 (Sheldrick, 1997) and local procedures
;
 
_refine_special_details 
; 
 Refinement of F^2^ against ALL reflections.  The weighted R-factor wR and 
 goodness of fit S are based on F^2^, conventional R-factors R are based 
 on F, with F set to zero for negative F^2^. The threshold expression of 
 F^2^ > 2sigma(F^2^) is used only for calculating R-factors(gt) etc. and is 
 not relevant to the choice of reflections for refinement.  R-factors based 
 on F^2^ are statistically about twice as large as those based on F, and R- 
 factors based on ALL data will be even larger. 
; 
 
_refine_ls_structure_factor_coef  Fsqd  
_refine_ls_matrix_type            full 
_refine_ls_weighting_scheme       calc  
_refine_ls_weighting_details 
 'calc w=1/[\s^2^(Fo^2^)+(0.0499P)^2^+0.7159P] where P=(Fo^2^+2Fc^2^)/3' 
_atom_sites_solution_primary      direct 
_atom_sites_solution_secondary    difmap 
_atom_sites_solution_hydrogens    geom 
_refine_ls_hydrogen_treatment     mixed 
_refine_ls_extinction_method      none 
_refine_ls_extinction_coef        ? 
_refine_ls_number_reflns          3438 
_refine_ls_number_parameters      181 
_refine_ls_number_restraints      0 
_refine_ls_R_factor_all           0.0579 
_refine_ls_R_factor_gt            0.0408 
_refine_ls_wR_factor_ref          0.1130 
_refine_ls_wR_factor_gt           0.1047 
_refine_ls_goodness_of_fit_ref    1.036 
_refine_ls_restrained_S_all       1.036 
_refine_ls_shift/su_max           0.002 
_refine_ls_shift/su_mean          0.000 
 
loop_ 
 _atom_site_label 
 _atom_site_type_symbol 
 _atom_site_fract_x 
 _atom_site_fract_y 
 _atom_site_fract_z 
 _atom_site_U_iso_or_equiv 
 _atom_site_adp_type 
 _atom_site_occupancy 
 _atom_site_symmetry_multiplicity 
 _atom_site_calc_flag 
 _atom_site_refinement_flags 
 _atom_site_disorder_assembly 
 _atom_site_disorder_group 
Si Si 0.44140(4) 0.70503(7) 0.37561(2) 0.02306(14) Uani 1 1 d . . . 
C1 C 0.10885(13) 0.5468(2) 0.47241(8) 0.0207(3) Uani 1 1 d . . . 
C2 C 0.04879(13) 0.3713(2) 0.45010(8) 0.0206(3) Uani 1 1 d . . . 
C3 C 0.09349(14) 0.2419(2) 0.40067(8) 0.0227(3) Uani 1 1 d . . . 
H3 H 0.1657 0.2737 0.3815 0.027 Uiso 1 1 calc R . . 
C4 C 0.03525(13) 0.0696(2) 0.37915(8) 0.0228(3) Uani 1 1 d . . . 
C5 C 0.08037(15) -0.0632(3) 0.32912(8) 0.0270(4) Uani 1 1 d . . . 
H5 H 0.1527 -0.0337 0.3098 0.032 Uiso 1 1 calc R . . 
C6 C 0.02123(15) -0.2305(3) 0.30904(9) 0.0294(4) Uani 1 1 d . . . 
H6 H 0.0522 -0.3161 0.2755 0.035 Uiso 1 1 calc R . . 
C7 C -0.08706(15) -0.2789(3) 0.33786(9) 0.0294(4) Uani 1 1 d . . . 
H7 H -0.1274 -0.3966 0.3234 0.035 Uiso 1 1 calc R . . 
C8 C -0.13293(14) -0.1589(2) 0.38557(9) 0.0264(4) Uani 1 1 d . . . 
H8 H -0.2047 -0.1943 0.4045 0.032 Uiso 1 1 calc R . . 
C9 C -0.07459(13) 0.0210(2) 0.40786(8) 0.0222(3) Uani 1 1 d . . . 
C10 C -0.11968(13) 0.1474(2) 0.45629(8) 0.0220(3) Uani 1 1 d . . . 
H10 H -0.1918 0.1142 0.4753 0.026 Uiso 1 1 calc R . . 
C11 C -0.06193(13) 0.3238(2) 0.47834(8) 0.0204(3) Uani 1 1 d . . . 
C12 C 0.21828(13) 0.5945(2) 0.44416(8) 0.0219(3) Uani 1 1 d . . . 
C13 C 0.30999(14) 0.6352(2) 0.41981(8) 0.0233(3) Uani 1 1 d . . . 
C14 C 0.41630(15) 0.6400(3) 0.28406(9) 0.0311(4) Uani 1 1 d . . . 
H14 H 0.4748 0.6746 0.2533 0.037 Uiso 1 1 calc R . . 
C15 C 0.32253(16) 0.5489(3) 0.25895(10) 0.0405(5) Uani 1 1 d . . . 
H15A H 0.2624 0.5122 0.2883 0.049 Uiso 1 1 calc R . . 
H15B H 0.3150 0.5197 0.2115 0.049 Uiso 1 1 calc R . . 
C16 C 0.56990(14) 0.5653(3) 0.41069(9) 0.0304(4) Uani 1 1 d . . . 
H16 H 0.5867 0.5722 0.4586 0.036 Uiso 1 1 calc R . . 
C17 C 0.63907(16) 0.4575(3) 0.37378(11) 0.0396(5) Uani 1 1 d . . . 
H17A H 0.6248 0.4474 0.3258 0.047 Uiso 1 1 calc R . . 
H17B H 0.7034 0.3897 0.3951 0.047 Uiso 1 1 calc R . . 
C18 C 0.46443(15) 0.9778(3) 0.38862(9) 0.0293(4) Uani 1 1 d . . . 
H18 H 0.5304 1.0371 0.3692 0.035 Uiso 1 1 calc R . . 
C19 C 0.39620(17) 1.0942(3) 0.42270(11) 0.0414(5) Uani 1 1 d . . . 
H19A H 0.3294 1.0401 0.4429 0.050 Uiso 1 1 calc R . . 
H19B H 0.4134 1.2329 0.4273 0.050 Uiso 1 1 calc R . . 
 
loop_ 
 _atom_site_aniso_label 
 _atom_site_aniso_U_11 
 _atom_site_aniso_U_22 
 _atom_site_aniso_U_33 
 _atom_site_aniso_U_23 
 _atom_site_aniso_U_13 
 _atom_site_aniso_U_12 
Si 0.0205(2) 0.0230(3) 0.0261(2) 0.00055(18) 0.00557(17) -0.00416(18) 
C1 0.0183(7) 0.0214(8) 0.0224(8) 0.0045(6) 0.0020(6) -0.0023(6) 
C2 0.0201(8) 0.0204(8) 0.0214(7) 0.0042(6) 0.0011(6) -0.0015(6) 
C3 0.0203(8) 0.0242(8) 0.0237(8) 0.0037(6) 0.0035(6) -0.0013(6) 
C4 0.0237(8) 0.0218(8) 0.0228(8) 0.0035(6) -0.0008(6) 0.0004(6) 
C5 0.0261(8) 0.0275(9) 0.0273(8) 0.0013(7) 0.0011(7) 0.0011(7) 
C6 0.0339(9) 0.0267(9) 0.0275(9) -0.0032(7) -0.0018(7) 0.0042(7) 
C7 0.0312(9) 0.0230(9) 0.0335(9) -0.0022(7) -0.0066(7) -0.0027(7) 
C8 0.0231(8) 0.0235(9) 0.0323(9) 0.0026(7) -0.0027(7) -0.0041(7) 
C9 0.0222(8) 0.0205(8) 0.0237(8) 0.0036(6) -0.0023(6) -0.0008(6) 
C10 0.0193(8) 0.0211(8) 0.0255(8) 0.0050(6) 0.0000(6) -0.0033(6) 
C11 0.0185(7) 0.0205(8) 0.0221(8) 0.0047(6) 0.0004(6) -0.0017(6) 
C12 0.0237(8) 0.0187(8) 0.0232(8) 0.0008(6) 0.0009(6) -0.0026(6) 
C13 0.0234(8) 0.0209(8) 0.0256(8) 0.0004(6) 0.0024(7) -0.0032(7) 
C14 0.0294(9) 0.0356(10) 0.0289(9) 0.0000(7) 0.0085(7) -0.0029(8) 
C15 0.0338(10) 0.0575(13) 0.0305(10) -0.0071(9) 0.0061(8) -0.0104(9) 
C16 0.0240(8) 0.0314(10) 0.0358(9) 0.0054(8) 0.0017(7) -0.0063(7) 
C17 0.0273(9) 0.0337(11) 0.0573(12) -0.0021(9) -0.0031(9) 0.0008(8) 
C18 0.0298(9) 0.0268(9) 0.0319(9) 0.0027(7) 0.0089(7) -0.0075(7) 
C19 0.0404(11) 0.0245(10) 0.0604(13) 0.0017(9) 0.0167(10) -0.0048(8) 
 
_geom_special_details 
; 
 All esds (except the esd in the dihedral angle between two l.s. planes) 
 are estimated using the full covariance matrix.  The cell esds are taken 
 into account individually in the estimation of esds in distances, angles 
 and torsion angles; correlations between esds in cell parameters are only 
 used when they are defined by crystal symmetry.  An approximate (isotropic) 
 treatment of cell esds is used for estimating esds involving l.s. planes. 
; 
 
loop_ 
 _geom_bond_atom_site_label_1 
 _geom_bond_atom_site_label_2 
 _geom_bond_distance 
 _geom_bond_site_symmetry_2 
 _geom_bond_publ_flag 
Si C13 1.8338(16) . ? 
Si C14 1.8549(18) . ? 
Si C18 1.8555(18) . ? 
Si C16 1.8566(18) . ? 
C1 C11 1.418(2) 3_566 ? 
C1 C2 1.420(2) . ? 
C1 C12 1.432(2) . ? 
C2 C3 1.410(2) . ? 
C2 C11 1.446(2) . ? 
C3 C4 1.388(2) . ? 
C3 H3 0.9500 . ? 
C4 C5 1.434(2) . ? 
C4 C9 1.442(2) . ? 
C5 C6 1.357(2) . ? 
C5 H5 0.9500 . ? 
C6 C7 1.427(2) . ? 
C6 H6 0.9500 . ? 
C7 C8 1.354(2) . ? 
C7 H7 0.9500 . ? 
C8 C9 1.434(2) . ? 
C8 H8 0.9500 . ? 
C9 C10 1.386(2) . ? 
C10 C11 1.410(2) . ? 
C10 H10 0.9500 . ? 
C11 C1 1.418(2) 3_566 ? 
C12 C13 1.207(2) . ? 
C14 C15 1.317(3) . ? 
C14 H14 0.9500 . ? 
C15 H15A 0.9500 . ? 
C15 H15B 0.9500 . ? 
C16 C17 1.312(3) . ? 
C16 H16 0.9500 . ? 
C17 H17A 0.9500 . ? 
C17 H17B 0.9500 . ? 
C18 C19 1.307(2) . ? 
C18 H18 0.9500 . ? 
C19 H19A 0.9500 . ? 
C19 H19B 0.9500 . ? 
 
loop_ 
 _geom_angle_atom_site_label_1 
 _geom_angle_atom_site_label_2 
 _geom_angle_atom_site_label_3 
 _geom_angle 
 _geom_angle_site_symmetry_1 
 _geom_angle_site_symmetry_3 
 _geom_angle_publ_flag 
C13 Si C14 107.31(8) . . ? 
C13 Si C18 107.49(8) . . ? 
C14 Si C18 112.20(8) . . ? 
C13 Si C16 111.00(8) . . ? 
C14 Si C16 109.26(8) . . ? 
C18 Si C16 109.56(8) . . ? 
C11 C1 C2 121.14(13) 3_566 . ? 
C11 C1 C12 119.56(14) 3_566 . ? 
C2 C1 C12 119.30(14) . . ? 
C3 C2 C1 121.96(14) . . ? 
C3 C2 C11 118.73(14) . . ? 
C1 C2 C11 119.31(14) . . ? 
C4 C3 C2 122.02(14) . . ? 
C4 C3 H3 119.0 . . ? 
C2 C3 H3 119.0 . . ? 
C3 C4 C5 122.35(15) . . ? 
C3 C4 C9 119.26(14) . . ? 
C5 C4 C9 118.39(14) . . ? 
C6 C5 C4 120.96(16) . . ? 
C6 C5 H5 119.5 . . ? 
C4 C5 H5 119.5 . . ? 
C5 C6 C7 120.51(16) . . ? 
C5 C6 H6 119.7 . . ? 
C7 C6 H6 119.7 . . ? 
C8 C7 C6 120.74(16) . . ? 
C8 C7 H7 119.6 . . ? 
C6 C7 H7 119.6 . . ? 
C7 C8 C9 120.90(15) . . ? 
C7 C8 H8 119.6 . . ? 
C9 C8 H8 119.6 . . ? 
C10 C9 C8 122.23(15) . . ? 
C10 C9 C4 119.28(14) . . ? 
C8 C9 C4 118.48(14) . . ? 
C9 C10 C11 122.13(14) . . ? 
C9 C10 H10 118.9 . . ? 
C11 C10 H10 118.9 . . ? 
C10 C11 C1 121.87(14) . 3_566 ? 
C10 C11 C2 118.58(14) . . ? 
C1 C11 C2 119.55(14) 3_566 . ? 
C13 C12 C1 179.41(17) . . ? 
C12 C13 Si 174.58(15) . . ? 
C15 C14 Si 124.15(14) . . ? 
C15 C14 H14 117.9 . . ? 
Si C14 H14 117.9 . . ? 
C14 C15 H15A 120.0 . . ? 
C14 C15 H15B 120.0 . . ? 
H15A C15 H15B 120.0 . . ? 
C17 C16 Si 124.36(15) . . ? 
C17 C16 H16 117.8 . . ? 
Si C16 H16 117.8 . . ? 
C16 C17 H17A 120.0 . . ? 
C16 C17 H17B 120.0 . . ? 
H17A C17 H17B 120.0 . . ? 
C19 C18 Si 124.56(14) . . ? 
C19 C18 H18 117.7 . . ? 
Si C18 H18 117.7 . . ? 
C18 C19 H19A 120.0 . . ? 
C18 C19 H19B 120.0 . . ? 
H19A C19 H19B 120.0 . . ? 
 
loop_ 
 _geom_torsion_atom_site_label_1 
 _geom_torsion_atom_site_label_2 
 _geom_torsion_atom_site_label_3 
 _geom_torsion_atom_site_label_4 
 _geom_torsion 
 _geom_torsion_site_symmetry_1 
 _geom_torsion_site_symmetry_2 
 _geom_torsion_site_symmetry_3 
 _geom_torsion_site_symmetry_4 
 _geom_torsion_publ_flag 
C11 C1 C2 C3 179.34(14) 3_566 . . . ? 
C12 C1 C2 C3 -0.1(2) . . . . ? 
C11 C1 C2 C11 -0.2(2) 3_566 . . . ? 
C12 C1 C2 C11 -179.68(14) . . . . ? 
C1 C2 C3 C4 179.55(14) . . . . ? 
C11 C2 C3 C4 -0.9(2) . . . . ? 
C2 C3 C4 C5 -179.72(15) . . . . ? 
C2 C3 C4 C9 0.2(2) . . . . ? 
C3 C4 C5 C6 -179.89(15) . . . . ? 
C9 C4 C5 C6 0.1(2) . . . . ? 
C4 C5 C6 C7 -0.6(3) . . . . ? 
C5 C6 C7 C8 0.2(3) . . . . ? 
C6 C7 C8 C9 0.7(3) . . . . ? 
C7 C8 C9 C10 179.62(15) . . . . ? 
C7 C8 C9 C4 -1.1(2) . . . . ? 
C3 C4 C9 C10 0.0(2) . . . . ? 
C5 C4 C9 C10 179.99(14) . . . . ? 
C3 C4 C9 C8 -179.32(14) . . . . ? 
C5 C4 C9 C8 0.6(2) . . . . ? 
C8 C9 C10 C11 179.72(14) . . . . ? 
C4 C9 C10 C11 0.4(2) . . . . ? 
C9 C10 C11 C1 179.59(14) . . . 3_566 ? 
C9 C10 C11 C2 -1.1(2) . . . . ? 
C3 C2 C11 C10 1.3(2) . . . . ? 
C1 C2 C11 C10 -179.15(14) . . . . ? 
C3 C2 C11 C1 -179.36(14) . . . 3_566 ? 
C1 C2 C11 C1 0.2(2) . . . 3_566 ? 
C11 C1 C12 C13 -105(20) 3_566 . . . ? 
C2 C1 C12 C13 75(20) . . . . ? 
C1 C12 C13 Si 2(21) . . . . ? 
C14 Si C13 C12 -37.5(16) . . . . ? 
C18 Si C13 C12 83.4(16) . . . . ? 
C16 Si C13 C12 -156.8(16) . . . . ? 
C13 Si C14 C15 -3.8(2) . . . . ? 
C18 Si C14 C15 -121.69(18) . . . . ? 
C16 Si C14 C15 116.60(18) . . . . ? 
C13 Si C16 C17 125.72(16) . . . . ? 
C14 Si C16 C17 7.57(18) . . . . ? 
C18 Si C16 C17 -115.72(16) . . . . ? 
C13 Si C18 C19 -0.9(2) . . . . ? 
C14 Si C18 C19 116.88(18) . . . . ? 
C16 Si C18 C19 -121.58(18) . . . . ? 
 
_diffrn_measured_fraction_theta_max    0.999 
_diffrn_reflns_theta_full              27.48 
_diffrn_measured_fraction_theta_full   0.999 
_refine_diff_density_max    0.412 
_refine_diff_density_min   -0.233 
_refine_diff_density_rms    0.049 
