 
data_k03017 
 
_audit_creation_method            SHELXL-97 
_chemical_name_systematic 
; 
 ? 
; 
_chemical_name_common             ? 
_chemical_melting_point           ? 
_chemical_formula_moiety          ? 
_chemical_formula_sum 
 'C44 H50 Cl4 Si2' 
_chemical_formula_weight          776.82 
 
loop_ 
 _atom_type_symbol 
 _atom_type_description 
 _atom_type_scat_dispersion_real 
 _atom_type_scat_dispersion_imag 
 _atom_type_scat_source 
 'C'  'C'   0.0033   0.0016 
 'International Tables Vol C Tables 4.2.6.8 and 6.1.1.4' 
 'H'  'H'   0.0000   0.0000 
 'International Tables Vol C Tables 4.2.6.8 and 6.1.1.4' 
 'Si'  'Si'   0.0817   0.0704 
 'International Tables Vol C Tables 4.2.6.8 and 6.1.1.4' 
 'Cl'  'Cl'   0.1484   0.1585 
 'International Tables Vol C Tables 4.2.6.8 and 6.1.1.4' 
 
_symmetry_cell_setting            monoclinic
_symmetry_space_group_name_H-M    P21/n
 
loop_ 
 _symmetry_equiv_pos_as_xyz 
 'x, y, z' 
 '-x+1/2, y+1/2, -z+1/2' 
 '-x, -y, -z' 
 'x-1/2, -y-1/2, z-1/2' 
 
_cell_length_a                    7.6210(3) 
_cell_length_b                    17.6800(6) 
_cell_length_c                    15.7460(6) 
_cell_angle_alpha                 90.00 
_cell_angle_beta                  98.9260(17) 
_cell_angle_gamma                 90.00 
_cell_volume                      2095.91(14) 
_cell_formula_units_Z             2 
_cell_measurement_temperature     90.0(2) 
_cell_measurement_reflns_used     3973
_cell_measurement_theta_min       1.00
_cell_measurement_theta_max       25.35
 
_exptl_crystal_description        rod
_exptl_crystal_colour             'very dark blue'
_exptl_crystal_size_max           0.40 
_exptl_crystal_size_mid           0.10 
_exptl_crystal_size_min           0.08 
_exptl_crystal_density_meas       ? 
_exptl_crystal_density_diffrn     1.231 
_exptl_crystal_density_method     'not measured' 
_exptl_crystal_F_000              820 
_exptl_absorpt_coefficient_mu     0.369 
_exptl_absorpt_correction_type    multi-scan
_exptl_absorpt_correction_T_min   0.8664 
_exptl_absorpt_correction_T_max   0.9728 
_exptl_absorpt_process_details    'Scalepack (Otwinowski & Minor, 1997)'
 
_exptl_special_details 
; 
 ? 
; 
 
_diffrn_ambient_temperature       90.0(2) 
_diffrn_radiation_wavelength      0.71073 
_diffrn_radiation_type            MoK\a 
_diffrn_radiation_source          'fine-focus sealed tube' 
_diffrn_radiation_monochromator   graphite 
_diffrn_measurement_device_type   'Nonius KappaCCD diffractometer' 
_diffrn_measurement_method        '\w scans at fixed \c = 55\%'
_diffrn_detector_area_resol_mean  18 
_diffrn_standards_number          ?
_diffrn_standards_interval_count  ? 
_diffrn_standards_interval_time   ? 
_diffrn_standards_decay_%         <1
_diffrn_reflns_number             7343 
_diffrn_reflns_av_R_equivalents   0.0534 
_diffrn_reflns_av_sigmaI/netI     0.0731 
_diffrn_reflns_limit_h_min        -9 
_diffrn_reflns_limit_h_max        9 
_diffrn_reflns_limit_k_min        -21 
_diffrn_reflns_limit_k_max        21 
_diffrn_reflns_limit_l_min        -18 
_diffrn_reflns_limit_l_max        18 
_diffrn_reflns_theta_min          1.74 
_diffrn_reflns_theta_max          25.35 
_reflns_number_total              3842 
_reflns_number_gt                 2551 
_reflns_threshold_expression      >2sigma(I) 
 
_computing_data_collection        'COLLECT (Nonius, 1998)' 
_computing_cell_refinement        'SCALEPACK (Otwinowski & Minor, 1997)'
_computing_data_reduction         'DENZO-SMN (Otwinowski & Minor, 1997)'
_computing_structure_solution     'SHELXS-97 (Sheldrick, 1990)' 
_computing_structure_refinement   'SHELXL-97 (Sheldrick, 1997)' 
_computing_molecular_graphics     'XP in Siemens SHELXTL (Sheldrick, 1994)'
_computing_publication_material   
;
SHELX97-2 (Sheldrick, 1997) and local procedures
;
 
_refine_special_details 
; 
 Refinement of F^2^ against ALL reflections.  The weighted R-factor wR and 
 goodness of fit S are based on F^2^, conventional R-factors R are based 
 on F, with F set to zero for negative F^2^. The threshold expression of 
 F^2^ > 2sigma(F^2^) is used only for calculating R-factors(gt) etc. and is 
 not relevant to the choice of reflections for refinement.  R-factors based 
 on F^2^ are statistically about twice as large as those based on F, and R- 
 factors based on ALL data will be even larger. 
; 
 
_refine_ls_structure_factor_coef  Fsqd  
_refine_ls_matrix_type            full 
_refine_ls_weighting_scheme       calc  
_refine_ls_weighting_details 
 'calc w=1/[\s^2^(Fo^2^)+(0.0643P)^2^+0.8594P] where P=(Fo^2^+2Fc^2^)/3' 
_atom_sites_solution_primary      direct 
_atom_sites_solution_secondary    difmap 
_atom_sites_solution_hydrogens    geom 
_refine_ls_hydrogen_treatment     mixed 
_refine_ls_extinction_method      none 
_refine_ls_extinction_coef        ? 
_refine_ls_number_reflns          3842 
_refine_ls_number_parameters      232 
_refine_ls_number_restraints      0 
_refine_ls_R_factor_all           0.0933 
_refine_ls_R_factor_gt            0.0512 
_refine_ls_wR_factor_ref          0.1361 
_refine_ls_wR_factor_gt           0.1193 
_refine_ls_goodness_of_fit_ref    1.024 
_refine_ls_restrained_S_all       1.024 
_refine_ls_shift/su_max           0.000 
_refine_ls_shift/su_mean          0.000 
 
loop_ 
 _atom_site_label 
 _atom_site_type_symbol 
 _atom_site_fract_x 
 _atom_site_fract_y 
 _atom_site_fract_z 
 _atom_site_U_iso_or_equiv 
 _atom_site_adp_type 
 _atom_site_occupancy 
 _atom_site_symmetry_multiplicity 
 _atom_site_calc_flag 
 _atom_site_refinement_flags 
 _atom_site_disorder_assembly 
 _atom_site_disorder_group 
Si1 Si 0.57596(11) 0.17388(5) 0.43539(5) 0.0214(2) Uani 1 1 d . . . 
Cl1 Cl -0.43939(11) 0.42162(5) 0.24383(5) 0.0382(3) Uani 1 1 d . . . 
Cl2 Cl -0.46904(10) 0.59325(5) 0.29774(5) 0.0382(3) Uani 1 1 d . . . 
C1 C 0.5132(4) 0.42175(16) 0.47932(17) 0.0223(7) Uani 1 1 d . . . 
C2 C 0.3520(4) 0.46098(16) 0.45196(16) 0.0217(7) Uani 1 1 d . . . 
C3 C 0.2040(4) 0.42518(17) 0.40336(17) 0.0234(7) Uani 1 1 d . . . 
H3 H 0.2134 0.3736 0.3879 0.028 Uiso 1 1 calc R . . 
C4 C 0.0455(4) 0.46295(17) 0.37748(17) 0.0235(7) Uani 1 1 d . . . 
C5 C -0.1056(4) 0.42779(18) 0.32754(17) 0.0268(7) Uani 1 1 d . . . 
H5 H -0.0979 0.3765 0.3105 0.032 Uiso 1 1 calc R . . 
C6 C -0.2590(4) 0.46598(18) 0.30408(18) 0.0274(7) Uani 1 1 d . . . 
C7 C -0.2738(4) 0.54375(18) 0.32854(18) 0.0274(7) Uani 1 1 d . . . 
C8 C -0.1342(4) 0.57944(17) 0.37612(18) 0.0258(7) Uani 1 1 d . . . 
H8 H -0.1466 0.6305 0.3929 0.031 Uiso 1 1 calc R . . 
C9 C 0.0306(4) 0.54139(17) 0.40127(17) 0.0232(7) Uani 1 1 d . . . 
C10 C 0.1759(4) 0.57743(16) 0.44819(17) 0.0224(7) Uani 1 1 d . . . 
H10 H 0.1652 0.6290 0.4636 0.027 Uiso 1 1 calc R . . 
C11 C 0.3380(4) 0.54026(16) 0.47368(17) 0.0211(7) Uani 1 1 d . . . 
C12 C 0.5267(4) 0.34285(17) 0.46300(17) 0.0213(7) Uani 1 1 d . . . 
C13 C 0.5414(4) 0.27578(17) 0.45169(18) 0.0237(7) Uani 1 1 d . . . 
C14 C 0.5539(4) 0.12441(17) 0.53915(17) 0.0247(7) Uani 1 1 d . . . 
H14 H 0.5873 0.0703 0.5327 0.030 Uiso 1 1 calc R . . 
C15 C 0.6814(4) 0.1570(2) 0.61543(19) 0.0378(9) Uani 1 1 d . . . 
H15A H 0.6508 0.2100 0.6242 0.057 Uiso 1 1 calc R . . 
H15B H 0.8035 0.1540 0.6034 0.057 Uiso 1 1 calc R . . 
H15C H 0.6712 0.1279 0.6674 0.057 Uiso 1 1 calc R . . 
C16 C 0.3646(4) 0.1256(2) 0.5593(2) 0.0374(8) Uani 1 1 d . . . 
H16A H 0.3612 0.1002 0.6144 0.056 Uiso 1 1 calc R . . 
H16B H 0.2857 0.0993 0.5137 0.056 Uiso 1 1 calc R . . 
H16C H 0.3252 0.1781 0.5629 0.056 Uiso 1 1 calc R . . 
C17 C 0.3983(4) 0.14262(16) 0.34511(18) 0.0226(7) Uani 1 1 d . . . 
H17 H 0.2814 0.1490 0.3657 0.027 Uiso 1 1 calc R . . 
C18 C 0.3947(4) 0.19318(18) 0.26548(18) 0.0336(8) Uani 1 1 d . . . 
H18A H 0.5107 0.1913 0.2460 0.050 Uiso 1 1 calc R . . 
H18B H 0.3685 0.2454 0.2802 0.050 Uiso 1 1 calc R . . 
H18C H 0.3028 0.1751 0.2195 0.050 Uiso 1 1 calc R . . 
C19 C 0.4157(4) 0.05860(17) 0.32343(18) 0.0277(7) Uani 1 1 d . . . 
H19A H 0.3151 0.0435 0.2802 0.042 Uiso 1 1 calc R . . 
H19B H 0.4162 0.0282 0.3755 0.042 Uiso 1 1 calc R . . 
H19C H 0.5268 0.0504 0.3007 0.042 Uiso 1 1 calc R . . 
C20 C 0.8054(4) 0.16106(17) 0.4049(2) 0.0294(7) Uani 1 1 d . . . 
H20 H 0.7904 0.1647 0.3408 0.035 Uiso 1 1 calc R . . 
C21 C 0.9372(4) 0.22291(18) 0.4398(2) 0.0373(8) Uani 1 1 d . . . 
H21A H 0.9621 0.2196 0.5026 0.056 Uiso 1 1 calc R . . 
H21B H 0.8863 0.2726 0.4230 0.056 Uiso 1 1 calc R . . 
H21C H 1.0478 0.2162 0.4161 0.056 Uiso 1 1 calc R . . 
C22 C 0.8823(4) 0.08190(17) 0.4286(2) 0.0336(8) Uani 1 1 d . . . 
H22A H 0.9926 0.0752 0.4048 0.050 Uiso 1 1 calc R . . 
H22B H 0.7962 0.0433 0.4048 0.050 Uiso 1 1 calc R . . 
H22C H 0.9069 0.0768 0.4913 0.050 Uiso 1 1 calc R . . 
 
loop_ 
 _atom_site_aniso_label 
 _atom_site_aniso_U_11 
 _atom_site_aniso_U_22 
 _atom_site_aniso_U_33 
 _atom_site_aniso_U_23 
 _atom_site_aniso_U_13 
 _atom_site_aniso_U_12 
Si1 0.0250(5) 0.0176(5) 0.0200(4) 0.0006(3) -0.0012(3) 0.0014(4) 
Cl1 0.0354(5) 0.0469(6) 0.0299(4) -0.0003(4) -0.0026(3) -0.0090(4) 
Cl2 0.0319(5) 0.0503(6) 0.0314(5) 0.0025(4) 0.0017(3) 0.0028(4) 
C1 0.0322(18) 0.0190(17) 0.0163(15) 0.0022(12) 0.0053(13) 0.0008(13) 
C2 0.0300(17) 0.0207(17) 0.0144(14) 0.0015(12) 0.0032(12) -0.0020(14) 
C3 0.0362(18) 0.0173(16) 0.0171(14) -0.0017(12) 0.0053(13) -0.0017(14) 
C4 0.0313(18) 0.0246(18) 0.0152(14) 0.0034(12) 0.0051(12) -0.0030(14) 
C5 0.0373(19) 0.0269(18) 0.0159(15) 0.0002(13) 0.0030(13) -0.0056(15) 
C6 0.0271(18) 0.037(2) 0.0180(15) 0.0027(14) 0.0017(13) -0.0069(15) 
C7 0.0249(17) 0.036(2) 0.0210(16) 0.0067(14) 0.0042(13) 0.0034(15) 
C8 0.0320(18) 0.0258(18) 0.0206(15) 0.0024(13) 0.0069(13) 0.0027(14) 
C9 0.0275(17) 0.0258(18) 0.0162(14) 0.0045(13) 0.0031(12) -0.0003(14) 
C10 0.0328(18) 0.0187(16) 0.0163(14) 0.0006(12) 0.0055(13) 0.0004(14) 
C11 0.0288(17) 0.0196(16) 0.0144(14) 0.0013(12) 0.0024(12) -0.0023(13) 
C12 0.0232(17) 0.0216(19) 0.0180(15) 0.0009(12) -0.0003(12) -0.0001(13) 
C13 0.0259(17) 0.0235(19) 0.0202(15) 0.0018(13) -0.0018(12) -0.0004(14) 
C14 0.0311(17) 0.0188(17) 0.0220(15) 0.0025(13) -0.0022(13) -0.0009(14) 
C15 0.038(2) 0.046(2) 0.0253(17) 0.0002(16) -0.0080(14) -0.0028(17) 
C16 0.040(2) 0.043(2) 0.0282(17) 0.0072(16) 0.0026(15) -0.0031(17) 
C17 0.0228(16) 0.0206(16) 0.0233(15) -0.0009(13) 0.0005(12) 0.0012(13) 
C18 0.048(2) 0.0263(19) 0.0221(16) 0.0026(14) -0.0074(14) 0.0037(16) 
C19 0.0318(17) 0.0253(18) 0.0233(16) -0.0020(13) -0.0040(13) -0.0017(14) 
C20 0.0303(18) 0.0278(19) 0.0291(17) -0.0004(14) 0.0019(14) 0.0051(15) 
C21 0.0286(19) 0.030(2) 0.054(2) 0.0025(16) 0.0104(16) 0.0031(16) 
C22 0.0272(18) 0.0287(19) 0.044(2) -0.0014(16) 0.0041(15) 0.0052(15) 
 
_geom_special_details 
; 
 All esds (except the esd in the dihedral angle between two l.s. planes) 
 are estimated using the full covariance matrix.  The cell esds are taken 
 into account individually in the estimation of esds in distances, angles 
 and torsion angles; correlations between esds in cell parameters are only 
 used when they are defined by crystal symmetry.  An approximate (isotropic) 
 treatment of cell esds is used for estimating esds involving l.s. planes. 
; 
 
loop_ 
 _geom_bond_atom_site_label_1 
 _geom_bond_atom_site_label_2 
 _geom_bond_distance 
 _geom_bond_site_symmetry_2 
 _geom_bond_publ_flag 
Si1 C13 1.844(3) . ? 
Si1 C14 1.884(3) . ? 
Si1 C17 1.887(3) . ? 
Si1 C20 1.897(3) . ? 
Cl1 C6 1.732(3) . ? 
Cl2 C7 1.730(3) . ? 
C1 C2 1.418(4) . ? 
C1 C11 1.423(4) 3_666 ? 
C1 C12 1.425(4) . ? 
C2 C3 1.411(4) . ? 
C2 C11 1.451(4) . ? 
C3 C4 1.385(4) . ? 
C3 H3 0.9500 . ? 
C4 C5 1.432(4) . ? 
C4 C9 1.445(4) . ? 
C5 C6 1.351(4) . ? 
C5 H5 0.9500 . ? 
C6 C7 1.437(4) . ? 
C7 C8 1.358(4) . ? 
C8 C9 1.426(4) . ? 
C8 H8 0.9500 . ? 
C9 C10 1.387(4) . ? 
C10 C11 1.402(4) . ? 
C10 H10 0.9500 . ? 
C11 C1 1.423(4) 3_666 ? 
C12 C13 1.207(4) . ? 
C14 C16 1.525(4) . ? 
C14 C15 1.535(4) . ? 
C14 H14 1.0000 . ? 
C15 H15A 0.9800 . ? 
C15 H15B 0.9800 . ? 
C15 H15C 0.9800 . ? 
C16 H16A 0.9800 . ? 
C16 H16B 0.9800 . ? 
C16 H16C 0.9800 . ? 
C17 C19 1.534(4) . ? 
C17 C18 1.537(4) . ? 
C17 H17 1.0000 . ? 
C18 H18A 0.9800 . ? 
C18 H18B 0.9800 . ? 
C18 H18C 0.9800 . ? 
C19 H19A 0.9800 . ? 
C19 H19B 0.9800 . ? 
C19 H19C 0.9800 . ? 
C20 C21 1.528(4) . ? 
C20 C22 1.541(4) . ? 
C20 H20 1.0000 . ? 
C21 H21A 0.9800 . ? 
C21 H21B 0.9800 . ? 
C21 H21C 0.9800 . ? 
C22 H22A 0.9800 . ? 
C22 H22B 0.9800 . ? 
C22 H22C 0.9800 . ? 
 
loop_ 
 _geom_angle_atom_site_label_1 
 _geom_angle_atom_site_label_2 
 _geom_angle_atom_site_label_3 
 _geom_angle 
 _geom_angle_site_symmetry_1 
 _geom_angle_site_symmetry_3 
 _geom_angle_publ_flag 
C13 Si1 C14 107.39(13) . . ? 
C13 Si1 C17 106.83(13) . . ? 
C14 Si1 C17 111.53(13) . . ? 
C13 Si1 C20 108.01(13) . . ? 
C14 Si1 C20 111.97(13) . . ? 
C17 Si1 C20 110.85(13) . . ? 
C2 C1 C11 120.7(3) . 3_666 ? 
C2 C1 C12 120.5(3) . . ? 
C11 C1 C12 118.8(3) 3_666 . ? 
C3 C2 C1 121.8(3) . . ? 
C3 C2 C11 118.7(3) . . ? 
C1 C2 C11 119.5(2) . . ? 
C4 C3 C2 122.0(3) . . ? 
C4 C3 H3 119.0 . . ? 
C2 C3 H3 119.0 . . ? 
C3 C4 C5 122.9(3) . . ? 
C3 C4 C9 119.1(3) . . ? 
C5 C4 C9 118.0(3) . . ? 
C6 C5 C4 121.4(3) . . ? 
C6 C5 H5 119.3 . . ? 
C4 C5 H5 119.3 . . ? 
C5 C6 C7 120.4(3) . . ? 
C5 C6 Cl1 120.2(2) . . ? 
C7 C6 Cl1 119.4(2) . . ? 
C8 C7 C6 120.4(3) . . ? 
C8 C7 Cl2 119.1(2) . . ? 
C6 C7 Cl2 120.6(2) . . ? 
C7 C8 C9 121.0(3) . . ? 
C7 C8 H8 119.5 . . ? 
C9 C8 H8 119.5 . . ? 
C10 C9 C8 121.8(3) . . ? 
C10 C9 C4 119.4(3) . . ? 
C8 C9 C4 118.8(3) . . ? 
C9 C10 C11 122.1(3) . . ? 
C9 C10 H10 118.9 . . ? 
C11 C10 H10 118.9 . . ? 
C10 C11 C1 121.6(3) . 3_666 ? 
C10 C11 C2 118.6(3) . . ? 
C1 C11 C2 119.8(2) 3_666 . ? 
C13 C12 C1 178.0(3) . . ? 
C12 C13 Si1 177.1(3) . . ? 
C16 C14 C15 109.6(2) . . ? 
C16 C14 Si1 112.9(2) . . ? 
C15 C14 Si1 111.9(2) . . ? 
C16 C14 H14 107.4 . . ? 
C15 C14 H14 107.4 . . ? 
Si1 C14 H14 107.4 . . ? 
C14 C15 H15A 109.5 . . ? 
C14 C15 H15B 109.5 . . ? 
H15A C15 H15B 109.5 . . ? 
C14 C15 H15C 109.5 . . ? 
H15A C15 H15C 109.5 . . ? 
H15B C15 H15C 109.5 . . ? 
C14 C16 H16A 109.5 . . ? 
C14 C16 H16B 109.5 . . ? 
H16A C16 H16B 109.5 . . ? 
C14 C16 H16C 109.5 . . ? 
H16A C16 H16C 109.5 . . ? 
H16B C16 H16C 109.5 . . ? 
C19 C17 C18 111.9(2) . . ? 
C19 C17 Si1 111.99(19) . . ? 
C18 C17 Si1 111.3(2) . . ? 
C19 C17 H17 107.1 . . ? 
C18 C17 H17 107.1 . . ? 
Si1 C17 H17 107.1 . . ? 
C17 C18 H18A 109.5 . . ? 
C17 C18 H18B 109.5 . . ? 
H18A C18 H18B 109.5 . . ? 
C17 C18 H18C 109.5 . . ? 
H18A C18 H18C 109.5 . . ? 
H18B C18 H18C 109.5 . . ? 
C17 C19 H19A 109.5 . . ? 
C17 C19 H19B 109.5 . . ? 
H19A C19 H19B 109.5 . . ? 
C17 C19 H19C 109.5 . . ? 
H19A C19 H19C 109.5 . . ? 
H19B C19 H19C 109.5 . . ? 
C21 C20 C22 111.0(2) . . ? 
C21 C20 Si1 113.8(2) . . ? 
C22 C20 Si1 112.2(2) . . ? 
C21 C20 H20 106.4 . . ? 
C22 C20 H20 106.4 . . ? 
Si1 C20 H20 106.4 . . ? 
C20 C21 H21A 109.5 . . ? 
C20 C21 H21B 109.5 . . ? 
H21A C21 H21B 109.5 . . ? 
C20 C21 H21C 109.5 . . ? 
H21A C21 H21C 109.5 . . ? 
H21B C21 H21C 109.5 . . ? 
C20 C22 H22A 109.5 . . ? 
C20 C22 H22B 109.5 . . ? 
H22A C22 H22B 109.5 . . ? 
C20 C22 H22C 109.5 . . ? 
H22A C22 H22C 109.5 . . ? 
H22B C22 H22C 109.5 . . ? 
 
loop_ 
 _geom_torsion_atom_site_label_1 
 _geom_torsion_atom_site_label_2 
 _geom_torsion_atom_site_label_3 
 _geom_torsion_atom_site_label_4 
 _geom_torsion 
 _geom_torsion_site_symmetry_1 
 _geom_torsion_site_symmetry_2 
 _geom_torsion_site_symmetry_3 
 _geom_torsion_site_symmetry_4 
 _geom_torsion_publ_flag 
C11 C1 C2 C3 178.3(2) 3_666 . . . ? 
C12 C1 C2 C3 -4.1(4) . . . . ? 
C11 C1 C2 C11 -1.2(4) 3_666 . . . ? 
C12 C1 C2 C11 176.4(3) . . . . ? 
C1 C2 C3 C4 179.1(3) . . . . ? 
C11 C2 C3 C4 -1.4(4) . . . . ? 
C2 C3 C4 C5 179.5(3) . . . . ? 
C2 C3 C4 C9 -0.3(4) . . . . ? 
C3 C4 C5 C6 179.3(3) . . . . ? 
C9 C4 C5 C6 -0.9(4) . . . . ? 
C4 C5 C6 C7 0.4(4) . . . . ? 
C4 C5 C6 Cl1 -179.9(2) . . . . ? 
C5 C6 C7 C8 -0.6(4) . . . . ? 
Cl1 C6 C7 C8 179.7(2) . . . . ? 
C5 C6 C7 Cl2 179.3(2) . . . . ? 
Cl1 C6 C7 Cl2 -0.4(3) . . . . ? 
C6 C7 C8 C9 1.4(4) . . . . ? 
Cl2 C7 C8 C9 -178.5(2) . . . . ? 
C7 C8 C9 C10 178.5(3) . . . . ? 
C7 C8 C9 C4 -1.9(4) . . . . ? 
C3 C4 C9 C10 1.0(4) . . . . ? 
C5 C4 C9 C10 -178.7(2) . . . . ? 
C3 C4 C9 C8 -178.6(3) . . . . ? 
C5 C4 C9 C8 1.7(4) . . . . ? 
C8 C9 C10 C11 179.5(3) . . . . ? 
C4 C9 C10 C11 -0.1(4) . . . . ? 
C9 C10 C11 C1 179.0(2) . . . 3_666 ? 
C9 C10 C11 C2 -1.6(4) . . . . ? 
C3 C2 C11 C10 2.3(4) . . . . ? 
C1 C2 C11 C10 -178.2(2) . . . . ? 
C3 C2 C11 C1 -178.3(2) . . . 3_666 ? 
C1 C2 C11 C1 1.2(4) . . . 3_666 ? 
C2 C1 C12 C13 -141(9) . . . . ? 
C11 C1 C12 C13 37(9) 3_666 . . . ? 
C1 C12 C13 Si1 -58(12) . . . . ? 
C14 Si1 C13 C12 98(5) . . . . ? 
C17 Si1 C13 C12 -142(5) . . . . ? 
C20 Si1 C13 C12 -23(5) . . . . ? 
C13 Si1 C14 C16 68.7(2) . . . . ? 
C17 Si1 C14 C16 -48.0(3) . . . . ? 
C20 Si1 C14 C16 -172.9(2) . . . . ? 
C13 Si1 C14 C15 -55.6(2) . . . . ? 
C17 Si1 C14 C15 -172.3(2) . . . . ? 
C20 Si1 C14 C15 62.8(3) . . . . ? 
C13 Si1 C17 C19 178.4(2) . . . . ? 
C14 Si1 C17 C19 -64.5(2) . . . . ? 
C20 Si1 C17 C19 61.0(2) . . . . ? 
C13 Si1 C17 C18 52.3(2) . . . . ? 
C14 Si1 C17 C18 169.4(2) . . . . ? 
C20 Si1 C17 C18 -65.1(2) . . . . ? 
C13 Si1 C20 C21 27.3(3) . . . . ? 
C14 Si1 C20 C21 -90.8(2) . . . . ? 
C17 Si1 C20 C21 144.0(2) . . . . ? 
C13 Si1 C20 C22 154.4(2) . . . . ? 
C14 Si1 C20 C22 36.3(3) . . . . ? 
C17 Si1 C20 C22 -88.9(2) . . . . ? 
 
_diffrn_measured_fraction_theta_max    0.999 
_diffrn_reflns_theta_full              25.35 
_diffrn_measured_fraction_theta_full   0.999 
_refine_diff_density_max    0.462 
_refine_diff_density_min   -0.340 
_refine_diff_density_rms    0.066 
