 
data_shelxl 
 
_audit_creation_method            SHELXL-97 
_chemical_name_systematic 
; 
 ? 
; 
_chemical_name_common             ? 
_chemical_melting_point           ? 
_chemical_formula_moiety          ? 
_chemical_formula_sum 
 'C44 H54 Si2' 
_chemical_formula_weight          639.05 
 
loop_ 
 _atom_type_symbol 
 _atom_type_description 
 _atom_type_scat_dispersion_real 
 _atom_type_scat_dispersion_imag 
 _atom_type_scat_source 
 'C'  'C'   0.0033   0.0016 
 'International Tables Vol C Tables 4.2.6.8 and 6.1.1.4' 
 'H'  'H'   0.0000   0.0000 
 'International Tables Vol C Tables 4.2.6.8 and 6.1.1.4' 
 'Si'  'Si'   0.0817   0.0704 
 'International Tables Vol C Tables 4.2.6.8 and 6.1.1.4' 
 
_symmetry_cell_setting            ? 
_symmetry_space_group_name_H-M    ? 
 
loop_ 
 _symmetry_equiv_pos_as_xyz 
 'x, y, z' 
 '-x, -y, -z' 
 
_cell_length_a                    8.66300(10) 
_cell_length_b                    12.7070(2) 
_cell_length_c                    19.4950(4) 
_cell_angle_alpha                 85.1040(8) 
_cell_angle_beta                  82.4560(8) 
_cell_angle_gamma                 84.7210(8) 
_cell_volume                      2112.58(6) 
_cell_formula_units_Z             2 
_cell_measurement_temperature     180(2) 
_cell_measurement_reflns_used     ? 
_cell_measurement_theta_min       ? 
_cell_measurement_theta_max       ? 
 
_exptl_crystal_description        ? 
_exptl_crystal_colour             ? 
_exptl_crystal_size_max           0.70 
_exptl_crystal_size_mid           0.35 
_exptl_crystal_size_min           0.25 
_exptl_crystal_density_meas       ? 
_exptl_crystal_density_diffrn     1.005 
_exptl_crystal_density_method     'not measured' 
_exptl_crystal_F_000              692 
_exptl_absorpt_coefficient_mu     0.110 
_exptl_absorpt_correction_type    ? 
_exptl_absorpt_correction_T_min   0.9271 
_exptl_absorpt_correction_T_max   0.9731 
_exptl_absorpt_process_details    ? 
 
_exptl_special_details 
; 
 ? 
; 
 
_diffrn_ambient_temperature       180(2) 
_diffrn_radiation_wavelength      0.71073 
_diffrn_radiation_type            MoK\a 
_diffrn_radiation_source          'fine-focus sealed tube' 
_diffrn_radiation_monochromator   graphite 
_diffrn_measurement_device_type   ? 
_diffrn_measurement_method        ? 
_diffrn_detector_area_resol_mean  ? 
_diffrn_standards_number          ? 
_diffrn_standards_interval_count  ? 
_diffrn_standards_interval_time   ? 
_diffrn_standards_decay_%         ? 
_diffrn_reflns_number             14733 
_diffrn_reflns_av_R_equivalents   0.0306 
_diffrn_reflns_av_sigmaI/netI     0.0454 
_diffrn_reflns_limit_h_min        -10 
_diffrn_reflns_limit_h_max        10 
_diffrn_reflns_limit_k_min        -15 
_diffrn_reflns_limit_k_max        15 
_diffrn_reflns_limit_l_min        -23 
_diffrn_reflns_limit_l_max        23 
_diffrn_reflns_theta_min          1.06 
_diffrn_reflns_theta_max          25.00 
_reflns_number_total              7421 
_reflns_number_gt                 4999 
_reflns_threshold_expression      >2sigma(I) 
 
_computing_data_collection        ? 
_computing_cell_refinement        ? 
_computing_data_reduction         ? 
_computing_structure_solution     'SHELXS-97 (Sheldrick, 1990)' 
_computing_structure_refinement   'SHELXL-97 (Sheldrick, 1997)' 
_computing_molecular_graphics     ? 
_computing_publication_material   ? 
 
_refine_special_details 
; 
 Refinement of F^2^ against ALL reflections.  The weighted R-factor wR and 
 goodness of fit S are based on F^2^, conventional R-factors R are based 
 on F, with F set to zero for negative F^2^. The threshold expression of 
 F^2^ > 2sigma(F^2^) is used only for calculating R-factors(gt) etc. and is 
 not relevant to the choice of reflections for refinement.  R-factors based 
 on F^2^ are statistically about twice as large as those based on F, and R- 
 factors based on ALL data will be even larger. 
; 
 
_refine_ls_structure_factor_coef  Fsqd  
_refine_ls_matrix_type            full 
_refine_ls_weighting_scheme       calc  
_refine_ls_weighting_details 
 'calc w=1/[\s^2^(Fo^2^)+(0.1000P)^2^+0.0000P] where P=(Fo^2^+2Fc^2^)/3' 
_atom_sites_solution_primary      direct 
_atom_sites_solution_secondary    difmap 
_atom_sites_solution_hydrogens    geom 
_refine_ls_hydrogen_treatment     mixed 
_refine_ls_extinction_method      none 
_refine_ls_extinction_coef        ? 
_refine_ls_number_reflns          7421 
_refine_ls_number_parameters      421 
_refine_ls_number_restraints      0 
_refine_ls_R_factor_all           0.1621 
_refine_ls_R_factor_gt            0.1252 
_refine_ls_wR_factor_ref          0.3986 
_refine_ls_wR_factor_gt           0.3788 
_refine_ls_goodness_of_fit_ref    2.750 
_refine_ls_restrained_S_all       2.750 
_refine_ls_shift/su_max           1.031 
_refine_ls_shift/su_mean          0.125 
 
loop_ 
 _atom_site_label 
 _atom_site_type_symbol 
 _atom_site_fract_x 
 _atom_site_fract_y 
 _atom_site_fract_z 
 _atom_site_U_iso_or_equiv 
 _atom_site_adp_type 
 _atom_site_occupancy 
 _atom_site_symmetry_multiplicity 
 _atom_site_calc_flag 
 _atom_site_refinement_flags 
 _atom_site_disorder_assembly 
 _atom_site_disorder_group 
Si1A Si 0.6170(2) 0.74197(12) 0.25570(8) 0.0532(6) Uani 1 1 d . . . 
C1A C 0.5265(6) 0.9339(4) 0.0599(2) 0.0400(13) Uani 1 1 d . . . 
C2A C 0.3930(6) 0.9226(4) 0.0264(2) 0.0372(12) Uani 1 1 d . . . 
C3A C 0.2845(6) 0.8481(4) 0.0509(2) 0.0434(13) Uani 1 1 d . . . 
H3A H 0.3008 0.8029 0.0912 0.052 Uiso 1 1 calc R . . 
C4A C 0.1549(6) 0.8385(4) 0.0182(3) 0.0437(13) Uani 1 1 d . . . 
C5A C 0.0406(7) 0.7631(5) 0.0441(3) 0.0565(15) Uani 1 1 d . . . 
H5A H 0.0543 0.7178 0.0846 0.068 Uiso 1 1 calc R . . 
C6A C -0.0857(7) 0.7576(5) 0.0105(3) 0.0596(16) Uani 1 1 d . . . 
H6A H -0.1584 0.7070 0.0275 0.072 Uiso 1 1 calc R . . 
C7A C -0.1120(7) 0.8251(5) -0.0492(3) 0.0555(15) Uani 1 1 d . . . 
H7A H -0.2019 0.8200 -0.0715 0.067 Uiso 1 1 calc R . . 
C8A C -0.0090(6) 0.8970(4) -0.0745(3) 0.0485(14) Uani 1 1 d . . . 
H8A H -0.0297 0.9427 -0.1140 0.058 Uiso 1 1 calc R . . 
C9A C 0.1299(6) 0.9064(4) -0.0438(2) 0.0412(13) Uani 1 1 d . . . 
C10A C 0.2338(6) 0.9778(4) -0.0678(2) 0.0401(13) Uani 1 1 d . . . 
H10A H 0.2165 1.0216 -0.1085 0.048 Uiso 1 1 calc R . . 
C11A C 0.3683(6) 0.9909(4) -0.0354(2) 0.0372(12) Uani 1 1 d . . . 
C12A C 0.5529(6) 0.8648(4) 0.1205(3) 0.0469(14) Uani 1 1 d . . . 
C13A C 0.5765(7) 0.8104(4) 0.1717(3) 0.0536(15) Uani 1 1 d . . . 
C14A C 0.8344(8) 0.7258(5) 0.2541(3) 0.0693(19) Uani 1 1 d . . . 
H14A H 0.8592 0.6950 0.3002 0.083 Uiso 1 1 calc R . . 
H14B H 0.8780 0.6745 0.2197 0.083 Uiso 1 1 calc R . . 
C15A C 0.9171(8) 0.8303(5) 0.2361(3) 0.0725(19) Uani 1 1 d . . . 
H15A H 0.8983 0.8581 0.1886 0.087 Uiso 1 1 calc R . . 
H15B H 0.8676 0.8832 0.2683 0.087 Uiso 1 1 calc R . . 
C16A C 1.0850(9) 0.8209(7) 0.2393(4) 0.099(3) Uani 1 1 d . . . 
H16A H 1.1049 0.8040 0.2875 0.148 Uiso 1 1 calc R . . 
H16B H 1.1281 0.8881 0.2218 0.148 Uiso 1 1 calc R . . 
H16C H 1.1348 0.7643 0.2108 0.148 Uiso 1 1 calc R . . 
C17A C 0.5257(7) 0.8309(5) 0.3232(3) 0.0606(16) Uani 1 1 d . . . 
H17A H 0.5586 0.9031 0.3096 0.073 Uiso 1 1 calc R . . 
H17B H 0.4108 0.8344 0.3238 0.073 Uiso 1 1 calc R . . 
C18A C 0.5643(8) 0.7987(5) 0.3968(3) 0.0653(17) Uani 1 1 d . . . 
H18A H 0.5302 0.7271 0.4113 0.078 Uiso 1 1 calc R . . 
H18B H 0.6790 0.7953 0.3969 0.078 Uiso 1 1 calc R . . 
C19A C 0.4863(9) 0.8755(6) 0.4490(3) 0.088(2) Uani 1 1 d . . . 
H19A H 0.5183 0.9469 0.4345 0.132 Uiso 1 1 calc R . . 
H19B H 0.5178 0.8532 0.4948 0.132 Uiso 1 1 calc R . . 
H19C H 0.3726 0.8760 0.4512 0.132 Uiso 1 1 calc R . . 
C20A C 0.5373(12) 0.6105(6) 0.2649(4) 0.110(3) Uani 1 1 d . . . 
H20A H 0.6134 0.5626 0.2375 0.132 Uiso 1 1 calc R . . 
H20B H 0.5367 0.5839 0.3142 0.132 Uiso 1 1 calc R . . 
C21A C 0.3947(11) 0.5977(7) 0.2472(5) 0.124(4) Uani 1 1 d . . . 
H21A H 0.3943 0.6274 0.1986 0.149 Uiso 1 1 calc R . . 
H21B H 0.3186 0.6438 0.2760 0.149 Uiso 1 1 calc R . . 
C22A C 0.3280(8) 0.4902(5) 0.2517(4) 0.082(2) Uani 1 1 d . . . 
H22A H 0.3814 0.4489 0.2140 0.123 Uiso 1 1 calc R . . 
H22B H 0.2160 0.5003 0.2475 0.123 Uiso 1 1 calc R . . 
H22C H 0.3438 0.4520 0.2964 0.123 Uiso 1 1 calc R . . 
Si1B Si 0.7341(2) 0.23001(12) 0.27087(8) 0.0530(6) Uani 1 1 d . . . 
C1B C 0.5567(6) 0.4378(4) 0.4439(2) 0.0387(12) Uani 1 1 d . . . 
C2B C 0.6535(6) 0.5103(4) 0.4640(2) 0.0369(12) Uani 1 1 d . . . 
C3B C 0.8037(6) 0.5236(4) 0.4293(2) 0.0398(13) Uani 1 1 d . . . 
H3B H 0.8403 0.4836 0.3905 0.048 Uiso 1 1 calc R . . 
C4B C 0.8997(6) 0.5924(4) 0.4496(2) 0.0412(13) Uani 1 1 d . . . 
C5B C 1.0531(6) 0.6073(5) 0.4161(3) 0.0494(14) Uani 1 1 d . . . 
H5B H 1.0922 0.5687 0.3770 0.059 Uiso 1 1 calc R . . 
C6B C 1.1441(7) 0.6739(5) 0.4378(3) 0.0585(16) Uani 1 1 d . . . 
H6B H 1.2462 0.6812 0.4142 0.070 Uiso 1 1 calc R . . 
C7B C 1.0903(7) 0.7332(5) 0.4951(3) 0.0611(17) Uani 1 1 d . . . 
H7B H 1.1555 0.7813 0.5093 0.073 Uiso 1 1 calc R . . 
C8B C 0.9478(7) 0.7226(5) 0.5298(3) 0.0568(16) Uani 1 1 d . . . 
H8B H 0.9145 0.7619 0.5692 0.068 Uiso 1 1 calc R . . 
C9B C 0.8450(6) 0.6531(4) 0.5085(2) 0.0427(13) Uani 1 1 d . . . 
C10B C 0.6950(6) 0.6424(4) 0.5420(3) 0.0414(13) Uani 1 1 d . . . 
H10B H 0.6580 0.6836 0.5802 0.050 Uiso 1 1 calc R . . 
C11B C 0.5965(6) 0.5728(4) 0.5212(2) 0.0355(12) Uani 1 1 d . . . 
C12B C 0.6145(6) 0.3723(4) 0.3878(2) 0.0381(12) Uani 1 1 d . . . 
C13B C 0.6630(6) 0.3165(4) 0.3414(3) 0.0472(13) Uani 1 1 d . . . 
C14B C 0.5858(11) 0.1453(7) 0.2576(4) 0.098(3) Uani 1 1 d . . . 
H14C H 0.6349 0.0925 0.2251 0.118 Uiso 1 1 calc R . . 
H14D H 0.5543 0.1059 0.3025 0.118 Uiso 1 1 calc R . . 
C15B C 0.4546(15) 0.1897(9) 0.2331(7) 0.152(4) Uani 1 1 d . . . 
H15C H 0.4852 0.2346 0.1903 0.183 Uiso 1 1 calc R . . 
H15D H 0.3987 0.2369 0.2677 0.183 Uiso 1 1 calc R . . 
C16B C 0.3295(9) 0.1062(7) 0.2149(5) 0.104(3) Uani 1 1 d . . . 
H16D H 0.3724 0.0719 0.1726 0.155 Uiso 1 1 calc R . . 
H16E H 0.2294 0.1457 0.2080 0.155 Uiso 1 1 calc R . . 
H16F H 0.3133 0.0522 0.2536 0.155 Uiso 1 1 calc R . . 
C17B C 0.8988(8) 0.1396(5) 0.3018(3) 0.0722(19) Uani 1 1 d . . . 
H17C H 0.9448 0.0953 0.2637 0.087 Uiso 1 1 calc R . . 
H17D H 0.9807 0.1836 0.3116 0.087 Uiso 1 1 calc R . . 
C18B C 0.8547(12) 0.0668(5) 0.3662(4) 0.103(3) Uani 1 1 d . . . 
H18C H 0.8006 0.1105 0.4032 0.124 Uiso 1 1 calc R . . 
H18D H 0.7797 0.0184 0.3552 0.124 Uiso 1 1 calc R . . 
C19B C 0.9883(14) 0.0023(7) 0.3934(5) 0.154(5) Uani 1 1 d . . . 
H19D H 1.0510 -0.0342 0.3556 0.231 Uiso 1 1 calc R . . 
H19E H 0.9489 -0.0501 0.4297 0.231 Uiso 1 1 calc R . . 
H19F H 1.0532 0.0487 0.4127 0.231 Uiso 1 1 calc R . . 
C20B C 0.7914(7) 0.3176(4) 0.1921(3) 0.0554(15) Uani 1 1 d . . . 
H20C H 0.8222 0.2729 0.1526 0.066 Uiso 1 1 calc R . . 
H20D H 0.6987 0.3647 0.1815 0.066 Uiso 1 1 calc R . . 
C21B C 0.9247(8) 0.3863(5) 0.1971(3) 0.0674(18) Uani 1 1 d . . . 
H21C H 1.0198 0.3395 0.2045 0.081 Uiso 1 1 calc R . . 
H21D H 0.8971 0.4284 0.2380 0.081 Uiso 1 1 calc R . . 
C22B C 0.9616(9) 0.4619(6) 0.1326(4) 0.088(2) Uani 1 1 d . . . 
H22D H 0.9966 0.4208 0.0923 0.132 Uiso 1 1 calc R . . 
H22E H 1.0444 0.5058 0.1401 0.132 Uiso 1 1 calc R . . 
H22F H 0.8675 0.5076 0.1241 0.132 Uiso 1 1 calc R . . 
 
loop_ 
 _atom_site_aniso_label 
 _atom_site_aniso_U_11 
 _atom_site_aniso_U_22 
 _atom_site_aniso_U_33 
 _atom_site_aniso_U_23 
 _atom_site_aniso_U_13 
 _atom_site_aniso_U_12 
Si1A 0.0799(13) 0.0416(9) 0.0413(9) 0.0147(7) -0.0263(8) -0.0123(8) 
C1A 0.054(3) 0.036(3) 0.027(2) 0.005(2) -0.007(2) 0.006(2) 
C2A 0.043(3) 0.036(3) 0.031(3) 0.003(2) -0.005(2) 0.003(2) 
C3A 0.051(3) 0.043(3) 0.034(3) 0.004(2) -0.005(2) 0.004(3) 
C4A 0.053(3) 0.035(3) 0.041(3) -0.003(2) 0.000(3) 0.000(2) 
C5A 0.059(4) 0.055(4) 0.053(4) 0.003(3) -0.004(3) -0.007(3) 
C6A 0.054(4) 0.058(4) 0.067(4) -0.012(3) -0.001(3) -0.014(3) 
C7A 0.056(4) 0.059(4) 0.053(4) -0.013(3) -0.006(3) -0.009(3) 
C8A 0.055(4) 0.055(3) 0.036(3) -0.011(3) -0.008(3) 0.007(3) 
C9A 0.044(3) 0.043(3) 0.035(3) -0.009(2) -0.001(2) 0.005(3) 
C10A 0.051(3) 0.041(3) 0.025(2) 0.004(2) -0.003(2) 0.006(2) 
C11A 0.038(3) 0.038(3) 0.032(3) 0.005(2) -0.003(2) 0.005(2) 
C12A 0.055(3) 0.045(3) 0.039(3) 0.009(3) -0.009(3) -0.005(3) 
C13A 0.067(4) 0.049(3) 0.045(3) 0.013(3) -0.016(3) -0.005(3) 
C14A 0.091(5) 0.067(4) 0.048(4) 0.004(3) -0.025(3) 0.021(4) 
C15A 0.071(5) 0.075(5) 0.071(4) 0.005(4) -0.026(4) 0.010(4) 
C16A 0.078(5) 0.148(8) 0.072(5) -0.009(5) -0.013(4) -0.007(5) 
C17A 0.066(4) 0.062(4) 0.050(3) 0.021(3) -0.003(3) -0.013(3) 
C18A 0.079(4) 0.065(4) 0.049(4) 0.006(3) -0.010(3) 0.002(3) 
C19A 0.123(6) 0.075(5) 0.057(4) -0.002(4) 0.009(4) 0.007(5) 
C20A 0.183(9) 0.087(5) 0.082(5) 0.051(4) -0.083(6) -0.081(6) 
C21A 0.138(8) 0.100(6) 0.145(8) 0.076(6) -0.077(7) -0.061(6) 
C22A 0.083(5) 0.057(4) 0.112(6) 0.003(4) -0.031(4) -0.019(4) 
Si1B 0.0738(12) 0.0456(9) 0.0392(9) -0.0095(7) 0.0016(8) -0.0096(8) 
C1B 0.044(3) 0.036(3) 0.033(3) 0.005(2) -0.004(2) 0.005(2) 
C2B 0.042(3) 0.038(3) 0.028(2) 0.006(2) -0.007(2) 0.006(2) 
C3B 0.044(3) 0.043(3) 0.027(3) 0.009(2) -0.001(2) 0.004(2) 
C4B 0.043(3) 0.046(3) 0.031(3) 0.011(2) -0.005(2) -0.001(3) 
C5B 0.044(3) 0.062(4) 0.039(3) 0.011(3) -0.005(3) -0.002(3) 
C6B 0.047(4) 0.071(4) 0.053(4) 0.024(3) -0.007(3) -0.013(3) 
C7B 0.056(4) 0.070(4) 0.059(4) 0.014(3) -0.014(3) -0.022(3) 
C8B 0.063(4) 0.055(4) 0.054(4) 0.004(3) -0.014(3) -0.007(3) 
C9B 0.054(4) 0.036(3) 0.036(3) 0.006(2) -0.007(3) -0.002(2) 
C10B 0.049(3) 0.036(3) 0.038(3) 0.002(2) -0.004(2) -0.001(2) 
C11B 0.041(3) 0.036(3) 0.026(2) 0.006(2) -0.005(2) 0.007(2) 
C12B 0.044(3) 0.040(3) 0.029(3) -0.001(2) -0.002(2) 0.001(2) 
C13B 0.052(3) 0.047(3) 0.040(3) 0.000(3) 0.002(3) -0.003(3) 
C14B 0.110(7) 0.108(7) 0.087(6) 0.004(5) -0.038(5) -0.037(6) 
C15B 0.155(11) 0.131(9) 0.163(11) 0.009(8) 0.029(9) -0.059(8) 
C16B 0.063(5) 0.124(7) 0.129(7) 0.007(6) -0.027(5) -0.032(5) 
C17B 0.109(5) 0.042(3) 0.058(4) -0.010(3) 0.004(4) 0.017(3) 
C18B 0.185(9) 0.054(4) 0.067(5) -0.005(4) -0.017(5) 0.011(5) 
C19B 0.270(14) 0.093(7) 0.102(7) -0.014(6) -0.084(8) 0.063(8) 
C20B 0.071(4) 0.050(3) 0.043(3) -0.012(3) 0.009(3) -0.003(3) 
C21B 0.067(4) 0.064(4) 0.065(4) 0.003(3) 0.013(3) -0.012(3) 
C22B 0.104(6) 0.078(5) 0.075(5) 0.003(4) 0.017(4) -0.025(4) 
 
_geom_special_details 
; 
 All esds (except the esd in the dihedral angle between two l.s. planes) 
 are estimated using the full covariance matrix.  The cell esds are taken 
 into account individually in the estimation of esds in distances, angles 
 and torsion angles; correlations between esds in cell parameters are only 
 used when they are defined by crystal symmetry.  An approximate (isotropic) 
 treatment of cell esds is used for estimating esds involving l.s. planes. 
; 
 
loop_ 
 _geom_bond_atom_site_label_1 
 _geom_bond_atom_site_label_2 
 _geom_bond_distance 
 _geom_bond_site_symmetry_2 
 _geom_bond_publ_flag 
Si1A C20A 1.852(7) . ? 
Si1A C13A 1.846(5) . ? 
Si1A C14A 1.872(7) . ? 
Si1A C17A 1.857(6) . ? 
C1A C11A 1.392(7) 2_675 ? 
C1A C2A 1.425(7) . ? 
C1A C12A 1.441(6) . ? 
C2A C3A 1.405(7) . ? 
C2A C11A 1.451(6) . ? 
C3A C4A 1.382(7) . ? 
C3A H3A 0.9500 . ? 
C4A C9A 1.452(7) . ? 
C4A C5A 1.454(7) . ? 
C5A C6A 1.357(8) . ? 
C5A H5A 0.9500 . ? 
C6A C7A 1.417(8) . ? 
C6A H6A 0.9500 . ? 
C7A C8A 1.353(8) . ? 
C7A H7A 0.9500 . ? 
C8A C9A 1.432(7) . ? 
C8A H8A 0.9500 . ? 
C9A C10A 1.349(7) . ? 
C10A C11A 1.426(7) . ? 
C10A H10A 0.9500 . ? 
C11A C1A 1.392(7) 2_675 ? 
C12A C13A 1.195(7) . ? 
C14A C15A 1.559(9) . ? 
C14A H14A 0.9900 . ? 
C14A H14B 0.9900 . ? 
C15A C16A 1.458(9) . ? 
C15A H15A 0.9900 . ? 
C15A H15B 0.9900 . ? 
C16A H16A 0.9800 . ? 
C16A H16B 0.9800 . ? 
C16A H16C 0.9800 . ? 
C17A C18A 1.530(7) . ? 
C17A H17A 0.9900 . ? 
C17A H17B 0.9900 . ? 
C18A C19A 1.520(8) . ? 
C18A H18A 0.9900 . ? 
C18A H18B 0.9900 . ? 
C19A H19A 0.9801 . ? 
C19A H19B 0.9801 . ? 
C19A H19C 0.9801 . ? 
C20A C21A 1.353(10) . ? 
C20A H20A 0.9900 . ? 
C20A H20B 0.9900 . ? 
C21A C22A 1.524(10) . ? 
C21A H21A 0.9900 . ? 
C21A H21B 0.9900 . ? 
C22A H22A 0.9800 . ? 
C22A H22B 0.9800 . ? 
C22A H22C 0.9800 . ? 
Si1B C14B 1.807(8) . ? 
Si1B C13B 1.841(6) . ? 
Si1B C20B 1.858(6) . ? 
Si1B C17B 1.878(7) . ? 
C1B C2B 1.413(7) . ? 
C1B C11B 1.421(7) 2_666 ? 
C1B C12B 1.440(6) . ? 
C2B C3B 1.404(7) . ? 
C2B C11B 1.431(7) . ? 
C3B C4B 1.376(7) . ? 
C3B H3B 0.9500 . ? 
C4B C9B 1.442(7) . ? 
C4B C5B 1.423(7) . ? 
C5B C6B 1.337(8) . ? 
C5B H5B 0.9500 . ? 
C6B C7B 1.406(8) . ? 
C6B H6B 0.9500 . ? 
C7B C8B 1.340(8) . ? 
C7B H7B 0.9500 . ? 
C8B C9B 1.433(7) . ? 
C8B H8B 0.9500 . ? 
C9B C10B 1.388(7) . ? 
C10B C11B 1.403(7) . ? 
C10B H10B 0.9500 . ? 
C11B C1B 1.421(7) 2_666 ? 
C12B C13B 1.205(6) . ? 
C14B C15B 1.348(13) . ? 
C14B H14C 0.9900 . ? 
C14B H14D 0.9900 . ? 
C15B C16B 1.674(13) . ? 
C15B H15C 0.9900 . ? 
C15B H15D 0.9900 . ? 
C16B H16D 0.9800 . ? 
C16B H16E 0.9800 . ? 
C16B H16F 0.9800 . ? 
C17B C18B 1.522(9) . ? 
C17B H17C 0.9900 . ? 
C17B H17D 0.9900 . ? 
C18B C19B 1.485(11) . ? 
C18B H18C 0.9900 . ? 
C18B H18D 0.9900 . ? 
C19B H19D 0.9800 . ? 
C19B H19E 0.9800 . ? 
C19B H19F 0.9800 . ? 
C20B C21B 1.527(9) . ? 
C20B H20C 0.9900 . ? 
C20B H20D 0.9900 . ? 
C21B C22B 1.534(8) . ? 
C21B H21C 0.9900 . ? 
C21B H21D 0.9900 . ? 
C22B H22D 0.9800 . ? 
C22B H22E 0.9800 . ? 
C22B H22F 0.9800 . ? 
 
loop_ 
 _geom_angle_atom_site_label_1 
 _geom_angle_atom_site_label_2 
 _geom_angle_atom_site_label_3 
 _geom_angle 
 _geom_angle_site_symmetry_1 
 _geom_angle_site_symmetry_3 
 _geom_angle_publ_flag 
C20A Si1A C13A 109.1(3) . . ? 
C20A Si1A C14A 110.1(4) . . ? 
C13A Si1A C14A 107.0(3) . . ? 
C20A Si1A C17A 113.3(4) . . ? 
C13A Si1A C17A 106.0(3) . . ? 
C14A Si1A C17A 111.1(3) . . ? 
C11A C1A C2A 121.9(4) 2_675 . ? 
C11A C1A C12A 119.6(5) 2_675 . ? 
C2A C1A C12A 118.6(5) . . ? 
C1A C2A C3A 122.7(4) . . ? 
C1A C2A C11A 118.4(4) . . ? 
C3A C2A C11A 118.9(5) . . ? 
C4A C3A C2A 122.0(5) . . ? 
C4A C3A H3A 119.0 . . ? 
C2A C3A H3A 119.0 . . ? 
C3A C4A C9A 119.4(5) . . ? 
C3A C4A C5A 122.2(5) . . ? 
C9A C4A C5A 118.4(5) . . ? 
C6A C5A C4A 120.0(5) . . ? 
C6A C5A H5A 120.0 . . ? 
C4A C5A H5A 120.1 . . ? 
C5A C6A C7A 121.8(6) . . ? 
C5A C6A H6A 119.1 . . ? 
C7A C6A H6A 119.1 . . ? 
C8A C7A C6A 119.9(6) . . ? 
C8A C7A H7A 120.1 . . ? 
C6A C7A H7A 119.9 . . ? 
C7A C8A C9A 122.2(5) . . ? 
C7A C8A H8A 118.8 . . ? 
C9A C8A H8A 119.0 . . ? 
C10A C9A C4A 119.0(5) . . ? 
C10A C9A C8A 123.3(5) . . ? 
C4A C9A C8A 117.6(5) . . ? 
C9A C10A C11A 123.5(4) . . ? 
C9A C10A H10A 118.3 . . ? 
C11A C10A H10A 118.3 . . ? 
C1A C11A C10A 123.0(4) 2_675 . ? 
C1A C11A C2A 119.7(4) 2_675 . ? 
C10A C11A C2A 117.3(4) . . ? 
C13A C12A C1A 177.7(6) . . ? 
C12A C13A Si1A 172.8(5) . . ? 
C15A C14A Si1A 114.6(4) . . ? 
C15A C14A H14A 108.6 . . ? 
Si1A C14A H14A 108.7 . . ? 
C15A C14A H14B 108.6 . . ? 
Si1A C14A H14B 108.6 . . ? 
H14A C14A H14B 107.6 . . ? 
C16A C15A C14A 115.6(6) . . ? 
C16A C15A H15A 108.4 . . ? 
C14A C15A H15A 108.3 . . ? 
C16A C15A H15B 108.5 . . ? 
C14A C15A H15B 108.3 . . ? 
H15A C15A H15B 107.4 . . ? 
C15A C16A H16A 109.4 . . ? 
C15A C16A H16B 109.3 . . ? 
H16A C16A H16B 109.5 . . ? 
C15A C16A H16C 109.7 . . ? 
H16A C16A H16C 109.5 . . ? 
H16B C16A H16C 109.5 . . ? 
C18A C17A Si1A 115.6(4) . . ? 
C18A C17A H17A 108.3 . . ? 
Si1A C17A H17A 108.4 . . ? 
C18A C17A H17B 108.5 . . ? 
Si1A C17A H17B 108.4 . . ? 
H17A C17A H17B 107.4 . . ? 
C19A C18A C17A 112.5(5) . . ? 
C19A C18A H18A 109.1 . . ? 
C17A C18A H18A 109.0 . . ? 
C19A C18A H18B 109.1 . . ? 
C17A C18A H18B 109.2 . . ? 
H18A C18A H18B 107.9 . . ? 
C18A C19A H19A 109.4 . . ? 
C18A C19A H19B 109.6 . . ? 
H19A C19A H19B 109.5 . . ? 
C18A C19A H19C 109.4 . . ? 
H19A C19A H19C 109.5 . . ? 
H19B C19A H19C 109.5 . . ? 
C21A C20A Si1A 121.6(7) . . ? 
C21A C20A H20A 106.8 . . ? 
Si1A C20A H20A 106.9 . . ? 
C21A C20A H20B 107.1 . . ? 
Si1A C20A H20B 107.0 . . ? 
H20A C20A H20B 106.7 . . ? 
C20A C21A C22A 122.9(7) . . ? 
C20A C21A H21A 106.8 . . ? 
C22A C21A H21A 106.6 . . ? 
C20A C21A H21B 106.4 . . ? 
C22A C21A H21B 106.6 . . ? 
H21A C21A H21B 106.6 . . ? 
C21A C22A H22A 109.5 . . ? 
C21A C22A H22B 109.5 . . ? 
H22A C22A H22B 109.5 . . ? 
C21A C22A H22C 109.4 . . ? 
H22A C22A H22C 109.5 . . ? 
H22B C22A H22C 109.5 . . ? 
C14B Si1B C13B 110.8(4) . . ? 
C14B Si1B C20B 112.0(3) . . ? 
C13B Si1B C20B 107.1(2) . . ? 
C14B Si1B C17B 106.1(4) . . ? 
C13B Si1B C17B 106.3(3) . . ? 
C20B Si1B C17B 114.4(3) . . ? 
C2B C1B C11B 121.1(4) . 2_666 ? 
C2B C1B C12B 119.6(4) . . ? 
C11B C1B C12B 119.3(5) 2_666 . ? 
C1B C2B C3B 121.9(5) . . ? 
C1B C2B C11B 119.1(5) . . ? 
C3B C2B C11B 119.0(5) . . ? 
C4B C3B C2B 122.2(5) . . ? 
C4B C3B H3B 118.9 . . ? 
C2B C3B H3B 118.9 . . ? 
C3B C4B C9B 119.2(5) . . ? 
C3B C4B C5B 123.8(5) . . ? 
C9B C4B C5B 117.0(5) . . ? 
C6B C5B C4B 122.2(6) . . ? 
C6B C5B H5B 118.9 . . ? 
C4B C5B H5B 118.9 . . ? 
C5B C6B C7B 120.7(6) . . ? 
C5B C6B H6B 119.6 . . ? 
C7B C6B H6B 119.7 . . ? 
C8B C7B C6B 120.6(6) . . ? 
C8B C7B H7B 119.6 . . ? 
C6B C7B H7B 119.7 . . ? 
C7B C8B C9B 121.0(6) . . ? 
C7B C8B H8B 119.5 . . ? 
C9B C8B H8B 119.5 . . ? 
C10B C9B C4B 119.0(5) . . ? 
C10B C9B C8B 122.6(5) . . ? 
C4B C9B C8B 118.4(5) . . ? 
C9B C10B C11B 122.0(5) . . ? 
C9B C10B H10B 119.1 . . ? 
C11B C10B H10B 119.0 . . ? 
C10B C11B C1B 121.5(5) . 2_666 ? 
C10B C11B C2B 118.7(5) . . ? 
C1B C11B C2B 119.8(5) 2_666 . ? 
C13B C12B C1B 179.3(5) . . ? 
C12B C13B Si1B 179.0(5) . . ? 
C15B C14B Si1B 118.8(8) . . ? 
C15B C14B H14C 107.4 . . ? 
Si1B C14B H14C 107.5 . . ? 
C15B C14B H14D 107.8 . . ? 
Si1B C14B H14D 107.7 . . ? 
H14C C14B H14D 107.1 . . ? 
C14B C15B C16B 116.5(9) . . ? 
C14B C15B H15C 108.4 . . ? 
C16B C15B H15C 108.3 . . ? 
C14B C15B H15D 108.0 . . ? 
C16B C15B H15D 108.1 . . ? 
H15C C15B H15D 107.3 . . ? 
C15B C16B H16D 109.3 . . ? 
C15B C16B H16E 109.5 . . ? 
H16D C16B H16E 109.5 . . ? 
C15B C16B H16F 109.6 . . ? 
H16D C16B H16F 109.5 . . ? 
H16E C16B H16F 109.5 . . ? 
C18B C17B Si1B 115.4(5) . . ? 
C18B C17B H17C 108.4 . . ? 
Si1B C17B H17C 108.4 . . ? 
C18B C17B H17D 108.5 . . ? 
Si1B C17B H17D 108.4 . . ? 
H17C C17B H17D 107.5 . . ? 
C19B C18B C17B 114.7(8) . . ? 
C19B C18B H18C 108.6 . . ? 
C17B C18B H18C 108.6 . . ? 
C19B C18B H18D 108.5 . . ? 
C17B C18B H18D 108.7 . . ? 
H18C C18B H18D 107.6 . . ? 
C18B C19B H19D 109.4 . . ? 
C18B C19B H19E 109.7 . . ? 
H19D C19B H19E 109.5 . . ? 
C18B C19B H19F 109.4 . . ? 
H19D C19B H19F 109.5 . . ? 
H19E C19B H19F 109.5 . . ? 
C21B C20B Si1B 115.5(4) . . ? 
C21B C20B H20C 108.4 . . ? 
Si1B C20B H20C 108.5 . . ? 
C21B C20B H20D 108.3 . . ? 
Si1B C20B H20D 108.4 . . ? 
H20C C20B H20D 107.5 . . ? 
C20B C21B C22B 113.7(5) . . ? 
C20B C21B H21C 108.8 . . ? 
C22B C21B H21C 108.8 . . ? 
C20B C21B H21D 108.8 . . ? 
C22B C21B H21D 108.9 . . ? 
H21C C21B H21D 107.7 . . ? 
C21B C22B H22D 109.5 . . ? 
C21B C22B H22E 109.5 . . ? 
H22D C22B H22E 109.5 . . ? 
C21B C22B H22F 109.4 . . ? 
H22D C22B H22F 109.5 . . ? 
H22E C22B H22F 109.5 . . ? 
 
loop_ 
 _geom_torsion_atom_site_label_1 
 _geom_torsion_atom_site_label_2 
 _geom_torsion_atom_site_label_3 
 _geom_torsion_atom_site_label_4 
 _geom_torsion 
 _geom_torsion_site_symmetry_1 
 _geom_torsion_site_symmetry_2 
 _geom_torsion_site_symmetry_3 
 _geom_torsion_site_symmetry_4 
 _geom_torsion_publ_flag 
C11A C1A C2A C3A -179.2(4) 2_675 . . . ? 
C12A C1A C2A C3A 1.2(7) . . . . ? 
C11A C1A C2A C11A 0.8(8) 2_675 . . . ? 
C12A C1A C2A C11A -178.8(4) . . . . ? 
C1A C2A C3A C4A 179.5(5) . . . . ? 
C11A C2A C3A C4A -0.4(7) . . . . ? 
C2A C3A C4A C9A 0.6(7) . . . . ? 
C2A C3A C4A C5A -178.7(5) . . . . ? 
C3A C4A C5A C6A 179.3(5) . . . . ? 
C9A C4A C5A C6A 0.0(8) . . . . ? 
C4A C5A C6A C7A -1.2(9) . . . . ? 
C5A C6A C7A C8A 0.6(9) . . . . ? 
C6A C7A C8A C9A 1.4(8) . . . . ? 
C3A C4A C9A C10A -0.3(7) . . . . ? 
C5A C4A C9A C10A 179.0(5) . . . . ? 
C3A C4A C9A C8A -177.5(5) . . . . ? 
C5A C4A C9A C8A 1.8(7) . . . . ? 
C7A C8A C9A C10A -179.6(5) . . . . ? 
C7A C8A C9A C4A -2.5(7) . . . . ? 
C4A C9A C10A C11A -0.3(7) . . . . ? 
C8A C9A C10A C11A 176.8(4) . . . . ? 
C9A C10A C11A C1A -178.8(4) . . . 2_675 ? 
C9A C10A C11A C2A 0.5(7) . . . . ? 
C1A C2A C11A C1A -0.7(8) . . . 2_675 ? 
C3A C2A C11A C1A 179.2(4) . . . 2_675 ? 
C1A C2A C11A C10A 179.9(4) . . . . ? 
C3A C2A C11A C10A -0.1(7) . . . . ? 
C11A C1A C12A C13A 40(16) 2_675 . . . ? 
C2A C1A C12A C13A -141(16) . . . . ? 
C1A C12A C13A Si1A 8(19) . . . . ? 
C20A Si1A C13A C12A 160(4) . . . . ? 
C14A Si1A C13A C12A -80(4) . . . . ? 
C17A Si1A C13A C12A 38(4) . . . . ? 
C20A Si1A C14A C15A 171.8(5) . . . . ? 
C13A Si1A C14A C15A 53.3(5) . . . . ? 
C17A Si1A C14A C15A -61.9(5) . . . . ? 
Si1A C14A C15A C16A 175.9(5) . . . . ? 
C20A Si1A C17A C18A 69.1(6) . . . . ? 
C13A Si1A C17A C18A -171.2(5) . . . . ? 
C14A Si1A C17A C18A -55.4(5) . . . . ? 
Si1A C17A C18A C19A 179.6(5) . . . . ? 
C13A Si1A C20A C21A -43.0(10) . . . . ? 
C14A Si1A C20A C21A -160.1(8) . . . . ? 
C17A Si1A C20A C21A 74.8(9) . . . . ? 
Si1A C20A C21A C22A 177.7(7) . . . . ? 
C11B C1B C2B C3B -178.6(4) 2_666 . . . ? 
C12B C1B C2B C3B 2.3(7) . . . . ? 
C11B C1B C2B C11B 0.9(7) 2_666 . . . ? 
C12B C1B C2B C11B -178.1(4) . . . . ? 
C1B C2B C3B C4B -178.6(4) . . . . ? 
C11B C2B C3B C4B 1.8(7) . . . . ? 
C2B C3B C4B C9B 0.1(7) . . . . ? 
C2B C3B C4B C5B 179.4(4) . . . . ? 
C3B C4B C5B C6B -179.0(5) . . . . ? 
C9B C4B C5B C6B 0.3(8) . . . . ? 
C4B C5B C6B C7B -0.5(8) . . . . ? 
C5B C6B C7B C8B 1.3(9) . . . . ? 
C6B C7B C8B C9B -1.8(9) . . . . ? 
C3B C4B C9B C10B -1.8(7) . . . . ? 
C5B C4B C9B C10B 178.9(4) . . . . ? 
C3B C4B C9B C8B 178.6(4) . . . . ? 
C5B C4B C9B C8B -0.8(7) . . . . ? 
C7B C8B C9B C10B -178.1(5) . . . . ? 
C7B C8B C9B C4B 1.5(8) . . . . ? 
C4B C9B C10B C11B 1.4(7) . . . . ? 
C8B C9B C10B C11B -179.0(4) . . . . ? 
C9B C10B C11B C1B 179.7(4) . . . 2_666 ? 
C9B C10B C11B C2B 0.6(7) . . . . ? 
C1B C2B C11B C10B 178.3(4) . . . . ? 
C3B C2B C11B C10B -2.2(6) . . . . ? 
C1B C2B C11B C1B -0.9(7) . . . 2_666 ? 
C3B C2B C11B C1B 178.7(4) . . . 2_666 ? 
C2B C1B C12B C13B 108(47) . . . . ? 
C11B C1B C12B C13B -71(47) 2_666 . . . ? 
C1B C12B C13B Si1B 62(64) . . . . ? 
C14B Si1B C13B C12B 10(29) . . . . ? 
C20B Si1B C13B C12B 133(28) . . . . ? 
C17B Si1B C13B C12B -105(28) . . . . ? 
C13B Si1B C14B C15B 67.0(9) . . . . ? 
C20B Si1B C14B C15B -52.6(10) . . . . ? 
C17B Si1B C14B C15B -178.1(9) . . . . ? 
Si1B C14B C15B C16B 174.5(6) . . . . ? 
C14B Si1B C17B C18B -55.8(6) . . . . ? 
C13B Si1B C17B C18B 62.2(5) . . . . ? 
C20B Si1B C17B C18B -179.8(5) . . . . ? 
Si1B C17B C18B C19B -175.2(6) . . . . ? 
C14B Si1B C20B C21B -175.8(5) . . . . ? 
C13B Si1B C20B C21B 62.6(5) . . . . ? 
C17B Si1B C20B C21B -55.0(5) . . . . ? 
Si1B C20B C21B C22B -176.6(4) . . . . ? 
 
_diffrn_measured_fraction_theta_max    0.999 
_diffrn_reflns_theta_full              25.00 
_diffrn_measured_fraction_theta_full   0.999 
_refine_diff_density_max    2.074 
_refine_diff_density_min   -0.608 
_refine_diff_density_rms    0.134 
