 
data_k04212s 
 
_audit_creation_method            SHELXL-97 
_chemical_name_systematic 
; 
 ? 
; 
_chemical_name_common             ? 
_chemical_melting_point           ? 
_chemical_formula_moiety          ? 
_chemical_formula_sum 
 'C34 H36 Br2 S2 Si2' 
_chemical_formula_weight          724.75 
 
loop_ 
 _atom_type_symbol 
 _atom_type_description 
 _atom_type_scat_dispersion_real 
 _atom_type_scat_dispersion_imag 
 _atom_type_scat_source 
 'C'  'C'    .0033    .0016 
 'International Tables Vol C Tables 4.2.6.8 and 6.1.1.4' 
 'H'  'H'    .0000    .0000 
 'International Tables Vol C Tables 4.2.6.8 and 6.1.1.4' 
 'Si'  'Si'    .0817    .0704 
 'International Tables Vol C Tables 4.2.6.8 and 6.1.1.4' 
 'S'  'S'    .1246    .1234 
 'International Tables Vol C Tables 4.2.6.8 and 6.1.1.4' 
 'Br'  'Br'   -.2901   2.4595 
 'International Tables Vol C Tables 4.2.6.8 and 6.1.1.4' 
 
_symmetry_cell_setting            triclinic
_symmetry_space_group_name_H-M    'P -1'
 
loop_ 
 _symmetry_equiv_pos_as_xyz 
 'x, y, z' 
 '-x, -y, -z' 
 
_cell_length_a                    7.1926(2) 
_cell_length_b                    10.2859(4) 
_cell_length_c                    11.1565(5) 
_cell_angle_alpha                 95.3686(13) 
_cell_angle_beta                  90.0935(14) 
_cell_angle_gamma                 98.625(2) 
_cell_volume                      812.37(5) 
_cell_formula_units_Z             1 
_cell_measurement_temperature     90.0(2) 
_cell_measurement_reflns_used     8891
_cell_measurement_theta_min       1.00
_cell_measurement_theta_max       27.48
 
_exptl_crystal_description        'long thin lath'
_exptl_crystal_colour             red
_exptl_crystal_size_max           1.25 
_exptl_crystal_size_mid           0.18 
_exptl_crystal_size_min           0.08 
_exptl_crystal_density_meas       ? 
_exptl_crystal_density_diffrn     1.481 
_exptl_crystal_density_method     'not measured' 
_exptl_crystal_F_000              370 
_exptl_absorpt_coefficient_mu     2.720 
_exptl_absorpt_correction_type    multi-scan
_exptl_absorpt_correction_T_min   0.4789 
_exptl_absorpt_correction_T_max   0.8220 
_exptl_absorpt_process_details    'Sadabs (Sheldrick, 1997)'
 
_exptl_special_details 
; 
 ? 
; 
 
_diffrn_ambient_temperature       90.0(2) 
_diffrn_radiation_wavelength      0.71073 
_diffrn_radiation_type            MoK\a 
_diffrn_radiation_source          'fine-focus sealed tube' 
_diffrn_radiation_monochromator   graphite 
_diffrn_measurement_device_type   'Nonius KappaCCD diffractometer
_diffrn_measurement_method        '\w scans at fixed \c = 55\%'
_diffrn_detector_area_resol_mean  18
_diffrn_standards_number          ? 
_diffrn_standards_interval_count  ? 
_diffrn_standards_interval_time   ? 
_diffrn_standards_decay_%         ? 
_diffrn_reflns_number             22334 
_diffrn_reflns_av_R_equivalents   0.0804 
_diffrn_reflns_av_sigmaI/netI     0.0530 
_diffrn_reflns_limit_h_min        -9 
_diffrn_reflns_limit_h_max        9 
_diffrn_reflns_limit_k_min        -13 
_diffrn_reflns_limit_k_max        13 
_diffrn_reflns_limit_l_min        -14 
_diffrn_reflns_limit_l_max        14 
_diffrn_reflns_theta_min          1.83 
_diffrn_reflns_theta_max          27.49 
_reflns_number_total              3736 
_reflns_number_gt                 3086 
_reflns_threshold_expression      >2\s(I)    
 
_computing_data_collection        'COLLECT (Nonius, 1998)'
_computing_cell_refinement        'SCALEPACK (Otwinowski & Minor, 1997)'
_computing_data_reduction         'DENZO-SMN (Otwinowski & Minor, 1997)'
_computing_structure_solution     'SHELXS-97 (Sheldrick, 1990)' 
_computing_structure_refinement   'SHELXL-97 (Sheldrick, 1997)' 
_computing_molecular_graphics     'XP in SHELXTL (Sheldrick, 1994)'
_computing_publication_material
; 
SHELX97-2 (Sheldrick, 1997) and local procedures 
; 
 
_refine_special_details 
; 
 Refinement of F^2^ against ALL reflections.  The weighted R-factor wR and 
 goodness of fit S are based on F^2^, conventional R-factors R are based 
 on F, with F set to zero for negative F^2^. The threshold expression of 
 F^2^ > 2sigma(F^2^) is used only for calculating R-factors(gt) etc. and is 
 not relevant to the choice of reflections for refinement.  R-factors based 
 on F^2^ are statistically about twice as large as those based on F, and R- 
 factors based on ALL data will be even larger. 
; 
 
_refine_ls_structure_factor_coef  Fsqd  
_refine_ls_matrix_type            full 
_refine_ls_weighting_scheme       calc  
_refine_ls_weighting_details 
 'calc w=1/[\s^2^(Fo^2^)+(0.0311P)^2^+0.5717P] where P=(Fo^2^+2Fc^2^)/3' 
_atom_sites_solution_primary      direct 
_atom_sites_solution_secondary    difmap 
_atom_sites_solution_hydrogens    geom 
_refine_ls_hydrogen_treatment     constr 
_refine_ls_extinction_method      none 
_refine_ls_extinction_coef        ? 
_refine_ls_number_reflns          3736 
_refine_ls_number_parameters      203 
_refine_ls_number_restraints      13 
_refine_ls_R_factor_all           0.0513 
_refine_ls_R_factor_gt            0.0388 
_refine_ls_wR_factor_ref          0.0937 
_refine_ls_wR_factor_gt           0.0885 
_refine_ls_goodness_of_fit_ref    1.054 
_refine_ls_restrained_S_all       1.057 
_refine_ls_shift/su_max           0.001 
_refine_ls_shift/su_mean          0.000 
 
loop_ 
 _atom_site_label 
 _atom_site_type_symbol 
 _atom_site_fract_x 
 _atom_site_fract_y 
 _atom_site_fract_z 
 _atom_site_U_iso_or_equiv 
 _atom_site_adp_type 
 _atom_site_occupancy 
 _atom_site_symmetry_multiplicity 
 _atom_site_calc_flag 
 _atom_site_refinement_flags 
 _atom_site_disorder_assembly 
 _atom_site_disorder_group 
Si1 Si -0.22717(9) 1.29003(6) 0.58846(5) 0.01649(14) Uani 1 1 d . . . 
C1 C -0.4498(3) 1.0694(2) 0.89752(18) 0.0170(4) Uani 1 1 d . . . 
C2 C -0.3413(3) 0.9734(2) 0.93051(18) 0.0160(4) Uani 1 1 d . B . 
C3 C -0.1826(3) 0.9456(2) 0.86331(19) 0.0183(5) Uani 1 1 d . . . 
H3 H -0.1472 0.9915 0.7949 0.022 Uiso 1 1 calc R A 1 
C4 C -0.0804(3) 0.8529(2) 0.89686(19) 0.0184(5) Uani 0.599(3) 1 d PD B 1 
S5 S 0.12027(17) 0.80570(12) 0.82020(10) 0.0187(3) Uani 0.599(3) 1 d PD B 1 
C6 C 0.1342(19) 0.6911(14) 0.9255(19) 0.0183(19) Uani 0.599(3) 1 d PD B 1 
Br1 Br 0.33397(13) 0.59272(10) 0.90898(12) 0.0245(2) Uani 0.599(3) 1 d PD B 1 
C7 C 0.0032(14) 0.6918(9) 1.0116(8) 0.0197(6) Uani 0.599(3) 1 d PD B 1 
H7 H -0.0018 0.6363 1.0753 0.024 Uiso 0.599(3) 1 calc PR B 1 
C8 C -0.1293(3) 0.7829(2) 1.00015(19) 0.0185(5) Uani 0.599(3) 1 d PD B 1 
C4' C -0.0804(3) 0.8529(2) 0.89686(19) 0.0184(5) Uani 0.401(3) 1 d PD B 2 
C5' C 0.0776(12) 0.8068(9) 0.8481(8) 0.0187(3) Uani 0.401(3) 1 d PD B 2 
H5' H 0.1344 0.8368 0.7769 0.022 Uiso 0.401(3) 1 calc PR B 2 
Br1' Br 0.3415(2) 0.62216(17) 0.86992(17) 0.0251(3) Uani 0.401(3) 1 d PD B 2 
C6' C 0.145(3) 0.716(2) 0.910(3) 0.0183(19) Uani 0.401(3) 1 d PD B 2 
S7' S 0.0071(5) 0.6685(3) 1.0327(3) 0.0197(6) Uani 0.401(3) 1 d PD B 2 
C8' C -0.1293(3) 0.7829(2) 1.00015(19) 0.0185(5) Uani 0.401(3) 1 d PD B 2 
C9 C -0.2830(3) 0.8070(2) 1.06700(19) 0.0189(5) Uani 1 1 d . . . 
H9 H -0.3165 0.7593 1.1346 0.023 Uiso 1 1 calc R B 1 
C10 C -0.3917(3) 0.9033(2) 1.03476(18) 0.0163(4) Uani 1 1 d . . . 
C11 C -0.3948(3) 1.1396(2) 0.79500(19) 0.0183(4) Uani 1 1 d . . . 
C12 C -0.3402(3) 1.1971(2) 0.70941(19) 0.0190(5) Uani 1 1 d . . . 
C13 C -0.1387(3) 1.4612(2) 0.6576(2) 0.0229(5) Uani 1 1 d . . . 
H13A H -0.0282 1.4584 0.7098 0.027 Uiso 1 1 calc R . . 
H13B H -0.0967 1.5178 0.5928 0.027 Uiso 1 1 calc R . . 
C14 C -0.2867(4) 1.5233(2) 0.7324(2) 0.0255(5) Uani 1 1 d . . . 
H14A H -0.3989 1.5228 0.6823 0.038 Uiso 1 1 calc R . . 
H14B H -0.2356 1.6144 0.7616 0.038 Uiso 1 1 calc R . . 
H14C H -0.3205 1.4723 0.8012 0.038 Uiso 1 1 calc R . . 
C15 C -0.4027(3) 1.2972(2) 0.4667(2) 0.0232(5) Uani 1 1 d . . . 
H15A H -0.5042 1.3433 0.5016 0.028 Uiso 1 1 calc R . . 
H15B H -0.3403 1.3512 0.4051 0.028 Uiso 1 1 calc R . . 
C16 C -0.4923(4) 1.1633(3) 0.4039(2) 0.0312(6) Uani 1 1 d . . . 
H16A H -0.3940 1.1176 0.3664 0.047 Uiso 1 1 calc R . . 
H16B H -0.5822 1.1773 0.3420 0.047 Uiso 1 1 calc R . . 
H16C H -0.5580 1.1095 0.4633 0.047 Uiso 1 1 calc R . . 
C17 C -0.0301(4) 1.2015(2) 0.5324(2) 0.0253(5) Uani 1 1 d . . . 
H17A H -0.0823 1.1098 0.5019 0.030 Uiso 1 1 calc R . . 
H17B H 0.0304 1.2457 0.4642 0.030 Uiso 1 1 calc R . . 
C18 C 0.1192(4) 1.1982(3) 0.6299(2) 0.0319(6) Uani 1 1 d . . . 
H18A H 0.1848 1.2879 0.6518 0.048 Uiso 1 1 calc R . . 
H18B H 0.2098 1.1415 0.5991 0.048 Uiso 1 1 calc R . . 
H18C H 0.0583 1.1632 0.7011 0.048 Uiso 1 1 calc R . . 
 
loop_ 
 _atom_site_aniso_label 
 _atom_site_aniso_U_11 
 _atom_site_aniso_U_22 
 _atom_site_aniso_U_33 
 _atom_site_aniso_U_23 
 _atom_site_aniso_U_13 
 _atom_site_aniso_U_12 
Si1 0.0211(3) 0.0149(3) 0.0135(3) 0.0038(2) 0.0027(2) 0.0012(2) 
C1 0.0229(11) 0.0131(10) 0.0129(9) 0.0012(8) -0.0006(8) -0.0038(9) 
C2 0.0196(11) 0.0118(10) 0.0148(10) 0.0003(8) -0.0018(8) -0.0030(8) 
C3 0.0233(12) 0.0147(10) 0.0152(10) 0.0020(8) 0.0014(9) -0.0032(9) 
C4 0.0201(11) 0.0153(10) 0.0171(10) -0.0033(8) -0.0005(9) -0.0029(9) 
S5 0.0187(7) 0.0191(5) 0.0172(7) 0.0006(4) 0.0062(4) 0.0000(4) 
C6 0.0178(19) 0.011(6) 0.024(5) 0.000(3) 0.0033(16) -0.003(3) 
Br1 0.0198(3) 0.0229(4) 0.0303(5) -0.0014(3) 0.0040(3) 0.0034(2) 
C7 0.0224(6) 0.0178(13) 0.0197(13) 0.0028(7) -0.0010(8) 0.0052(7) 
C8 0.0236(12) 0.0125(10) 0.0179(10) -0.0001(8) -0.0054(9) -0.0017(9) 
C4' 0.0201(11) 0.0153(10) 0.0171(10) -0.0033(8) -0.0005(9) -0.0029(9) 
C5' 0.0187(7) 0.0191(5) 0.0172(7) 0.0006(4) 0.0062(4) 0.0000(4) 
Br1' 0.0212(4) 0.0253(6) 0.0281(7) -0.0020(4) 0.0030(4) 0.0042(4) 
C6' 0.0178(19) 0.011(6) 0.024(5) 0.000(3) 0.0033(16) -0.003(3) 
S7' 0.0224(6) 0.0178(13) 0.0197(13) 0.0028(7) -0.0010(8) 0.0052(7) 
C8' 0.0236(12) 0.0125(10) 0.0179(10) -0.0001(8) -0.0054(9) -0.0017(9) 
C9 0.0254(12) 0.0144(10) 0.0155(10) 0.0030(8) -0.0026(9) -0.0022(9) 
C10 0.0207(11) 0.0130(10) 0.0135(10) 0.0005(8) -0.0022(8) -0.0031(9) 
C11 0.0217(11) 0.0143(10) 0.0180(10) 0.0001(8) -0.0015(9) 0.0002(9) 
C12 0.0227(12) 0.0164(11) 0.0177(11) 0.0018(9) 0.0008(9) 0.0020(9) 
C13 0.0268(13) 0.0183(11) 0.0222(11) 0.0016(9) 0.0047(10) -0.0010(9) 
C14 0.0288(13) 0.0209(12) 0.0256(12) -0.0034(9) -0.0006(10) 0.0035(10) 
C15 0.0269(12) 0.0238(12) 0.0192(11) 0.0059(9) -0.0011(9) 0.0024(10) 
C16 0.0330(14) 0.0343(14) 0.0231(12) -0.0018(10) -0.0010(11) -0.0025(11) 
C17 0.0299(13) 0.0257(12) 0.0219(11) 0.0035(9) 0.0053(10) 0.0089(10) 
C18 0.0265(13) 0.0405(15) 0.0316(13) 0.0079(12) 0.0061(11) 0.0119(12) 
 
_geom_special_details 
; 
 All esds (except the esd in the dihedral angle between two l.s. planes) 
 are estimated using the full covariance matrix.  The cell esds are taken 
 into account individually in the estimation of esds in distances, angles 
 and torsion angles; correlations between esds in cell parameters are only 
 used when they are defined by crystal symmetry.  An approximate (isotropic) 
 treatment of cell esds is used for estimating esds involving l.s. planes. 
; 
 
loop_ 
 _geom_bond_atom_site_label_1 
 _geom_bond_atom_site_label_2 
 _geom_bond_distance 
 _geom_bond_site_symmetry_2 
 _geom_bond_publ_flag 
Si1 C12 1.846(2) . ? 
Si1 C15 1.867(2) . ? 
Si1 C13 1.873(2) . ? 
Si1 C17 1.874(2) . ? 
C1 C10 1.417(3) 2_477 ? 
C1 C2 1.420(3) . ? 
C1 C11 1.434(3) . ? 
C2 C3 1.417(3) . ? 
C2 C10 1.444(3) . ? 
C3 C4 1.366(3) . ? 
C3 H3 0.9500 . ? 
C4 C8 1.432(3) . ? 
C4 S5 1.785(2) . ? 
S5 C6 1.753(12) . ? 
C6 C7 1.347(15) . ? 
C6 Br1 1.877(6) . ? 
C7 C8 1.446(9) . ? 
C7 H7 0.9500 . ? 
C8 C9 1.375(3) . ? 
C5' C6' 1.359(19) . ? 
C5' H5' 0.9500 . ? 
Br1' C6' 1.857(10) . ? 
C6' S7' 1.75(2) . ? 
C9 C10 1.422(3) . ? 
C9 H9 0.9500 . ? 
C10 C1 1.417(3) 2_477 ? 
C11 C12 1.205(3) . ? 
C13 C14 1.531(3) . ? 
C13 H13A 0.9900 . ? 
C13 H13B 0.9900 . ? 
C14 H14A 0.9800 . ? 
C14 H14B 0.9800 . ? 
C14 H14C 0.9800 . ? 
C15 C16 1.534(3) . ? 
C15 H15A 0.9900 . ? 
C15 H15B 0.9900 . ? 
C16 H16A 0.9800 . ? 
C16 H16B 0.9800 . ? 
C16 H16C 0.9800 . ? 
C17 C18 1.534(4) . ? 
C17 H17A 0.9900 . ? 
C17 H17B 0.9900 . ? 
C18 H18A 0.9800 . ? 
C18 H18B 0.9800 . ? 
C18 H18C 0.9800 . ? 
 
loop_ 
 _geom_angle_atom_site_label_1 
 _geom_angle_atom_site_label_2 
 _geom_angle_atom_site_label_3 
 _geom_angle 
 _geom_angle_site_symmetry_1 
 _geom_angle_site_symmetry_3 
 _geom_angle_publ_flag 
C12 Si1 C15 110.00(11) . . ? 
C12 Si1 C13 106.93(10) . . ? 
C15 Si1 C13 109.62(11) . . ? 
C12 Si1 C17 106.44(11) . . ? 
C15 Si1 C17 111.89(11) . . ? 
C13 Si1 C17 111.79(11) . . ? 
C10 C1 C2 120.80(19) 2_477 . ? 
C10 C1 C11 120.4(2) 2_477 . ? 
C2 C1 C11 118.8(2) . . ? 
C3 C2 C1 121.15(19) . . ? 
C3 C2 C10 119.0(2) . . ? 
C1 C2 C10 119.80(19) . . ? 
C4 C3 C2 120.1(2) . . ? 
C4 C3 H3 120.0 . . ? 
C2 C3 H3 120.0 . . ? 
C3 C4 C8 121.3(2) . . ? 
C3 C4 S5 125.15(17) . . ? 
C8 C4 S5 113.59(17) . . ? 
C6 S5 C4 88.7(3) . . ? 
C7 C6 S5 114.1(5) . . ? 
C7 C6 Br1 129.1(9) . . ? 
S5 C6 Br1 116.7(6) . . ? 
C6 C7 C8 115.3(7) . . ? 
C6 C7 H7 122.3 . . ? 
C8 C7 H7 122.3 . . ? 
C9 C8 C4 120.2(2) . . ? 
C9 C8 C7 131.6(4) . . ? 
C4 C8 C7 108.2(4) . . ? 
C6' C5' H5' 122.5 . . ? 
C5' C6' S7' 113.9(7) . . ? 
C5' C6' Br1' 128.4(14) . . ? 
S7' C6' Br1' 117.2(9) . . ? 
C8 C9 C10 119.9(2) . . ? 
C8 C9 H9 120.0 . . ? 
C10 C9 H9 120.0 . . ? 
C1 C10 C9 121.1(2) 2_477 . ? 
C1 C10 C2 119.4(2) 2_477 . ? 
C9 C10 C2 119.5(2) . . ? 
C12 C11 C1 176.9(2) . . ? 
C11 C12 Si1 172.7(2) . . ? 
C14 C13 Si1 113.13(16) . . ? 
C14 C13 H13A 109.0 . . ? 
Si1 C13 H13A 109.0 . . ? 
C14 C13 H13B 109.0 . . ? 
Si1 C13 H13B 109.0 . . ? 
H13A C13 H13B 107.8 . . ? 
C13 C14 H14A 109.5 . . ? 
C13 C14 H14B 109.5 . . ? 
H14A C14 H14B 109.5 . . ? 
C13 C14 H14C 109.5 . . ? 
H14A C14 H14C 109.5 . . ? 
H14B C14 H14C 109.5 . . ? 
C16 C15 Si1 115.57(17) . . ? 
C16 C15 H15A 108.4 . . ? 
Si1 C15 H15A 108.4 . . ? 
C16 C15 H15B 108.4 . . ? 
Si1 C15 H15B 108.4 . . ? 
H15A C15 H15B 107.4 . . ? 
C15 C16 H16A 109.5 . . ? 
C15 C16 H16B 109.5 . . ? 
H16A C16 H16B 109.5 . . ? 
C15 C16 H16C 109.5 . . ? 
H16A C16 H16C 109.5 . . ? 
H16B C16 H16C 109.5 . . ? 
C18 C17 Si1 112.81(16) . . ? 
C18 C17 H17A 109.0 . . ? 
Si1 C17 H17A 109.0 . . ? 
C18 C17 H17B 109.0 . . ? 
Si1 C17 H17B 109.0 . . ? 
H17A C17 H17B 107.8 . . ? 
C17 C18 H18A 109.5 . . ? 
C17 C18 H18B 109.5 . . ? 
H18A C18 H18B 109.5 . . ? 
C17 C18 H18C 109.5 . . ? 
H18A C18 H18C 109.5 . . ? 
H18B C18 H18C 109.5 . . ? 
 
loop_ 
 _geom_torsion_atom_site_label_1 
 _geom_torsion_atom_site_label_2 
 _geom_torsion_atom_site_label_3 
 _geom_torsion_atom_site_label_4 
 _geom_torsion 
 _geom_torsion_site_symmetry_1 
 _geom_torsion_site_symmetry_2 
 _geom_torsion_site_symmetry_3 
 _geom_torsion_site_symmetry_4 
 _geom_torsion_publ_flag 
C10 C1 C2 C3 -179.95(19) 2_477 . . . ? 
C11 C1 C2 C3 -0.7(3) . . . . ? 
C10 C1 C2 C10 -0.5(3) 2_477 . . . ? 
C11 C1 C2 C10 178.78(19) . . . . ? 
C1 C2 C3 C4 180.0(2) . . . . ? 
C10 C2 C3 C4 0.5(3) . . . . ? 
C2 C3 C4 C8 -0.5(3) . . . . ? 
C2 C3 C4 S5 179.09(16) . . . . ? 
C3 C4 S5 C6 -178.7(8) . . . . ? 
C8 C4 S5 C6 0.9(8) . . . . ? 
C4 S5 C6 C7 -1.6(15) . . . . ? 
C4 S5 C6 Br1 -178.3(12) . . . . ? 
S5 C6 C7 C8 2(2) . . . . ? 
Br1 C6 C7 C8 178.2(13) . . . . ? 
C3 C4 C8 C9 0.9(3) . . . . ? 
S5 C4 C8 C9 -178.79(17) . . . . ? 
C3 C4 C8 C7 179.6(5) . . . . ? 
S5 C4 C8 C7 -0.1(5) . . . . ? 
C6 C7 C8 C9 177.3(12) . . . . ? 
C6 C7 C8 C4 -1.2(14) . . . . ? 
C4 C8 C9 C10 -1.1(3) . . . . ? 
C7 C8 C9 C10 -179.5(6) . . . . ? 
C8 C9 C10 C1 -179.64(19) . . . 2_477 ? 
C8 C9 C10 C2 1.1(3) . . . . ? 
C3 C2 C10 C1 179.96(18) . . . 2_477 ? 
C1 C2 C10 C1 0.5(3) . . . 2_477 ? 
C3 C2 C10 C9 -0.8(3) . . . . ? 
C1 C2 C10 C9 179.72(19) . . . . ? 
C10 C1 C11 C12 159(4) 2_477 . . . ? 
C2 C1 C11 C12 -21(4) . . . . ? 
C1 C11 C12 Si1 -33(5) . . . . ? 
C15 Si1 C12 C11 -177.6(15) . . . . ? 
C13 Si1 C12 C11 -58.6(16) . . . . ? 
C17 Si1 C12 C11 61.0(15) . . . . ? 
C12 Si1 C13 C14 -49.1(2) . . . . ? 
C15 Si1 C13 C14 70.1(2) . . . . ? 
C17 Si1 C13 C14 -165.25(17) . . . . ? 
C12 Si1 C15 C16 -61.0(2) . . . . ? 
C13 Si1 C15 C16 -178.27(17) . . . . ? 
C17 Si1 C15 C16 57.1(2) . . . . ? 
C12 Si1 C17 C18 -61.6(2) . . . . ? 
C15 Si1 C17 C18 178.16(18) . . . . ? 
C13 Si1 C17 C18 54.8(2) . . . . ? 
 
_diffrn_measured_fraction_theta_max     .998 
_diffrn_reflns_theta_full              27.49 
_diffrn_measured_fraction_theta_full    .998 
_refine_diff_density_max     .425 
_refine_diff_density_min    -.366 
_refine_diff_density_rms     .081 
