 
data_k08209 
 
_audit_creation_method            SHELXL-97 
_chemical_name_systematic 
; 
 ? 
; 
_chemical_name_common             ? 
_chemical_melting_point           ? 
_chemical_formula_moiety 
 'C60 H62 N4 Si2' 
_chemical_formula_sum 
 'C60 H62 N4 Si2' 
_chemical_formula_weight          895.32 
 
loop_ 
 _atom_type_symbol 
 _atom_type_description 
 _atom_type_scat_dispersion_real 
 _atom_type_scat_dispersion_imag 
 _atom_type_scat_source 
 'C'  'C'   0.0033   0.0016 
 'International Tables Vol C Tables 4.2.6.8 and 6.1.1.4' 
 'H'  'H'   0.0000   0.0000 
 'International Tables Vol C Tables 4.2.6.8 and 6.1.1.4' 
 'N'  'N'   0.0061   0.0033 
 'International Tables Vol C Tables 4.2.6.8 and 6.1.1.4' 
 'Si'  'Si'   0.0817   0.0704 
 'International Tables Vol C Tables 4.2.6.8 and 6.1.1.4' 
 
_symmetry_cell_setting            monoclinic
_symmetry_space_group_name_H-M    'P 21/c'
_symmetry_space_group_name_Hall   '-P 2ybc'
 
loop_ 
 _symmetry_equiv_pos_as_xyz 
 'x, y, z' 
 '-x, y+1/2, -z+1/2' 
 '-x, -y, -z' 
 'x, -y-1/2, z-1/2' 
 
_cell_length_a                    14.3331(3) 
_cell_length_b                    9.1144(2) 
_cell_length_c                    18.7459(4) 
_cell_angle_alpha                 90.00 
_cell_angle_beta                  91.4719(10) 
_cell_angle_gamma                 90.00 
_cell_volume                      2448.11(9) 
_cell_formula_units_Z             2 
_cell_measurement_temperature     90.0(2) 
_cell_measurement_reflns_used     5920
_cell_measurement_theta_min       1.00
_cell_measurement_theta_max       27.48
 
_exptl_crystal_description        plate
_exptl_crystal_colour             green
_exptl_crystal_size_max           0.38 
_exptl_crystal_size_mid           0.36 
_exptl_crystal_size_min           0.07 
_exptl_crystal_density_meas       ? 
_exptl_crystal_density_diffrn     1.215 
_exptl_crystal_density_method     'not measured' 
_exptl_crystal_F_000              956 
_exptl_absorpt_coefficient_mu     0.117 
_exptl_absorpt_correction_type    multi-scan 
_exptl_absorpt_correction_T_min   0.957
_exptl_absorpt_correction_T_max   0.992
_exptl_absorpt_process_details    'Scalepack (Otwinowski & Minor, 1997)' 
 
_exptl_special_details 
; 
 ? 
; 
 
_diffrn_ambient_temperature       90.0(2) 
_diffrn_radiation_wavelength      0.71073 
_diffrn_radiation_type            MoK\a 
_diffrn_radiation_source          'fine-focus sealed tube'    
_diffrn_radiation_monochromator   'graphite'                 
_diffrn_measurement_device_type   'Nonius KappaCCD diffractometer'  
_diffrn_measurement_method        '\w scans at fixed \c = 55\%'
_diffrn_detector_area_resol_mean  18
_diffrn_standards_number          0 
_diffrn_standards_interval_count  . 
_diffrn_standards_interval_time   . 
_diffrn_standards_decay_%         ? 
_diffrn_reflns_number             35035 
_diffrn_reflns_av_R_equivalents   0.0487 
_diffrn_reflns_av_sigmaI/netI     0.0688 
_diffrn_reflns_limit_h_min        -18 
_diffrn_reflns_limit_h_max        18 
_diffrn_reflns_limit_k_min        -11 
_diffrn_reflns_limit_k_max        10 
_diffrn_reflns_limit_l_min        -24 
_diffrn_reflns_limit_l_max        24 
_diffrn_reflns_theta_min          1.42 
_diffrn_reflns_theta_max          27.46 
_reflns_number_total              5586 
_reflns_number_gt                 3509 
_reflns_threshold_expression      >2\s(I)    
 
_computing_data_collection        'COLLECT (Nonius, 1998)'
_computing_cell_refinement        'SCALEPACK (Otwinowski & Minor, 1997)'
_computing_data_reduction         'DENZO-SMN (Otwinowski & Minor, 1997)'
_computing_structure_solution     'SHELXS-97 (Sheldrick, 2008)' 
_computing_structure_refinement   'SHELXL-97 (Sheldrick, 2008)' 
_computing_molecular_graphics     'XP in SHELXTL (Sheldrick, 2008)'
_computing_publication_material
; 
SHELX97-2 (Sheldrick, 2008) and local procedures 
; 

_publ_section_exptl_refinement
;
H atoms were found in difference Fourier maps and subsequently placed in
idealized positions with constrained distances of 
0.99 \%A (R~2~CH~2~),
1.00 \%A (R~3~CH),
0.95 \%A (C~Ar~H),
and with U~iso~(H) values set to either 1.2U~eq~ of the attached atom. 
;

_refine_special_details 
; 
 Refinement of F^2^ against ALL reflections.  The weighted R-factor wR and 
 goodness of fit S are based on F^2^, conventional R-factors R are based 
 on F, with F set to zero for negative F^2^. The threshold expression of 
 F^2^ > 2\s(F^2^) is used only for calculating R-factors(gt) etc. and is 
 not relevant to the choice of reflections for refinement.  R-factors based 
 on F^2^ are statistically about twice as large as those based on F, and R- 
 factors based on ALL data will be even larger. 

 Atom C16 ring is likely disordered in a similar way that the other 
 cyclopentane rings are disordered, but C16 is not split by enough to
 warrant making a split-atom disorder model.
; 
 
_refine_ls_structure_factor_coef  Fsqd  
_refine_ls_matrix_type            full 
_refine_ls_weighting_scheme       calc  
_refine_ls_weighting_details 
 'calc w=1/[\s^2^(Fo^2^)+(0.0911P)^2^] where P=(Fo^2^+2Fc^2^)/3'         
_atom_sites_solution_primary      direct 
_atom_sites_solution_secondary    difmap 
_atom_sites_solution_hydrogens    geom 
_refine_ls_hydrogen_treatment     constr 
_refine_ls_extinction_method      none 
_refine_ls_extinction_coef        ? 
_refine_ls_number_reflns          5586 
_refine_ls_number_parameters      323 
_refine_ls_number_restraints      170 
_refine_ls_R_factor_all           0.1010 
_refine_ls_R_factor_gt            0.0543 
_refine_ls_wR_factor_ref          0.1577 
_refine_ls_wR_factor_gt           0.1355 
_refine_ls_goodness_of_fit_ref    1.015 
_refine_ls_restrained_S_all       1.014 
_refine_ls_shift/su_max           0.000 
_refine_ls_shift/su_mean          0.000 
 
loop_ 
 _atom_site_label 
 _atom_site_type_symbol 
 _atom_site_fract_x 
 _atom_site_fract_y 
 _atom_site_fract_z 
 _atom_site_U_iso_or_equiv 
 _atom_site_adp_type 
 _atom_site_occupancy 
 _atom_site_symmetry_multiplicity 
 _atom_site_calc_flag 
 _atom_site_refinement_flags 
 _atom_site_disorder_assembly 
 _atom_site_disorder_group 
Si1 Si 0.30842(4) 0.56106(6) 0.30211(3) 0.02211(17) Uani 1 1 d . C . 
N1 N -0.05569(12) -0.3311(2) 0.28630(10) 0.0340(5) Uani 1 1 d . . . 
N2 N -0.23426(12) -0.3566(2) 0.45104(9) 0.0309(4) Uani 1 1 d . . . 
C1 C 0.06546(12) 0.5110(2) 0.44463(10) 0.0188(4) Uani 1 1 d . . . 
C2 C 0.01212(12) 0.3809(2) 0.45113(9) 0.0185(4) Uani 1 1 d . . . 
C3 C 0.02149(12) 0.2622(2) 0.40364(10) 0.0201(4) Uani 1 1 d . . . 
H3 H 0.0638 0.2701 0.3656 0.024 Uiso 1 1 calc R . . 
C4 C -0.02969(12) 0.1340(2) 0.41118(9) 0.0189(4) Uani 1 1 d . . . 
C5 C -0.02109(12) 0.0125(2) 0.36372(10) 0.0212(4) Uani 1 1 d . . . 
H5 H 0.0206 0.0189 0.3253 0.025 Uiso 1 1 calc R . . 
C6 C -0.07171(12) -0.1125(2) 0.37266(10) 0.0206(4) Uani 1 1 d . . . 
C7 C -0.13608(13) -0.1239(2) 0.43070(10) 0.0212(4) Uani 1 1 d . . . 
C8 C -0.14598(12) -0.0093(2) 0.47667(10) 0.0216(4) Uani 1 1 d . . . 
H8 H -0.1883 -0.0177 0.5146 0.026 Uiso 1 1 calc R . . 
C9 C -0.09420(12) 0.1228(2) 0.46896(10) 0.0197(4) Uani 1 1 d . . . 
C10 C -0.10428(12) 0.2395(2) 0.51503(10) 0.0193(4) Uani 1 1 d . . . 
H10 H -0.1470 0.2311 0.5527 0.023 Uiso 1 1 calc R . . 
C11 C -0.05350(12) 0.3701(2) 0.50811(9) 0.0178(4) Uani 1 1 d . . . 
C12 C 0.13664(12) 0.5206(2) 0.39261(10) 0.0208(4) Uani 1 1 d . . . 
C13 C 0.20179(13) 0.5364(2) 0.35358(10) 0.0220(4) Uani 1 1 d . . . 
C14 C 0.38266(14) 0.7037(2) 0.34895(11) 0.0289(5) Uani 1 1 d . . . 
H14 H 0.3710 0.7982 0.3231 0.035 Uiso 1 1 calc R . . 
C15 C 0.36458(15) 0.7338(3) 0.42827(13) 0.0476(7) Uani 1 1 d . . . 
H15A H 0.3175 0.8123 0.4331 0.057 Uiso 1 1 calc R . . 
H15B H 0.3415 0.6440 0.4518 0.057 Uiso 1 1 calc R . . 
C16 C 0.45815(16) 0.7814(4) 0.46207(15) 0.0772(11) Uani 1 1 d . . . 
H16A H 0.4523 0.8797 0.4840 0.093 Uiso 1 1 calc R . . 
H16B H 0.4783 0.7110 0.4996 0.093 Uiso 1 1 calc R . . 
C17 C 0.52768(16) 0.7853(3) 0.40385(14) 0.0509(7) Uani 1 1 d . . . 
H17A H 0.5901 0.7539 0.4218 0.061 Uiso 1 1 calc R . . 
H17B H 0.5326 0.8852 0.3835 0.061 Uiso 1 1 calc R . . 
C18 C 0.48866(14) 0.6777(3) 0.34857(13) 0.0426(6) Uani 1 1 d . . . 
H18A H 0.5040 0.5754 0.3621 0.051 Uiso 1 1 calc R . . 
H18B H 0.5138 0.6982 0.3009 0.051 Uiso 1 1 calc R . . 
C19 C 0.26931(14) 0.6308(2) 0.21245(10) 0.0277(5) Uani 1 1 d . . . 
H19 H 0.2333 0.5505 0.1879 0.033 Uiso 1 1 calc R A 1 
C20 C 0.20277(13) 0.7644(2) 0.21978(11) 0.0266(5) Uani 1 1 d . C . 
H20A H 0.1368 0.7324 0.2159 0.032 Uiso 1 1 calc R B 1 
H20B H 0.2132 0.8130 0.2665 0.032 Uiso 1 1 calc R B 1 
C21 C 0.2252(6) 0.8697(16) 0.1590(7) 0.0324(8) Uani 0.731(5) 1 d PDU C 1 
H21A H 0.1923 0.8416 0.1140 0.039 Uiso 0.731(5) 1 calc PR C 1 
H21B H 0.2093 0.9723 0.1711 0.039 Uiso 0.731(5) 1 calc PR C 1 
C22 C 0.3306(2) 0.8483(4) 0.15427(19) 0.0321(8) Uani 0.731(5) 1 d PDU C 1 
H22A H 0.3533 0.8838 0.1079 0.039 Uiso 0.731(5) 1 calc PR C 1 
H22B H 0.3642 0.9013 0.1932 0.039 Uiso 0.731(5) 1 calc PR C 1 
C23 C 0.3442(4) 0.6833(7) 0.1615(4) 0.0335(12) Uani 0.731(5) 1 d PDU C 1 
H23A H 0.4073 0.6609 0.1813 0.040 Uiso 0.731(5) 1 calc PR C 1 
H23B H 0.3364 0.6348 0.1145 0.040 Uiso 0.731(5) 1 calc PR C 1 
C21' C 0.2341(19) 0.866(4) 0.161(2) 0.0324(8) Uani 0.269(5) 1 d PDU C 2 
H21C H 0.2581 0.9583 0.1823 0.039 Uiso 0.269(5) 1 calc PR C 2 
H21D H 0.1802 0.8901 0.1291 0.039 Uiso 0.269(5) 1 calc PR C 2 
C22' C 0.3108(6) 0.7934(11) 0.1175(5) 0.0373(18) Uiso 0.269(5) 1 d PDU C 2 
H22C H 0.2834 0.7353 0.0775 0.045 Uiso 0.269(5) 1 calc PR C 2 
H22D H 0.3534 0.8680 0.0981 0.045 Uiso 0.269(5) 1 calc PR C 2 
C23' C 0.3619(14) 0.695(2) 0.1711(12) 0.0335(12) Uani 0.269(5) 1 d PDU C 2 
H23C H 0.4041 0.7507 0.2036 0.040 Uiso 0.269(5) 1 calc PR C 2 
H23D H 0.3971 0.6157 0.1475 0.040 Uiso 0.269(5) 1 calc PR C 2 
C24 C 0.36430(13) 0.3758(2) 0.30014(11) 0.0273(5) Uani 1 1 d D . . 
H24 H 0.4237 0.3832 0.2735 0.033 Uiso 1 1 calc R C 1 
C25 C 0.3006(11) 0.2597(12) 0.2629(5) 0.0336(9) Uani 0.731(5) 1 d PDU C 1 
H25A H 0.2345 0.2911 0.2625 0.040 Uiso 0.731(5) 1 calc PR C 1 
H25B H 0.3196 0.2424 0.2132 0.040 Uiso 0.731(5) 1 calc PR C 1 
C26 C 0.3151(3) 0.1234(4) 0.30810(19) 0.0449(9) Uani 0.731(5) 1 d PDU C 1 
H26A H 0.3720 0.0702 0.2943 0.054 Uiso 0.731(5) 1 calc PR C 1 
H26B H 0.2609 0.0565 0.3032 0.054 Uiso 0.731(5) 1 calc PR C 1 
C27 C 0.3250(3) 0.1819(4) 0.38390(18) 0.0440(9) Uani 0.731(5) 1 d PDU C 1 
H27A H 0.3545 0.1081 0.4160 0.053 Uiso 0.731(5) 1 calc PR C 1 
H27B H 0.2635 0.2094 0.4027 0.053 Uiso 0.731(5) 1 calc PR C 1 
C28 C 0.3873(13) 0.3159(10) 0.3764(5) 0.0340(11) Uani 0.731(5) 1 d PDU C 1 
H28A H 0.4540 0.2884 0.3813 0.041 Uiso 0.731(5) 1 calc PR C 1 
H28B H 0.3732 0.3903 0.4131 0.041 Uiso 0.731(5) 1 calc PR C 1 
C25' C 0.297(3) 0.254(3) 0.2704(14) 0.0336(9) Uani 0.269(5) 1 d PDU C 2 
H25C H 0.2375 0.2977 0.2530 0.040 Uiso 0.269(5) 1 calc PR C 2 
H25D H 0.3258 0.2017 0.2301 0.040 Uiso 0.269(5) 1 calc PR C 2 
C26' C 0.2789(6) 0.1463(12) 0.3308(5) 0.0347(19) Uiso 0.269(5) 1 d PDU C 2 
H26C H 0.2270 0.1799 0.3607 0.042 Uiso 0.269(5) 1 calc PR C 2 
H26D H 0.2649 0.0466 0.3125 0.042 Uiso 0.269(5) 1 calc PR C 2 
C27' C 0.3711(7) 0.1509(11) 0.3715(5) 0.0361(19) Uiso 0.269(5) 1 d PDU C 2 
H27C H 0.4197 0.0963 0.3459 0.043 Uiso 0.269(5) 1 calc PR C 2 
H27D H 0.3654 0.1090 0.4199 0.043 Uiso 0.269(5) 1 calc PR C 2 
C28' C 0.394(4) 0.315(3) 0.3751(15) 0.0340(11) Uani 0.269(5) 1 d PDU C 2 
H28C H 0.4615 0.3302 0.3846 0.041 Uiso 0.269(5) 1 calc PR C 2 
H28D H 0.3585 0.3633 0.4131 0.041 Uiso 0.269(5) 1 calc PR C 2 
C29 C -0.06218(13) -0.2352(2) 0.32414(11) 0.0237(5) Uani 1 1 d . . . 
C30 C -0.19034(13) -0.2567(2) 0.44083(10) 0.0231(5) Uani 1 1 d . . . 
 
loop_ 
 _atom_site_aniso_label 
 _atom_site_aniso_U_11 
 _atom_site_aniso_U_22 
 _atom_site_aniso_U_33 
 _atom_site_aniso_U_23 
 _atom_site_aniso_U_13 
 _atom_site_aniso_U_12 
Si1 0.0219(3) 0.0211(3) 0.0236(3) -0.0003(3) 0.0060(2) -0.0016(2) 
N1 0.0354(10) 0.0326(12) 0.0344(11) -0.0047(10) 0.0053(8) -0.0025(9) 
N2 0.0331(10) 0.0315(11) 0.0283(10) -0.0041(9) 0.0018(8) -0.0042(9) 
C1 0.0184(9) 0.0191(10) 0.0190(10) 0.0008(9) 0.0012(7) 0.0007(8) 
C2 0.0181(9) 0.0192(10) 0.0182(10) 0.0026(9) 0.0003(7) 0.0023(8) 
C3 0.0203(9) 0.0228(11) 0.0174(10) 0.0032(9) 0.0033(8) 0.0024(8) 
C4 0.0202(9) 0.0196(11) 0.0170(10) 0.0015(9) -0.0008(7) 0.0018(8) 
C5 0.0219(9) 0.0226(11) 0.0192(10) 0.0014(9) 0.0004(8) 0.0033(9) 
C6 0.0235(10) 0.0205(11) 0.0177(10) -0.0024(9) -0.0029(8) 0.0014(9) 
C7 0.0211(9) 0.0206(11) 0.0219(10) 0.0011(9) -0.0013(8) -0.0013(8) 
C8 0.0233(9) 0.0228(11) 0.0187(10) 0.0009(9) 0.0018(8) -0.0001(9) 
C9 0.0197(9) 0.0204(11) 0.0190(10) 0.0027(9) -0.0018(8) 0.0010(8) 
C10 0.0190(9) 0.0220(11) 0.0172(10) 0.0022(9) 0.0029(7) 0.0000(8) 
C11 0.0183(9) 0.0182(10) 0.0169(9) 0.0020(9) -0.0001(7) 0.0007(8) 
C12 0.0244(9) 0.0178(11) 0.0201(10) -0.0024(9) -0.0002(8) 0.0006(8) 
C13 0.0257(10) 0.0203(11) 0.0200(10) -0.0001(9) 0.0019(8) 0.0006(9) 
C14 0.0290(10) 0.0232(12) 0.0342(12) 0.0038(10) -0.0034(9) -0.0003(9) 
C15 0.0328(12) 0.0627(19) 0.0476(15) -0.0242(14) 0.0042(11) -0.0105(12) 
C16 0.0385(15) 0.134(3) 0.059(2) -0.039(2) -0.0052(14) -0.0182(18) 
C17 0.0341(13) 0.0563(18) 0.0620(18) -0.0037(15) -0.0065(12) -0.0128(13) 
C18 0.0267(11) 0.0461(16) 0.0553(16) -0.0037(13) 0.0092(11) -0.0095(11) 
C19 0.0342(11) 0.0249(12) 0.0242(11) 0.0004(10) 0.0073(9) -0.0026(9) 
C20 0.0271(10) 0.0259(12) 0.0267(11) 0.0028(10) -0.0016(9) -0.0008(9) 
C21 0.034(2) 0.0324(14) 0.0305(14) 0.0061(12) -0.0052(17) -0.0006(15) 
C22 0.0339(15) 0.0331(18) 0.0295(17) 0.0080(15) 0.0046(13) -0.0099(14) 
C23 0.031(3) 0.0387(18) 0.032(2) 0.0106(16) 0.0084(17) 0.0001(18) 
C21' 0.034(2) 0.0324(14) 0.0305(14) 0.0061(12) -0.0052(17) -0.0006(15) 
C23' 0.031(3) 0.0387(18) 0.032(2) 0.0106(16) 0.0084(17) 0.0001(18) 
C24 0.0228(10) 0.0255(12) 0.0341(12) -0.0009(10) 0.0083(9) 0.0003(9) 
C25 0.0351(17) 0.0292(15) 0.037(2) -0.0047(15) 0.005(2) 0.0012(11) 
C26 0.064(2) 0.0249(17) 0.046(2) -0.0026(16) 0.0096(18) -0.0056(17) 
C27 0.058(2) 0.0340(19) 0.0402(19) 0.0073(16) 0.0136(17) -0.0086(18) 
C28 0.033(3) 0.0280(12) 0.0410(14) 0.0036(11) 0.0004(14) 0.0029(13) 
C25' 0.0351(17) 0.0292(15) 0.037(2) -0.0047(15) 0.005(2) 0.0012(11) 
C28' 0.033(3) 0.0280(12) 0.0410(14) 0.0036(11) 0.0004(14) 0.0029(13) 
C29 0.0249(10) 0.0233(12) 0.0231(11) 0.0034(10) 0.0012(8) -0.0028(9) 
C30 0.0277(10) 0.0236(12) 0.0179(10) -0.0046(9) -0.0015(8) 0.0026(9) 
 
_geom_special_details 
; 
 All esds (except the esd in the dihedral angle between two l.s. planes) 
 are estimated using the full covariance matrix.  The cell esds are taken 
 into account individually in the estimation of esds in distances, angles 
 and torsion angles; correlations between esds in cell parameters are only 
 used when they are defined by crystal symmetry.  An approximate (isotropic) 
 treatment of cell esds is used for estimating esds involving l.s. planes. 
; 
 
loop_ 
 _geom_bond_atom_site_label_1 
 _geom_bond_atom_site_label_2 
 _geom_bond_distance 
 _geom_bond_site_symmetry_2 
 _geom_bond_publ_flag 
Si1 C13 1.8421(19) . ? 
Si1 C19 1.869(2) . ? 
Si1 C24 1.869(2) . ? 
Si1 C14 1.883(2) . ? 
N1 C29 1.131(3) . ? 
N2 C30 1.126(3) . ? 
C1 C11 1.413(3) 3_566 ? 
C1 C2 1.418(3) . ? 
C1 C12 1.432(2) . ? 
C2 C3 1.410(3) . ? 
C2 C11 1.445(2) . ? 
C3 C4 1.389(3) . ? 
C3 H3 0.9500 . ? 
C4 C5 1.427(3) . ? 
C4 C9 1.446(2) . ? 
C5 C6 1.364(3) . ? 
C5 H5 0.9500 . ? 
C6 C7 1.448(3) . ? 
C6 C29 1.450(3) . ? 
C7 C8 1.364(3) . ? 
C7 C30 1.454(3) . ? 
C8 C9 1.423(3) . ? 
C8 H8 0.9500 . ? 
C9 C10 1.380(3) . ? 
C10 C11 1.403(3) . ? 
C10 H10 0.9500 . ? 
C11 C1 1.413(3) 3_566 ? 
C12 C13 1.209(3) . ? 
C14 C18 1.538(3) . ? 
C14 C15 1.540(3) . ? 
C14 H14 1.0000 . ? 
C15 C16 1.531(3) . ? 
C15 H15A 0.9900 . ? 
C15 H15B 0.9900 . ? 
C16 C17 1.497(3) . ? 
C16 H16A 0.9900 . ? 
C16 H16B 0.9900 . ? 
C17 C18 1.523(3) . ? 
C17 H17A 0.9900 . ? 
C17 H17B 0.9900 . ? 
C18 H18A 0.9900 . ? 
C18 H18B 0.9900 . ? 
C19 C23 1.531(8) . ? 
C19 C20 1.555(3) . ? 
C19 C23' 1.66(2) . ? 
C19 H19 1.0000 . ? 
C20 C21' 1.51(4) . ? 
C20 C21 1.530(15) . ? 
C20 H20A 0.9900 . ? 
C20 H20B 0.9900 . ? 
C21 C22 1.528(8) . ? 
C21 H21A 0.9900 . ? 
C21 H21B 0.9900 . ? 
C22 C23 1.522(7) . ? 
C22 H22A 0.9900 . ? 
C22 H22B 0.9900 . ? 
C23 H23A 0.9900 . ? 
C23 H23B 0.9900 . ? 
C21' C22' 1.535(16) . ? 
C21' H21C 0.9900 . ? 
C21' H21D 0.9900 . ? 
C22' C23' 1.522(14) . ? 
C22' H22C 0.9900 . ? 
C22' H22D 0.9900 . ? 
C23' H23C 0.9900 . ? 
C23' H23D 0.9900 . ? 
C24 C25 1.552(6) . ? 
C24 C28 1.559(6) . ? 
C24 C28' 1.560(14) . ? 
C24 C25' 1.568(14) . ? 
C24 H24 1.0000 . ? 
C25 C26 1.515(8) . ? 
C25 H25A 0.9900 . ? 
C25 H25B 0.9900 . ? 
C26 C27 1.521(5) . ? 
C26 H26A 0.9900 . ? 
C26 H26B 0.9900 . ? 
C27 C28 1.522(8) . ? 
C27 H27A 0.9900 . ? 
C27 H27B 0.9900 . ? 
C28 H28A 0.9900 . ? 
C28 H28B 0.9900 . ? 
C25' C26' 1.524(15) . ? 
C25' H25C 0.9900 . ? 
C25' H25D 0.9900 . ? 
C26' C27' 1.510(11) . ? 
C26' H26C 0.9900 . ? 
C26' H26D 0.9900 . ? 
C27' C28' 1.529(17) . ? 
C27' H27C 0.9900 . ? 
C27' H27D 0.9900 . ? 
C28' H28C 0.9900 . ? 
C28' H28D 0.9900 . ? 
 
loop_ 
 _geom_angle_atom_site_label_1 
 _geom_angle_atom_site_label_2 
 _geom_angle_atom_site_label_3 
 _geom_angle 
 _geom_angle_site_symmetry_1 
 _geom_angle_site_symmetry_3 
 _geom_angle_publ_flag 
C13 Si1 C19 106.19(9) . . ? 
C13 Si1 C24 105.18(9) . . ? 
C19 Si1 C24 114.08(10) . . ? 
C13 Si1 C14 107.85(9) . . ? 
C19 Si1 C14 109.73(10) . . ? 
C24 Si1 C14 113.29(9) . . ? 
C11 C1 C2 120.89(16) 3_566 . ? 
C11 C1 C12 118.67(17) 3_566 . ? 
C2 C1 C12 120.33(17) . . ? 
C3 C2 C1 121.83(16) . . ? 
C3 C2 C11 119.28(17) . . ? 
C1 C2 C11 118.89(17) . . ? 
C4 C3 C2 121.49(16) . . ? 
C4 C3 H3 119.3 . . ? 
C2 C3 H3 119.3 . . ? 
C3 C4 C5 122.33(17) . . ? 
C3 C4 C9 119.03(17) . . ? 
C5 C4 C9 118.64(17) . . ? 
C6 C5 C4 121.11(17) . . ? 
C6 C5 H5 119.4 . . ? 
C4 C5 H5 119.4 . . ? 
C5 C6 C7 120.23(18) . . ? 
C5 C6 C29 120.56(17) . . ? 
C7 C6 C29 119.21(17) . . ? 
C8 C7 C6 119.89(18) . . ? 
C8 C7 C30 119.37(17) . . ? 
C6 C7 C30 120.73(17) . . ? 
C7 C8 C9 121.37(17) . . ? 
C7 C8 H8 119.3 . . ? 
C9 C8 H8 119.3 . . ? 
C10 C9 C8 121.67(17) . . ? 
C10 C9 C4 119.58(18) . . ? 
C8 C9 C4 118.76(17) . . ? 
C9 C10 C11 122.23(17) . . ? 
C9 C10 H10 118.9 . . ? 
C11 C10 H10 118.9 . . ? 
C10 C11 C1 121.41(16) . 3_566 ? 
C10 C11 C2 118.38(17) . . ? 
C1 C11 C2 120.21(17) 3_566 . ? 
C13 C12 C1 173.6(2) . . ? 
C12 C13 Si1 174.37(17) . . ? 
C18 C14 C15 102.86(17) . . ? 
C18 C14 Si1 116.00(16) . . ? 
C15 C14 Si1 117.78(15) . . ? 
C18 C14 H14 106.5 . . ? 
C15 C14 H14 106.5 . . ? 
Si1 C14 H14 106.5 . . ? 
C16 C15 C14 106.42(18) . . ? 
C16 C15 H15A 110.4 . . ? 
C14 C15 H15A 110.4 . . ? 
C16 C15 H15B 110.4 . . ? 
C14 C15 H15B 110.4 . . ? 
H15A C15 H15B 108.6 . . ? 
C17 C16 C15 107.3(2) . . ? 
C17 C16 H16A 110.3 . . ? 
C15 C16 H16A 110.3 . . ? 
C17 C16 H16B 110.3 . . ? 
C15 C16 H16B 110.3 . . ? 
H16A C16 H16B 108.5 . . ? 
C16 C17 C18 103.9(2) . . ? 
C16 C17 H17A 111.0 . . ? 
C18 C17 H17A 111.0 . . ? 
C16 C17 H17B 111.0 . . ? 
C18 C17 H17B 111.0 . . ? 
H17A C17 H17B 109.0 . . ? 
C17 C18 C14 104.10(19) . . ? 
C17 C18 H18A 110.9 . . ? 
C14 C18 H18A 110.9 . . ? 
C17 C18 H18B 110.9 . . ? 
C14 C18 H18B 110.9 . . ? 
H18A C18 H18B 109.0 . . ? 
C23 C19 C20 104.5(3) . . ? 
C20 C19 C23' 105.4(7) . . ? 
C23 C19 Si1 117.9(2) . . ? 
C20 C19 Si1 110.93(13) . . ? 
C23' C19 Si1 108.3(6) . . ? 
C23 C19 H19 107.7 . . ? 
C20 C19 H19 107.7 . . ? 
C23' C19 H19 116.8 . . ? 
Si1 C19 H19 107.7 . . ? 
C21' C20 C19 102.7(7) . . ? 
C21 C20 C19 106.5(3) . . ? 
C21' C20 H20A 115.3 . . ? 
C21 C20 H20A 110.4 . . ? 
C19 C20 H20A 110.4 . . ? 
C21' C20 H20B 109.3 . . ? 
C21 C20 H20B 110.4 . . ? 
C19 C20 H20B 110.4 . . ? 
H20A C20 H20B 108.6 . . ? 
C22 C21 C20 101.0(7) . . ? 
C22 C21 H21A 111.6 . . ? 
C20 C21 H21A 111.6 . . ? 
C22 C21 H21B 111.6 . . ? 
C20 C21 H21B 111.6 . . ? 
H21A C21 H21B 109.4 . . ? 
C23 C22 C21 104.2(6) . . ? 
C23 C22 H22A 110.9 . . ? 
C21 C22 H22A 110.9 . . ? 
C23 C22 H22B 110.9 . . ? 
C21 C22 H22B 110.9 . . ? 
H22A C22 H22B 108.9 . . ? 
C22 C23 C19 106.0(5) . . ? 
C22 C23 H23A 110.5 . . ? 
C19 C23 H23A 110.5 . . ? 
C22 C23 H23B 110.5 . . ? 
C19 C23 H23B 110.5 . . ? 
H23A C23 H23B 108.7 . . ? 
C20 C21' C22' 111(2) . . ? 
C20 C21' H21C 109.5 . . ? 
C22' C21' H21C 109.5 . . ? 
C20 C21' H21D 109.5 . . ? 
C22' C21' H21D 109.5 . . ? 
H21C C21' H21D 108.1 . . ? 
C23' C22' C21' 104.0(16) . . ? 
C23' C22' H22C 110.9 . . ? 
C21' C22' H22C 110.9 . . ? 
C23' C22' H22D 110.9 . . ? 
C21' C22' H22D 110.9 . . ? 
H22C C22' H22D 109.0 . . ? 
C22' C23' C19 98.0(11) . . ? 
C22' C23' H23C 112.2 . . ? 
C19 C23' H23C 112.2 . . ? 
C22' C23' H23D 112.2 . . ? 
C19 C23' H23D 112.2 . . ? 
H23C C23' H23D 109.8 . . ? 
C25 C24 C28 106.4(3) . . ? 
C25 C24 C28' 107.7(7) . . ? 
C28 C24 C25' 101.0(6) . . ? 
C28' C24 C25' 102.6(8) . . ? 
C25 C24 Si1 112.2(6) . . ? 
C28 C24 Si1 112.3(6) . . ? 
C28' C24 Si1 114.3(17) . . ? 
C25' C24 Si1 112.9(18) . . ? 
C25 C24 H24 108.6 . . ? 
C28 C24 H24 108.6 . . ? 
C28' C24 H24 105.0 . . ? 
C25' C24 H24 113.2 . . ? 
Si1 C24 H24 108.6 . . ? 
C26 C25 C24 103.8(4) . . ? 
C26 C25 H25A 111.0 . . ? 
C24 C25 H25A 111.0 . . ? 
C26 C25 H25B 111.0 . . ? 
C24 C25 H25B 111.0 . . ? 
H25A C25 H25B 109.0 . . ? 
C25 C26 C27 104.1(5) . . ? 
C25 C26 H26A 110.9 . . ? 
C27 C26 H26A 110.9 . . ? 
C25 C26 H26B 110.9 . . ? 
C27 C26 H26B 110.9 . . ? 
H26A C26 H26B 109.0 . . ? 
C26 C27 C28 103.7(5) . . ? 
C26 C27 H27A 111.0 . . ? 
C28 C27 H27A 111.0 . . ? 
C26 C27 H27B 111.0 . . ? 
C28 C27 H27B 111.0 . . ? 
H27A C27 H27B 109.0 . . ? 
C27 C28 C24 104.8(4) . . ? 
C27 C28 H28A 110.8 . . ? 
C24 C28 H28A 110.8 . . ? 
C27 C28 H28B 110.8 . . ? 
C24 C28 H28B 110.8 . . ? 
H28A C28 H28B 108.9 . . ? 
C26' C25' C24 107.8(10) . . ? 
C26' C25' H25C 110.1 . . ? 
C24 C25' H25C 110.1 . . ? 
C26' C25' H25D 110.1 . . ? 
C24 C25' H25D 110.1 . . ? 
H25C C25' H25D 108.5 . . ? 
C27' C26' C25' 101.2(13) . . ? 
C27' C26' H26C 111.5 . . ? 
C25' C26' H26C 111.5 . . ? 
C27' C26' H26D 111.5 . . ? 
C25' C26' H26D 111.5 . . ? 
H26C C26' H26D 109.3 . . ? 
C26' C27' C28' 103.5(15) . . ? 
C26' C27' H27C 111.1 . . ? 
C28' C27' H27C 111.1 . . ? 
C26' C27' H27D 111.1 . . ? 
C28' C27' H27D 111.1 . . ? 
H27C C27' H27D 109.0 . . ? 
C27' C28' C24 104.9(11) . . ? 
C27' C28' H28C 110.8 . . ? 
C24 C28' H28C 110.8 . . ? 
C27' C28' H28D 110.8 . . ? 
C24 C28' H28D 110.8 . . ? 
H28C C28' H28D 108.9 . . ? 
N1 C29 C6 179.3(2) . . ? 
N2 C30 C7 177.0(2) . . ? 
 
loop_ 
 _geom_torsion_atom_site_label_1 
 _geom_torsion_atom_site_label_2 
 _geom_torsion_atom_site_label_3 
 _geom_torsion_atom_site_label_4 
 _geom_torsion 
 _geom_torsion_site_symmetry_1 
 _geom_torsion_site_symmetry_2 
 _geom_torsion_site_symmetry_3 
 _geom_torsion_site_symmetry_4 
 _geom_torsion_publ_flag 
C11 C1 C2 C3 178.62(17) 3_566 . . . ? 
C12 C1 C2 C3 -5.2(3) . . . . ? 
C11 C1 C2 C11 -1.4(3) 3_566 . . . ? 
C12 C1 C2 C11 174.72(16) . . . . ? 
C1 C2 C3 C4 178.74(17) . . . . ? 
C11 C2 C3 C4 -1.2(3) . . . . ? 
C2 C3 C4 C5 -179.91(17) . . . . ? 
C2 C3 C4 C9 0.2(3) . . . . ? 
C3 C4 C5 C6 179.53(17) . . . . ? 
C9 C4 C5 C6 -0.6(3) . . . . ? 
C4 C5 C6 C7 0.4(3) . . . . ? 
C4 C5 C6 C29 -179.87(17) . . . . ? 
C5 C6 C7 C8 -0.1(3) . . . . ? 
C29 C6 C7 C8 -179.84(17) . . . . ? 
C5 C6 C7 C30 -179.92(18) . . . . ? 
C29 C6 C7 C30 0.4(3) . . . . ? 
C6 C7 C8 C9 0.1(3) . . . . ? 
C30 C7 C8 C9 179.86(17) . . . . ? 
C7 C8 C9 C10 179.62(18) . . . . ? 
C7 C8 C9 C4 -0.3(3) . . . . ? 
C3 C4 C9 C10 0.5(3) . . . . ? 
C5 C4 C9 C10 -179.35(16) . . . . ? 
C3 C4 C9 C8 -179.59(17) . . . . ? 
C5 C4 C9 C8 0.6(3) . . . . ? 
C8 C9 C10 C11 179.84(17) . . . . ? 
C4 C9 C10 C11 -0.3(3) . . . . ? 
C9 C10 C11 C1 179.35(17) . . . 3_566 ? 
C9 C10 C11 C2 -0.7(3) . . . . ? 
C3 C2 C11 C10 1.4(3) . . . . ? 
C1 C2 C11 C10 -178.52(16) . . . . ? 
C3 C2 C11 C1 -178.63(16) . . . 3_566 ? 
C1 C2 C11 C1 1.4(3) . . . 3_566 ? 
C13 Si1 C14 C18 142.91(17) . . . . ? 
C19 Si1 C14 C18 -101.84(18) . . . . ? 
C24 Si1 C14 C18 26.9(2) . . . . ? 
C13 Si1 C14 C15 20.4(2) . . . . ? 
C19 Si1 C14 C15 135.70(18) . . . . ? 
C24 Si1 C14 C15 -95.53(19) . . . . ? 
C18 C14 C15 C16 21.1(3) . . . . ? 
Si1 C14 C15 C16 150.1(2) . . . . ? 
C14 C15 C16 C17 2.3(4) . . . . ? 
C15 C16 C17 C18 -25.2(3) . . . . ? 
C16 C17 C18 C14 38.7(3) . . . . ? 
C15 C14 C18 C17 -36.7(3) . . . . ? 
Si1 C14 C18 C17 -166.76(17) . . . . ? 
C13 Si1 C19 C23 171.1(3) . . . . ? 
C24 Si1 C19 C23 -73.6(4) . . . . ? 
C14 Si1 C19 C23 54.8(4) . . . . ? 
C13 Si1 C19 C20 50.62(16) . . . . ? 
C24 Si1 C19 C20 165.98(13) . . . . ? 
C14 Si1 C19 C20 -65.68(16) . . . . ? 
C13 Si1 C19 C23' 165.9(9) . . . . ? 
C24 Si1 C19 C23' -78.8(9) . . . . ? 
C14 Si1 C19 C23' 49.6(9) . . . . ? 
C23 C19 C20 C21' 11.6(16) . . . . ? 
C23' C19 C20 C21' 22.6(18) . . . . ? 
Si1 C19 C20 C21' 139.7(16) . . . . ? 
C23 C19 C20 C21 15.1(6) . . . . ? 
C23' C19 C20 C21 26.1(10) . . . . ? 
Si1 C19 C20 C21 143.2(6) . . . . ? 
C21' C20 C21 C22 7(21) . . . . ? 
C19 C20 C21 C22 -35.2(8) . . . . ? 
C20 C21 C22 C23 42.3(8) . . . . ? 
C21 C22 C23 C19 -33.9(7) . . . . ? 
C20 C19 C23 C22 11.4(4) . . . . ? 
C23' C19 C23 C22 -85(5) . . . . ? 
Si1 C19 C23 C22 -112.3(3) . . . . ? 
C21 C20 C21' C22' -135(24) . . . . ? 
C19 C20 C21' C22' 4(3) . . . . ? 
C20 C21' C22' C23' -31(3) . . . . ? 
C21' C22' C23' C19 41(2) . . . . ? 
C23 C19 C23' C22' 46(4) . . . . ? 
C20 C19 C23' C22' -40.4(14) . . . . ? 
Si1 C19 C23' C22' -159.2(10) . . . . ? 
C13 Si1 C24 C25 61.0(5) . . . . ? 
C19 Si1 C24 C25 -54.9(5) . . . . ? 
C14 Si1 C24 C25 178.6(5) . . . . ? 
C13 Si1 C24 C28 -58.7(6) . . . . ? 
C19 Si1 C24 C28 -174.7(6) . . . . ? 
C14 Si1 C24 C28 58.8(6) . . . . ? 
C13 Si1 C24 C28' -62.0(17) . . . . ? 
C19 Si1 C24 C28' -178.0(17) . . . . ? 
C14 Si1 C24 C28' 55.5(17) . . . . ? 
C13 Si1 C24 C25' 54.7(13) . . . . ? 
C19 Si1 C24 C25' -61.2(13) . . . . ? 
C14 Si1 C24 C25' 172.3(13) . . . . ? 
C28 C24 C25 C26 -17.2(14) . . . . ? 
C28' C24 C25 C26 -14(3) . . . . ? 
C25' C24 C25 C26 -42(24) . . . . ? 
Si1 C24 C25 C26 -140.3(8) . . . . ? 
C24 C25 C26 C27 36.6(11) . . . . ? 
C25 C26 C27 C28 -42.5(10) . . . . ? 
C26 C27 C28 C24 30.7(12) . . . . ? 
C25 C24 C28 C27 -8.4(15) . . . . ? 
C28' C24 C28 C27 -121(18) . . . . ? 
C25' C24 C28 C27 -6(2) . . . . ? 
Si1 C24 C28 C27 114.7(8) . . . . ? 
C25 C24 C25' C26' 161(28) . . . . ? 
C28 C24 C25' C26' 6(3) . . . . ? 
C28' C24 C25' C26' 9(4) . . . . ? 
Si1 C24 C25' C26' -115(2) . . . . ? 
C24 C25' C26' C27' -33(3) . . . . ? 
C25' C26' C27' C28' 45(3) . . . . ? 
C26' C27' C28' C24 -40(3) . . . . ? 
C25 C24 C28' C27' 16(4) . . . . ? 
C28 C24 C28' C27' 84(15) . . . . ? 
C25' C24 C28' C27' 19(4) . . . . ? 
Si1 C24 C28' C27' 141(2) . . . . ? 
 
_diffrn_measured_fraction_theta_max    1.000 
_diffrn_reflns_theta_full              27.46 
_diffrn_measured_fraction_theta_full   1.000 
_refine_diff_density_max    0.420 
_refine_diff_density_min   -0.309 
_refine_diff_density_rms    0.061 
