 
data_k11151 
 
_audit_creation_method            SHELXL-97 
_chemical_name_systematic 
; 
 ? 
; 
_chemical_name_common             ? 
_chemical_melting_point           ? 
_chemical_formula_moiety 
 'C39 H41 N Si2' 
_chemical_formula_sum 
 'C39 H41 N Si2' 
_chemical_formula_weight          579.91 
 
loop_ 
 _atom_type_symbol 
 _atom_type_description 
 _atom_type_scat_dispersion_real 
 _atom_type_scat_dispersion_imag 
 _atom_type_scat_source 
 'C'  'C'   0.0033   0.0016 
 'International Tables Vol C Tables 4.2.6.8 and 6.1.1.4' 
 'H'  'H'   0.0000   0.0000 
 'International Tables Vol C Tables 4.2.6.8 and 6.1.1.4' 
 'N'  'N'   0.0061   0.0033 
 'International Tables Vol C Tables 4.2.6.8 and 6.1.1.4' 
 'Si'  'Si'   0.0817   0.0704 
 'International Tables Vol C Tables 4.2.6.8 and 6.1.1.4' 
 
_symmetry_cell_setting            triclinic 
_symmetry_space_group_name_H-M    'P -1'
_symmetry_space_group_name_Hall   '-P 1'
 
loop_ 
 _symmetry_equiv_pos_as_xyz 
 'x, y, z' 
 '-x, -y, -z' 
 
_cell_length_a                    6.9399(2) 
_cell_length_b                    10.3228(3) 
_cell_length_c                    11.5066(3) 
_cell_angle_alpha                 81.8600(11) 
_cell_angle_beta                  89.8249(11) 
_cell_angle_gamma                 82.1271(10) 
_cell_volume                      808.21(4) 
_cell_formula_units_Z             1 
_cell_measurement_temperature     90.0(2) 
_cell_measurement_reflns_used     3633 
_cell_measurement_theta_min       1.00 
_cell_measurement_theta_max       27.48  
 
_exptl_crystal_description        block 
_exptl_crystal_colour             blue
_exptl_crystal_size_max           0.28 
_exptl_crystal_size_mid           0.25 
_exptl_crystal_size_min           0.20 
_exptl_crystal_density_meas       ? 
_exptl_crystal_density_diffrn     1.191 
_exptl_crystal_density_method     'not measured' 
_exptl_crystal_F_000              310 
_exptl_absorpt_coefficient_mu     0.138 
_exptl_absorpt_correction_type    multi-scan 
_exptl_absorpt_correction_T_min   0.962 
_exptl_absorpt_correction_T_max   0.973 
_exptl_absorpt_process_details    'Scalepack (Otwinowski & Minor, 1997)' 
 
_exptl_special_details 
; 
 ? 
; 
 
_diffrn_ambient_temperature       90.0(2) 
_diffrn_radiation_wavelength      0.71073 
_diffrn_radiation_type            MoK\a 
_diffrn_radiation_source          'fine-focus sealed tube'    
_diffrn_radiation_monochromator   'graphite'                 
_diffrn_measurement_device_type   'Nonius KappaCCD diffractometer'  
_diffrn_measurement_method        '\w scans at fixed \c = 55\%'
_diffrn_detector_area_resol_mean  9.1
_diffrn_standards_number          0 
_diffrn_standards_interval_count  . 
_diffrn_standards_interval_time   . 
_diffrn_standards_decay_%         ? 
_diffrn_reflns_number             18298 
_diffrn_reflns_av_R_equivalents   0.0370
_diffrn_reflns_av_sigmaI/netI     0.0338 
_diffrn_reflns_limit_h_min        -8 
_diffrn_reflns_limit_h_max        9 
_diffrn_reflns_limit_k_min        -13 
_diffrn_reflns_limit_k_max        13 
_diffrn_reflns_limit_l_min        -14 
_diffrn_reflns_limit_l_max        14 
_diffrn_reflns_theta_min          2.01 
_diffrn_reflns_theta_max          27.45 
_reflns_number_total              3660 
_reflns_number_gt                 3135 
_reflns_threshold_expression      >2\s(I)    
 
_computing_data_collection        'COLLECT (Nonius, 1998)'
_computing_cell_refinement        'SCALEPACK (Otwinowski & Minor, 1997)'
_computing_data_reduction         'DENZO-SMN (Otwinowski & Minor, 1997)'
_computing_structure_solution     'SHELXS-97 (Sheldrick, 2008)' 
_computing_structure_refinement   'SHELXL-97 (Sheldrick, 2008)' 
_computing_molecular_graphics     'XP in SHELXTL (Sheldrick, 2008)'
_computing_publication_material
; 
SHELX-97 (Sheldrick, 2008) and local procedures 
; 
 
_publ_section_exptl_refinement
;
H atoms were found in difference Fourier maps and subsequently placed 
in idealized positions with constrained distances of 0.98 \%A (RCH~3~), 
0.99 \%A (R~2~CH~2~), 0.95 \%A (C~sp2~H), and with U~iso~(H) values set 
to either 1.2U~eq~ or 1.5U~eq~ (RCH~3~) of the attached atom. 

To ensure satisfactory refinement of the disordered parts of the structure, 
a combination of constraints and restraints were needed.  The constraints 
(SHELXL97 commands EXYZ and EADP) were used to make the coordinates and/or 
displacement parameters of closely proximate atoms equal.  The restraints 
(SHELXL97 commands SAME, DELU) were used to ensure similar geometries and 
displacement parameters of closely proximate, chemically similar groups. 
;

_refine_special_details 
; 
Refinement of F^2^ against all reflections.  The weighted R-value wR and 
goodness of fit S are based on F^2^. Conventional R-values R are based 
on F, with F set to zero for negative F^2^.  The threshold expression of 
F^2^ > 2\s(F^2^) is used only for calculating R-factors(gt) etc. and is 
not relevant to the choice of reflections for refinement.  R-values based 
on F^2^ are statistically about twice as large as those based on F, and  
R-values based on ALL data will be even larger. 
; 
 
_refine_ls_structure_factor_coef  Fsqd  
_refine_ls_matrix_type            full 
_refine_ls_weighting_scheme       calc  
_refine_ls_weighting_details 
 'calc w=1/[\s^2^(Fo^2^)+(0.0685P)^2^+0.3771P] where P=(Fo^2^+2Fc^2^)/3' 
_atom_sites_solution_primary      direct 
_atom_sites_solution_secondary    difmap 
_atom_sites_solution_hydrogens    geom 
_refine_ls_hydrogen_treatment     constr 
_refine_ls_extinction_method      none 
_refine_ls_extinction_coef        ? 
_refine_ls_number_reflns          3660 
_refine_ls_number_parameters      224 
_refine_ls_number_restraints      30 
_refine_ls_R_factor_all           0.0552 
_refine_ls_R_factor_gt            0.0467 
_refine_ls_wR_factor_ref          0.1312 
_refine_ls_wR_factor_gt           0.1247 
_refine_ls_goodness_of_fit_ref    1.031 
_refine_ls_restrained_S_all       1.040 
_refine_ls_shift/su_max           0.000 
_refine_ls_shift/su_mean          0.000 
 
loop_ 
 _atom_site_label 
 _atom_site_type_symbol 
 _atom_site_fract_x 
 _atom_site_fract_y 
 _atom_site_fract_z 
 _atom_site_U_iso_or_equiv 
 _atom_site_adp_type 
 _atom_site_occupancy 
 _atom_site_symmetry_multiplicity 
 _atom_site_calc_flag 
 _atom_site_refinement_flags 
 _atom_site_disorder_assembly 
 _atom_site_disorder_group 
C1 C 0.4539(2) 0.57083(14) 0.59655(12) 0.0211(3) Uani 1 1 d . . . 
C2 C 0.6156(2) 0.59751(14) 0.52552(12) 0.0212(3) Uani 1 1 d . B . 
C3 C 0.7327(2) 0.69272(14) 0.54792(12) 0.0225(3) Uani 1 1 d . . . 
H3 H 0.7006 0.7420 0.6107 0.027 Uiso 1 1 calc R . . 
C4 C 0.8942(2) 0.71642(14) 0.48046(13) 0.0234(3) Uani 1 1 d . B . 
C5 C 1.0174(2) 0.81006(15) 0.50477(14) 0.0264(3) Uani 1 1 d . . . 
H5 H 0.9882 0.8592 0.5679 0.032 Uiso 1 1 calc R A 1 
C6 C 1.1773(2) 0.82937(16) 0.43770(15) 0.0300(3) Uani 0.50 1 d P B 1 
C20 C 1.3073(5) 0.9099(3) 0.4653(3) 0.0338(7) Uani 0.50 1 d P B 1 
N1 N 1.4152(5) 0.9791(3) 0.4863(3) 0.0446(8) Uani 0.50 1 d P . 1 
C6' C 1.1773(2) 0.82937(16) 0.43770(15) 0.0300(3) Uani 0.50 1 d P B 2 
H6' H 1.2583 0.8913 0.4554 0.036 Uiso 0.50 1 calc PR B 2 
C7 C 1.2236(2) 0.75780(17) 0.34160(14) 0.0306(4) Uani 1 1 d . . . 
H7 H 1.3346 0.7727 0.2957 0.037 Uiso 1 1 calc R B 1 
C8 C 1.1094(2) 0.66824(16) 0.31555(13) 0.0279(3) Uani 1 1 d . B . 
H8 H 1.1412 0.6214 0.2512 0.034 Uiso 1 1 calc R . . 
C9 C 0.9417(2) 0.64363(14) 0.38400(13) 0.0234(3) Uani 1 1 d . . . 
C10 C 0.8249(2) 0.55185(14) 0.35957(12) 0.0228(3) Uani 1 1 d . B . 
H10 H 0.8555 0.5054 0.2948 0.027 Uiso 1 1 calc R . . 
C11 C 0.6622(2) 0.52537(14) 0.42786(12) 0.0212(3) Uani 1 1 d . . . 
C12 C 0.4044(2) 0.64199(14) 0.69287(12) 0.0229(3) Uani 1 1 d . C . 
C13 C 0.3546(2) 0.70075(15) 0.77441(13) 0.0250(3) Uani 1 1 d . . . 
Si1 Si 0.24525(11) 0.78972(7) 0.89146(6) 0.02604(18) Uani 0.933(2) 1 d PU C 1 
C14 C 0.0358(3) 0.7028(3) 0.94646(18) 0.0477(6) Uani 0.933(2) 1 d PDU C 1 
H14A H 0.0853 0.6101 0.9783 0.057 Uiso 0.933(2) 1 calc PR C 1 
H14B H -0.0263 0.7459 1.0114 0.057 Uiso 0.933(2) 1 calc PR C 1 
C15 C -0.1176(3) 0.7041(3) 0.8504(2) 0.0535(7) Uani 0.933(2) 1 d PDU C 1 
H15A H -0.1777 0.7952 0.8246 0.080 Uiso 0.933(2) 1 calc PR C 1 
H15B H -0.2177 0.6510 0.8816 0.080 Uiso 0.933(2) 1 calc PR C 1 
H15C H -0.0553 0.6671 0.7835 0.080 Uiso 0.933(2) 1 calc PR C 1 
C16 C 0.4227(3) 0.79115(18) 1.01273(14) 0.0302(4) Uani 0.933(2) 1 d PDU C 1 
H16A H 0.5319 0.8360 0.9793 0.036 Uiso 0.933(2) 1 calc PR C 1 
H16B H 0.3578 0.8452 1.0699 0.036 Uiso 0.933(2) 1 calc PR C 1 
C17 C 0.5069(3) 0.6575(2) 1.0790(2) 0.0337(5) Uani 0.933(2) 1 d PDU C 1 
H17A H 0.4008 0.6109 1.1120 0.051 Uiso 0.933(2) 1 calc PR C 1 
H17B H 0.5928 0.6703 1.1426 0.051 Uiso 0.933(2) 1 calc PR C 1 
H17C H 0.5813 0.6051 1.0251 0.051 Uiso 0.933(2) 1 calc PR C 1 
C18 C 0.1609(4) 0.9639(2) 0.8242(2) 0.0541(6) Uani 0.933(2) 1 d PDU C 1 
H18A H 0.0611 0.9631 0.7631 0.065 Uiso 0.933(2) 1 calc PR C 1 
H18B H 0.0980 1.0126 0.8855 0.065 Uiso 0.933(2) 1 calc PR C 1 
C19 C 0.3196(5) 1.0374(2) 0.7697(2) 0.0693(8) Uani 0.933(2) 1 d PDU C 1 
H19A H 0.4187 1.0398 0.8295 0.104 Uiso 0.933(2) 1 calc PR C 1 
H19B H 0.2641 1.1278 0.7377 0.104 Uiso 0.933(2) 1 calc PR C 1 
H19C H 0.3793 0.9923 0.7064 0.104 Uiso 0.933(2) 1 calc PR C 1 
Si1' Si 0.243(2) 0.8259(12) 0.8760(11) 0.02604(18) Uani 0.067(2) 1 d PU C 2 
C14' C -0.023(3) 0.834(2) 0.856(2) 0.0302(4) Uani 0.067(2) 1 d PDU C 2 
H14C H -0.0845 0.8407 0.9332 0.036 Uiso 0.067(2) 1 calc PR C 2 
H14D H -0.0708 0.9161 0.8031 0.036 Uiso 0.067(2) 1 calc PR C 2 
C15' C -0.091(6) 0.717(4) 0.806(3) 0.0535(7) Uani 0.067(2) 1 d PDU C 2 
H15D H -0.2325 0.7343 0.7925 0.080 Uiso 0.067(2) 1 calc PR C 2 
H15E H -0.0596 0.6361 0.8627 0.080 Uiso 0.067(2) 1 calc PR C 2 
H15F H -0.0259 0.7054 0.7322 0.080 Uiso 0.067(2) 1 calc PR C 2 
C16' C 0.296(4) 0.691(3) 1.027(2) 0.0541(6) Uani 0.067(2) 1 d PDU C 2 
H16C H 0.2468 0.7359 1.0942 0.065 Uiso 0.067(2) 1 calc PR C 2 
H16D H 0.2181 0.6189 1.0221 0.065 Uiso 0.067(2) 1 calc PR C 2 
C17' C 0.507(5) 0.629(4) 1.056(4) 0.0337(5) Uani 0.067(2) 1 d PDU C 2 
H17D H 0.5118 0.5721 1.1324 0.051 Uiso 0.067(2) 1 calc PR C 2 
H17E H 0.5880 0.6987 1.0599 0.051 Uiso 0.067(2) 1 calc PR C 2 
H17F H 0.5545 0.5759 0.9953 0.051 Uiso 0.067(2) 1 calc PR C 2 
C18' C 0.360(4) 0.951(3) 0.883(2) 0.0477(6) Uani 0.067(2) 1 d PDU C 2 
H18C H 0.2599 1.0277 0.8898 0.057 Uiso 0.067(2) 1 calc PR C 2 
H18D H 0.4334 0.9320 0.9586 0.057 Uiso 0.067(2) 1 calc PR C 2 
C19' C 0.502(5) 1.000(3) 0.791(3) 0.0693(8) Uani 0.067(2) 1 d PDU C 2 
H19D H 0.5416 1.0825 0.8102 0.104 Uiso 0.067(2) 1 calc PR C 2 
H19E H 0.4381 1.0167 0.7138 0.104 Uiso 0.067(2) 1 calc PR C 2 
H19F H 0.6163 0.9334 0.7913 0.104 Uiso 0.067(2) 1 calc PR C 2 
 
loop_ 
 _atom_site_aniso_label 
 _atom_site_aniso_U_11 
 _atom_site_aniso_U_22 
 _atom_site_aniso_U_33 
 _atom_site_aniso_U_23 
 _atom_site_aniso_U_13 
 _atom_site_aniso_U_12 
C1 0.0209(7) 0.0232(7) 0.0179(6) -0.0024(5) -0.0019(5) 0.0008(5) 
C2 0.0195(7) 0.0235(7) 0.0186(6) -0.0003(5) -0.0021(5) 0.0009(5) 
C3 0.0221(7) 0.0228(7) 0.0215(7) -0.0027(5) -0.0021(5) 0.0003(5) 
C4 0.0216(7) 0.0224(7) 0.0239(7) 0.0017(5) -0.0039(6) -0.0001(5) 
C5 0.0246(8) 0.0249(7) 0.0286(8) -0.0011(6) -0.0034(6) -0.0023(6) 
C6 0.0261(8) 0.0280(8) 0.0339(8) 0.0042(6) -0.0039(6) -0.0057(6) 
C20 0.0325(18) 0.0277(16) 0.0410(18) -0.0026(13) 0.0040(14) -0.0059(13) 
N1 0.0406(18) 0.0365(16) 0.059(2) -0.0091(14) 0.0041(15) -0.0109(14) 
C6' 0.0261(8) 0.0280(8) 0.0339(8) 0.0042(6) -0.0039(6) -0.0057(6) 
C7 0.0232(8) 0.0367(9) 0.0290(8) 0.0065(6) 0.0000(6) -0.0054(6) 
C8 0.0245(8) 0.0325(8) 0.0243(7) 0.0013(6) 0.0005(6) -0.0008(6) 
C9 0.0202(7) 0.0252(7) 0.0222(7) 0.0026(5) -0.0018(5) 0.0001(6) 
C10 0.0212(7) 0.0264(7) 0.0190(6) -0.0016(5) -0.0008(5) 0.0011(6) 
C11 0.0200(7) 0.0232(7) 0.0185(6) -0.0001(5) -0.0024(5) 0.0012(5) 
C12 0.0199(7) 0.0267(7) 0.0213(7) -0.0010(6) -0.0023(5) -0.0029(6) 
C13 0.0222(7) 0.0304(8) 0.0226(7) -0.0025(6) -0.0019(5) -0.0051(6) 
Si1 0.0258(2) 0.0312(4) 0.0205(3) -0.0067(3) -0.0022(2) 0.0015(3) 
C14 0.0306(10) 0.0853(16) 0.0321(10) -0.0192(10) 0.0055(8) -0.0143(10) 
C15 0.0246(11) 0.105(2) 0.0382(13) -0.0299(13) 0.0066(9) -0.0149(11) 
C16 0.0309(9) 0.0363(9) 0.0236(8) -0.0085(7) -0.0028(6) -0.0017(7) 
C17 0.0359(9) 0.0380(13) 0.0258(12) -0.0043(7) -0.0032(8) -0.0008(9) 
C18 0.0732(16) 0.0433(12) 0.0394(11) -0.0118(9) -0.0181(11) 0.0212(11) 
C19 0.110(2) 0.0364(12) 0.0574(15) 0.0088(10) -0.0340(15) -0.0106(13) 
Si1' 0.0258(2) 0.0312(4) 0.0205(3) -0.0067(3) -0.0022(2) 0.0015(3) 
C14' 0.0309(9) 0.0363(9) 0.0236(8) -0.0085(7) -0.0028(6) -0.0017(7) 
C15' 0.0246(11) 0.105(2) 0.0382(13) -0.0299(13) 0.0066(9) -0.0149(11) 
C16' 0.0732(16) 0.0433(12) 0.0394(11) -0.0118(9) -0.0181(11) 0.0212(11) 
C17' 0.0359(9) 0.0380(13) 0.0258(12) -0.0043(7) -0.0032(8) -0.0008(9) 
C18' 0.0306(10) 0.0853(16) 0.0321(10) -0.0192(10) 0.0055(8) -0.0143(10) 
C19' 0.110(2) 0.0364(12) 0.0574(15) 0.0088(10) -0.0340(15) -0.0106(13) 
 
_geom_special_details 
; 
 All esds (except the esd in the dihedral angle between two l.s. planes) 
 are estimated using the full covariance matrix.  The cell esds are taken 
 into account individually in the estimation of esds in distances, angles 
 and torsion angles; correlations between esds in cell parameters are only 
 used when they are defined by crystal symmetry.  An approximate (isotropic) 
 treatment of cell esds is used for estimating esds involving l.s. planes. 
; 
 
loop_ 
 _geom_bond_atom_site_label_1 
 _geom_bond_atom_site_label_2 
 _geom_bond_distance 
 _geom_bond_site_symmetry_2 
 _geom_bond_publ_flag 
C1 C11 1.419(2) 2_666 ? 
C1 C2 1.421(2) . ? 
C1 C12 1.4300(19) . ? 
C2 C3 1.409(2) . ? 
C2 C11 1.446(2) . ? 
C3 C4 1.391(2) . ? 
C3 H3 0.9500 . ? 
C4 C5 1.431(2) . ? 
C4 C9 1.439(2) . ? 
C5 C6 1.370(2) . ? 
C5 H5 0.9500 . ? 
C6 C20 1.374(4) . ? 
C6 C7 1.427(2) . ? 
C20 N1 1.151(5) . ? 
N1 N1 1.361(7) 2_876 ? 
C7 C8 1.361(2) . ? 
C7 H7 0.9500 . ? 
C8 C9 1.435(2) . ? 
C8 H8 0.9500 . ? 
C9 C10 1.386(2) . ? 
C10 C11 1.409(2) . ? 
C10 H10 0.9500 . ? 
C11 C1 1.419(2) 2_666 ? 
C12 C13 1.212(2) . ? 
C13 Si1 1.8403(17) . ? 
C13 Si1' 1.944(14) . ? 
Si1 C16 1.8670(18) . ? 
Si1 C18 1.869(2) . ? 
Si1 C14 1.873(2) . ? 
C14 C15 1.534(3) . ? 
C14 H14A 0.9900 . ? 
C14 H14B 0.9900 . ? 
C15 H15A 0.9800 . ? 
C15 H15B 0.9800 . ? 
C15 H15C 0.9800 . ? 
C16 C17 1.520(3) . ? 
C16 H16A 0.9900 . ? 
C16 H16B 0.9900 . ? 
C17 H17A 0.9800 . ? 
C17 H17B 0.9800 . ? 
C17 H17C 0.9800 . ? 
C18 C19 1.507(4) . ? 
C18 H18A 0.9900 . ? 
C18 H18B 0.9900 . ? 
C19 H19A 0.9800 . ? 
C19 H19B 0.9800 . ? 
C19 H19C 0.9800 . ? 
Si1' C18' 1.63(3) . ? 
Si1' C14' 1.85(3) . ? 
Si1' C16' 2.07(3) . ? 
C14' C15' 1.541(19) . ? 
C14' H14C 0.9900 . ? 
C14' H14D 0.9900 . ? 
C15' H15D 0.9800 . ? 
C15' H15E 0.9800 . ? 
C15' H15F 0.9800 . ? 
C16' C17' 1.530(19) . ? 
C16' H16C 0.9900 . ? 
C16' H16D 0.9900 . ? 
C17' H17D 0.9800 . ? 
C17' H17E 0.9800 . ? 
C17' H17F 0.9800 . ? 
C18' C19' 1.52(2) . ? 
C18' H18C 0.9900 . ? 
C18' H18D 0.9900 . ? 
C19' H19D 0.9800 . ? 
C19' H19E 0.9800 . ? 
C19' H19F 0.9800 . ? 
 
loop_ 
 _geom_angle_atom_site_label_1 
 _geom_angle_atom_site_label_2 
 _geom_angle_atom_site_label_3 
 _geom_angle 
 _geom_angle_site_symmetry_1 
 _geom_angle_site_symmetry_3 
 _geom_angle_publ_flag 
C11 C1 C2 120.60(13) 2_666 . ? 
C11 C1 C12 119.07(13) 2_666 . ? 
C2 C1 C12 120.33(13) . . ? 
C3 C2 C1 121.62(13) . . ? 
C3 C2 C11 118.87(13) . . ? 
C1 C2 C11 119.51(13) . . ? 
C4 C3 C2 121.70(13) . . ? 
C4 C3 H3 119.2 . . ? 
C2 C3 H3 119.2 . . ? 
C3 C4 C5 122.08(14) . . ? 
C3 C4 C9 119.38(13) . . ? 
C5 C4 C9 118.53(14) . . ? 
C6 C5 C4 120.55(15) . . ? 
C6 C5 H5 119.7 . . ? 
C4 C5 H5 119.7 . . ? 
C5 C6 C20 121.7(2) . . ? 
C5 C6 C7 120.92(15) . . ? 
C20 C6 C7 117.2(2) . . ? 
N1 C20 C6 178.6(4) . . ? 
C20 N1 N1 160.2(5) . 2_876 ? 
C8 C7 C6 120.20(15) . . ? 
C8 C7 H7 119.9 . . ? 
C6 C7 H7 119.9 . . ? 
C7 C8 C9 120.90(15) . . ? 
C7 C8 H8 119.5 . . ? 
C9 C8 H8 119.5 . . ? 
C10 C9 C8 121.72(14) . . ? 
C10 C9 C4 119.39(13) . . ? 
C8 C9 C4 118.89(14) . . ? 
C9 C10 C11 121.99(13) . . ? 
C9 C10 H10 119.0 . . ? 
C11 C10 H10 119.0 . . ? 
C10 C11 C1 121.47(13) . 2_666 ? 
C10 C11 C2 118.64(13) . . ? 
C1 C11 C2 119.89(13) 2_666 . ? 
C13 C12 C1 177.20(15) . . ? 
C12 C13 Si1 172.29(14) . . ? 
C12 C13 Si1' 166.4(4) . . ? 
C13 Si1 C16 112.19(8) . . ? 
C13 Si1 C18 107.48(9) . . ? 
C16 Si1 C18 108.79(10) . . ? 
C13 Si1 C14 105.93(9) . . ? 
C16 Si1 C14 111.02(9) . . ? 
C18 Si1 C14 111.37(13) . . ? 
C15 C14 Si1 112.67(16) . . ? 
C15 C14 H14A 109.1 . . ? 
Si1 C14 H14A 109.1 . . ? 
C15 C14 H14B 109.1 . . ? 
Si1 C14 H14B 109.1 . . ? 
H14A C14 H14B 107.8 . . ? 
C17 C16 Si1 116.49(13) . . ? 
C17 C16 H16A 108.2 . . ? 
Si1 C16 H16A 108.2 . . ? 
C17 C16 H16B 108.2 . . ? 
Si1 C16 H16B 108.2 . . ? 
H16A C16 H16B 107.3 . . ? 
C19 C18 Si1 114.56(18) . . ? 
C19 C18 H18A 108.6 . . ? 
Si1 C18 H18A 108.6 . . ? 
C19 C18 H18B 108.6 . . ? 
Si1 C18 H18B 108.6 . . ? 
H18A C18 H18B 107.6 . . ? 
C18' Si1' C14' 125.9(15) . . ? 
C18' Si1' C13 115.8(12) . . ? 
C14' Si1' C13 104.5(9) . . ? 
C18' Si1' C16' 109.8(14) . . ? 
C14' Si1' C16' 101.8(13) . . ? 
C13 Si1' C16' 93.6(10) . . ? 
C15' C14' Si1' 116(2) . . ? 
C15' C14' H14C 108.3 . . ? 
Si1' C14' H14C 108.3 . . ? 
C15' C14' H14D 108.3 . . ? 
Si1' C14' H14D 108.3 . . ? 
H14C C14' H14D 107.4 . . ? 
C14' C15' H15D 109.5 . . ? 
C14' C15' H15E 109.5 . . ? 
H15D C15' H15E 109.5 . . ? 
C14' C15' H15F 109.5 . . ? 
H15D C15' H15F 109.5 . . ? 
H15E C15' H15F 109.5 . . ? 
C17' C16' Si1' 118(3) . . ? 
C17' C16' H16C 107.8 . . ? 
Si1' C16' H16C 107.8 . . ? 
C17' C16' H16D 107.8 . . ? 
Si1' C16' H16D 107.8 . . ? 
H16C C16' H16D 107.1 . . ? 
C16' C17' H17D 109.5 . . ? 
C16' C17' H17E 109.5 . . ? 
H17D C17' H17E 109.5 . . ? 
C16' C17' H17F 109.5 . . ? 
H17D C17' H17F 109.5 . . ? 
H17E C17' H17F 109.5 . . ? 
C19' C18' Si1' 125(2) . . ? 
C19' C18' H18C 106.2 . . ? 
Si1' C18' H18C 106.2 . . ? 
C19' C18' H18D 106.2 . . ? 
Si1' C18' H18D 106.2 . . ? 
H18C C18' H18D 106.4 . . ? 
C18' C19' H19D 109.5 . . ? 
C18' C19' H19E 109.5 . . ? 
H19D C19' H19E 109.5 . . ? 
C18' C19' H19F 109.5 . . ? 
H19D C19' H19F 109.5 . . ? 
H19E C19' H19F 109.5 . . ? 
 
loop_ 
 _geom_torsion_atom_site_label_1 
 _geom_torsion_atom_site_label_2 
 _geom_torsion_atom_site_label_3 
 _geom_torsion_atom_site_label_4 
 _geom_torsion 
 _geom_torsion_site_symmetry_1 
 _geom_torsion_site_symmetry_2 
 _geom_torsion_site_symmetry_3 
 _geom_torsion_site_symmetry_4 
 _geom_torsion_publ_flag 
C11 C1 C2 C3 179.89(13) 2_666 . . . ? 
C12 C1 C2 C3 0.7(2) . . . . ? 
C11 C1 C2 C11 -0.3(2) 2_666 . . . ? 
C12 C1 C2 C11 -179.44(12) . . . . ? 
C1 C2 C3 C4 178.21(13) . . . . ? 
C11 C2 C3 C4 -1.6(2) . . . . ? 
C2 C3 C4 C5 -178.07(13) . . . . ? 
C2 C3 C4 C9 1.0(2) . . . . ? 
C3 C4 C5 C6 178.90(14) . . . . ? 
C9 C4 C5 C6 -0.2(2) . . . . ? 
C4 C5 C6 C20 -174.2(2) . . . . ? 
C4 C5 C6 C7 0.6(2) . . . . ? 
C5 C6 C7 C8 -0.4(2) . . . . ? 
C20 C6 C7 C8 174.7(2) . . . . ? 
C6 C7 C8 C9 -0.3(2) . . . . ? 
C7 C8 C9 C10 -179.31(14) . . . . ? 
C7 C8 C9 C4 0.7(2) . . . . ? 
C3 C4 C9 C10 0.4(2) . . . . ? 
C5 C4 C9 C10 179.56(13) . . . . ? 
C3 C4 C9 C8 -179.55(13) . . . . ? 
C5 C4 C9 C8 -0.4(2) . . . . ? 
C8 C9 C10 C11 178.73(13) . . . . ? 
C4 C9 C10 C11 -1.2(2) . . . . ? 
C9 C10 C11 C1 -178.67(13) . . . 2_666 ? 
C9 C10 C11 C2 0.6(2) . . . . ? 
C3 C2 C11 C10 0.8(2) . . . . ? 
C1 C2 C11 C10 -179.04(12) . . . . ? 
C3 C2 C11 C1 -179.89(12) . . . 2_666 ? 
C1 C2 C11 C1 0.3(2) . . . 2_666 ? 
Si1' C13 Si1 C16 -105(2) . . . . ? 
Si1' C13 Si1 C18 15(2) . . . . ? 
Si1' C13 Si1 C14 134(2) . . . . ? 
C13 Si1 C14 C15 -60.2(2) . . . . ? 
C16 Si1 C14 C15 177.78(17) . . . . ? 
C18 Si1 C14 C15 56.4(2) . . . . ? 
C13 Si1 C16 C17 -61.65(17) . . . . ? 
C18 Si1 C16 C17 179.57(16) . . . . ? 
C14 Si1 C16 C17 56.67(18) . . . . ? 
C13 Si1 C18 C19 -60.04(19) . . . . ? 
C16 Si1 C18 C19 61.65(19) . . . . ? 
C14 Si1 C18 C19 -175.66(16) . . . . ? 
C12 C13 Si1' C18' -81(2) . . . . ? 
Si1 C13 Si1' C18' 134(3) . . . . ? 
C12 C13 Si1' C14' 62(2) . . . . ? 
Si1 C13 Si1' C14' -83(2) . . . . ? 
Si1 C13 Si1' C16' 20(2) . . . . ? 
C18' Si1' C14' C15' 158(2) . . . . ? 
C13 Si1' C14' C15' 20(2) . . . . ? 
C16' Si1' C14' C15' -77(2) . . . . ? 
C18' Si1' C16' C17' -61(3) . . . . ? 
C14' Si1' C16' C17' 164(2) . . . . ? 
C13 Si1' C16' C17' 58(3) . . . . ? 
C14' Si1' C18' C19' -113(3) . . . . ? 
C13 Si1' C18' C19' 21(3) . . . . ? 
C16' Si1' C18' C19' 125(3) . . . . ? 
 
_diffrn_measured_fraction_theta_max    0.994 
_diffrn_reflns_theta_full              27.45 
_diffrn_measured_fraction_theta_full   0.994 
_refine_diff_density_max    0.425 
_refine_diff_density_min   -0.237 
_refine_diff_density_rms    0.050 
