 
data_x09191 
 
_audit_creation_method            SHELXL-97 
_chemical_name_systematic 
; 
 ? 
; 
_chemical_name_common             ? 
_chemical_melting_point           ? 
_chemical_formula_moiety 
 'C48 H46 Si2' 
_chemical_formula_sum 
 'C48 H46 Si2' 
_chemical_formula_weight          679.03 
 
loop_ 
 _atom_type_symbol 
 _atom_type_description 
 _atom_type_scat_dispersion_real 
 _atom_type_scat_dispersion_imag 
 _atom_type_scat_source 
 'C'  'C'   0.0181   0.0091 
 'International Tables Vol C Tables 4.2.6.8 and 6.1.1.4' 
 'H'  'H'   0.0000   0.0000 
 'International Tables Vol C Tables 4.2.6.8 and 6.1.1.4' 
 'Si'  'Si'   0.2541   0.3302 
 'International Tables Vol C Tables 4.2.6.8 and 6.1.1.4' 
 
_symmetry_cell_setting            ? 
_symmetry_space_group_name_H-M    ? 
_symmetry_space_group_name_Hall   ? 
 
loop_ 
 _symmetry_equiv_pos_as_xyz 
 'x, y, z' 
 '-x, -y, -z' 
 
_cell_length_a                    7.6758(2) 
_cell_length_b                    10.4318(2) 
_cell_length_c                    12.0299(3) 
_cell_angle_alpha                 67.1570(10) 
_cell_angle_beta                  88.8990(10) 
_cell_angle_gamma                 76.4820(10) 
_cell_volume                      860.37(4) 
_cell_formula_units_Z             1 
_cell_measurement_temperature     90.0(2) 
_cell_measurement_reflns_used     ? 
_cell_measurement_theta_min       ? 
_cell_measurement_theta_max       ? 
 
_exptl_crystal_description        ? 
_exptl_crystal_colour             ? 
_exptl_crystal_size_max           0.20 
_exptl_crystal_size_mid           0.10 
_exptl_crystal_size_min           0.01 
_exptl_crystal_density_meas       ? 
_exptl_crystal_density_diffrn     1.311 
_exptl_crystal_density_method     'not measured' 
_exptl_crystal_F_000              362 
_exptl_absorpt_coefficient_mu     1.195 
_exptl_absorpt_correction_type    multi-scan 
_exptl_absorpt_correction_T_min   0.7960 
_exptl_absorpt_correction_T_max   0.9881 
_exptl_absorpt_process_details    'Sadabs in APEX2 (BrukerAXS, 2006)' 
 
_exptl_special_details 
; 
 ? 
; 
 
_diffrn_ambient_temperature       90.0(2) 
_diffrn_radiation_wavelength      1.54178 
_diffrn_radiation_type            CuK\a 
_diffrn_radiation_source          'fine-focus rotating anode' 
_diffrn_radiation_monochromator   'graded multilayer optics' 
_diffrn_measurement_device_type   'Bruker X8 Proteum diffractometer'
_diffrn_measurement_method        '\f and \w scans'            
_diffrn_detector_area_resol_mean  5.6
_diffrn_standards_number          0 
_diffrn_standards_interval_count  . 
_diffrn_standards_interval_time   . 
_diffrn_standards_decay_%         ? 
_diffrn_reflns_number             12353 
_diffrn_reflns_av_R_equivalents   0.0467 
_diffrn_reflns_av_sigmaI/netI     0.0385 
_diffrn_reflns_limit_h_min        -7 
_diffrn_reflns_limit_h_max        9 
_diffrn_reflns_limit_k_min        -12 
_diffrn_reflns_limit_k_max        12 
_diffrn_reflns_limit_l_min        -14 
_diffrn_reflns_limit_l_max        14 
_diffrn_reflns_theta_min          4.00 
_diffrn_reflns_theta_max          68.53 
_reflns_number_total              3118 
_reflns_number_gt                 2704 
_reflns_threshold_expression      >2\s(I)    
 
_computing_data_collection        'APEX2 (Bruker-AXS, 2006)'            
_computing_cell_refinement        'APEX2'
_computing_data_reduction         'APEX2'
_computing_structure_solution     'SHELXS-97 (Sheldrick, 2008)' 
_computing_structure_refinement   'SHELXL-97 (Sheldrick, 2008)' 
_computing_molecular_graphics     'XP in SHELXTL (Sheldrick, 2008)'
_computing_publication_material
; 
SHELX-97 (Sheldrick, 2008) and local procedures 
; 
 
_publ_section_exptl_refinement
;
H atoms were found in difference Fourier maps and subsequently placed in
idealized positions with constrained distances of 
0.98 \%A (RCH~3~),
0.99 \%A (R~2~CH~2~),
1.00 \%A (R~3~CH),
0.95 \%A (C~Ar~H),
0.84 \%A (O-H),
0.88 \%A (N-H),
and with U~iso~(H) values set to either 1.2U~eq~ or 1.5U~eq~ (RCH~3~, OH) 
of the attached atom. 
;

_refine_special_details 
; 
 Refinement of F^2^ against ALL reflections.  The weighted R-factor wR and 
 goodness of fit S are based on F^2^, conventional R-factors R are based 
 on F, with F set to zero for negative F^2^. The threshold expression of 
 F^2^ > 2\s(F^2^) is used only for calculating R-factors(gt) etc. and is 
 not relevant to the choice of reflections for refinement.  R-factors based 
 on F^2^ are statistically about twice as large as those based on F, and R- 
 factors based on ALL data will be even larger. 
; 
 
_refine_ls_structure_factor_coef  Fsqd  
_refine_ls_matrix_type            full 
_refine_ls_weighting_scheme       calc  
_refine_ls_weighting_details 
 'calc w=1/[\s^2^(Fo^2^)+(0.0609P)^2^+0.4374P] where P=(Fo^2^+2Fc^2^)/3' 
_atom_sites_solution_primary      direct 
_atom_sites_solution_secondary    difmap 
_atom_sites_solution_hydrogens    geom 
_refine_ls_hydrogen_treatment     constr 
_refine_ls_extinction_method      none 
_refine_ls_extinction_coef        ? 
_refine_ls_number_reflns          3118 
_refine_ls_number_parameters      210 
_refine_ls_number_restraints      0 
_refine_ls_R_factor_all           0.0474 
_refine_ls_R_factor_gt            0.0398 
_refine_ls_wR_factor_ref          0.1137 
_refine_ls_wR_factor_gt           0.1067 
_refine_ls_goodness_of_fit_ref    1.029 
_refine_ls_restrained_S_all       1.029 
_refine_ls_shift/su_max           0.000 
_refine_ls_shift/su_mean          0.000 
 
loop_ 
 _atom_site_label 
 _atom_site_type_symbol 
 _atom_site_fract_x 
 _atom_site_fract_y 
 _atom_site_fract_z 
 _atom_site_U_iso_or_equiv 
 _atom_site_adp_type 
 _atom_site_occupancy 
 _atom_site_symmetry_multiplicity 
 _atom_site_calc_flag 
 _atom_site_refinement_flags 
 _atom_site_disorder_assembly 
 _atom_site_disorder_group 
Si1 Si 0.51323(6) 1.10051(4) 0.20773(4) 0.01757(15) Uani 1 1 d . . . 
C1 C 0.4880(2) 0.64757(17) 0.42746(14) 0.0186(4) Uani 1 1 d . . . 
C2 C 0.3529(2) 0.58337(17) 0.41063(14) 0.0184(4) Uani 1 1 d . . . 
C3 C 0.2044(2) 0.66190(17) 0.32505(14) 0.0197(4) Uani 1 1 d . . . 
H3 H 0.1960 0.7602 0.2766 0.024 Uiso 1 1 calc R . . 
C4 C 0.0699(2) 0.60031(18) 0.30926(14) 0.0200(4) Uani 1 1 d . . . 
C5 C -0.0821(2) 0.67918(19) 0.22357(15) 0.0229(4) Uani 1 1 d . . . 
H5 H -0.0917 0.7773 0.1736 0.028 Uiso 1 1 calc R . . 
C6 C -0.2127(2) 0.61614(19) 0.21243(16) 0.0253(4) Uani 1 1 d . . . 
H6 H -0.3132 0.6707 0.1553 0.030 Uiso 1 1 calc R . . 
C7 C -0.2008(2) 0.46890(19) 0.28556(16) 0.0245(4) Uani 1 1 d . . . 
H7 H -0.2942 0.4266 0.2775 0.029 Uiso 1 1 calc R . . 
C8 C -0.0576(2) 0.38868(18) 0.36651(15) 0.0217(4) Uani 1 1 d . . . 
H8 H -0.0505 0.2901 0.4134 0.026 Uiso 1 1 calc R . . 
C9 C 0.0831(2) 0.45073(18) 0.38219(14) 0.0195(4) Uani 1 1 d . . . 
C10 C 0.2293(2) 0.37217(18) 0.46567(14) 0.0202(4) Uani 1 1 d . . . 
H10 H 0.2379 0.2734 0.5125 0.024 Uiso 1 1 calc R . . 
C11 C 0.3654(2) 0.43347(17) 0.48358(14) 0.0187(4) Uani 1 1 d . . . 
C12 C 0.4823(2) 0.79420(18) 0.35297(14) 0.0188(4) Uani 1 1 d . . . 
C13 C 0.4870(2) 0.91636(17) 0.29088(14) 0.0198(4) Uani 1 1 d . . . 
C14 C 0.6977(2) 1.12032(19) 0.29188(15) 0.0233(4) Uani 1 1 d . . . 
H14 H 0.7222 1.2178 0.2581 0.028 Uiso 1 1 calc R . . 
C15 C 0.7265(3) 1.0445(2) 0.42911(16) 0.0294(4) Uani 1 1 d . . . 
H15A H 0.7606 1.0974 0.4746 0.035 Uiso 1 1 calc R . . 
H15B H 0.6482 0.9801 0.4708 0.035 Uiso 1 1 calc R . . 
C16 C 0.8613(2) 0.9981(2) 0.35314(16) 0.0280(4) Uani 1 1 d . . . 
H16A H 0.8665 0.9049 0.3479 0.034 Uiso 1 1 calc R . . 
H16B H 0.9789 1.0221 0.3517 0.034 Uiso 1 1 calc R . . 
C17 C 0.5730(2) 1.12622(17) 0.05176(15) 0.0200(4) Uani 1 1 d . . . 
H17 H 0.4812 1.1150 0.0006 0.024 Uiso 1 1 calc R . . 
C18 C 0.7664(2) 1.08385(19) 0.02327(16) 0.0261(4) Uani 1 1 d . . . 
H18A H 0.8608 1.0415 0.0912 0.031 Uiso 1 1 calc R . . 
H18B H 0.7888 1.0447 -0.0401 0.031 Uiso 1 1 calc R . . 
C19 C 0.6746(2) 1.23905(19) -0.01583(16) 0.0251(4) Uani 1 1 d . . . 
H19A H 0.6402 1.2956 -0.1033 0.030 Uiso 1 1 calc R . . 
H19B H 0.7122 1.2924 0.0280 0.030 Uiso 1 1 calc R . . 
C20 C 0.2951(2) 1.23096(18) 0.20299(15) 0.0215(4) Uani 1 1 d . . . 
H20 H 0.2644 1.2108 0.2883 0.026 Uiso 1 1 calc R . . 
C21 C 0.3119(3) 1.38671(19) 0.14562(17) 0.0286(4) Uani 1 1 d . . . 
H21A H 0.3483 1.4079 0.0631 0.043 Uiso 1 1 calc R . . 
H21B H 0.4024 1.3999 0.1939 0.043 Uiso 1 1 calc R . . 
H21C H 0.1957 1.4518 0.1433 0.043 Uiso 1 1 calc R . . 
C22 C 0.1411(2) 1.2127(2) 0.13660(17) 0.0283(4) Uani 1 1 d . . . 
H22A H 0.0279 1.2753 0.1433 0.042 Uiso 1 1 calc R . . 
H22B H 0.1329 1.1126 0.1729 0.042 Uiso 1 1 calc R . . 
H22C H 0.1635 1.2384 0.0511 0.042 Uiso 1 1 calc R . . 
 
loop_ 
 _atom_site_aniso_label 
 _atom_site_aniso_U_11 
 _atom_site_aniso_U_22 
 _atom_site_aniso_U_33 
 _atom_site_aniso_U_23 
 _atom_site_aniso_U_13 
 _atom_site_aniso_U_12 
Si1 0.0190(3) 0.0154(2) 0.0143(2) 0.00038(17) 0.00006(16) -0.00758(17) 
C1 0.0206(9) 0.0168(8) 0.0140(8) -0.0011(6) 0.0042(6) -0.0052(6) 
C2 0.0213(9) 0.0175(8) 0.0135(7) -0.0023(6) 0.0046(6) -0.0061(6) 
C3 0.0247(9) 0.0161(8) 0.0138(8) -0.0003(6) 0.0033(7) -0.0066(7) 
C4 0.0221(9) 0.0200(8) 0.0146(8) -0.0030(6) 0.0033(6) -0.0058(7) 
C5 0.0257(9) 0.0205(9) 0.0173(8) -0.0020(7) 0.0001(7) -0.0053(7) 
C6 0.0245(9) 0.0260(9) 0.0200(8) -0.0045(7) -0.0015(7) -0.0042(7) 
C7 0.0216(9) 0.0273(9) 0.0248(9) -0.0083(7) 0.0019(7) -0.0096(7) 
C8 0.0223(9) 0.0205(9) 0.0205(8) -0.0048(7) 0.0040(7) -0.0078(7) 
C9 0.0220(9) 0.0192(8) 0.0151(8) -0.0037(6) 0.0040(6) -0.0063(7) 
C10 0.0243(9) 0.0168(8) 0.0155(8) -0.0010(7) 0.0031(6) -0.0073(7) 
C11 0.0215(9) 0.0174(8) 0.0139(8) -0.0022(6) 0.0044(6) -0.0056(6) 
C12 0.0173(8) 0.0214(9) 0.0154(8) -0.0040(7) 0.0017(6) -0.0064(6) 
C13 0.0184(9) 0.0206(9) 0.0166(8) -0.0025(7) 0.0003(6) -0.0060(7) 
C14 0.0253(9) 0.0220(9) 0.0196(9) -0.0025(7) -0.0011(7) -0.0099(7) 
C15 0.0278(10) 0.0379(11) 0.0203(9) -0.0064(8) -0.0028(7) -0.0122(8) 
C16 0.0214(9) 0.0319(10) 0.0225(9) -0.0003(8) -0.0031(7) -0.0096(7) 
C17 0.0194(9) 0.0183(8) 0.0190(8) -0.0018(7) 0.0002(6) -0.0082(6) 
C18 0.0234(9) 0.0261(9) 0.0242(9) -0.0049(7) 0.0055(7) -0.0068(7) 
C19 0.0267(10) 0.0227(9) 0.0213(9) -0.0010(7) 0.0067(7) -0.0112(7) 
C20 0.0235(9) 0.0213(9) 0.0166(8) -0.0027(7) 0.0030(7) -0.0081(7) 
C21 0.0289(10) 0.0199(9) 0.0312(10) -0.0040(8) 0.0049(8) -0.0062(7) 
C22 0.0222(10) 0.0350(10) 0.0255(9) -0.0090(8) 0.0030(7) -0.0085(8) 
 
_geom_special_details 
; 
 All esds (except the esd in the dihedral angle between two l.s. planes) 
 are estimated using the full covariance matrix.  The cell esds are taken 
 into account individually in the estimation of esds in distances, angles 
 and torsion angles; correlations between esds in cell parameters are only 
 used when they are defined by crystal symmetry.  An approximate (isotropic) 
 treatment of cell esds is used for estimating esds involving l.s. planes. 
; 
 
loop_ 
 _geom_bond_atom_site_label_1 
 _geom_bond_atom_site_label_2 
 _geom_bond_distance 
 _geom_bond_site_symmetry_2 
 _geom_bond_publ_flag 
Si1 C13 1.8472(17) . ? 
Si1 C14 1.8510(17) . ? 
Si1 C17 1.8538(17) . ? 
Si1 C20 1.8808(18) . ? 
C1 C2 1.415(2) . ? 
C1 C11 1.423(2) 2_666 ? 
C1 C12 1.432(2) . ? 
C2 C3 1.409(2) . ? 
C2 C11 1.446(2) . ? 
C3 C4 1.388(2) . ? 
C3 H3 0.9500 . ? 
C4 C5 1.428(2) . ? 
C4 C9 1.443(2) . ? 
C5 C6 1.356(3) . ? 
C5 H5 0.9500 . ? 
C6 C7 1.425(2) . ? 
C6 H6 0.9500 . ? 
C7 C8 1.355(2) . ? 
C7 H7 0.9500 . ? 
C8 C9 1.432(2) . ? 
C8 H8 0.9500 . ? 
C9 C10 1.383(2) . ? 
C10 C11 1.406(2) . ? 
C10 H10 0.9500 . ? 
C11 C1 1.423(2) 2_666 ? 
C12 C13 1.210(2) . ? 
C14 C16 1.518(2) . ? 
C14 C15 1.523(2) . ? 
C14 H14 1.0000 . ? 
C15 C16 1.488(3) . ? 
C15 H15A 0.9900 . ? 
C15 H15B 0.9900 . ? 
C16 H16A 0.9900 . ? 
C16 H16B 0.9900 . ? 
C17 C18 1.520(2) . ? 
C17 C19 1.522(2) . ? 
C17 H17 1.0000 . ? 
C18 C19 1.492(3) . ? 
C18 H18A 0.9900 . ? 
C18 H18B 0.9900 . ? 
C19 H19A 0.9900 . ? 
C19 H19B 0.9900 . ? 
C20 C22 1.527(2) . ? 
C20 C21 1.535(2) . ? 
C20 H20 1.0000 . ? 
C21 H21A 0.9800 . ? 
C21 H21B 0.9800 . ? 
C21 H21C 0.9800 . ? 
C22 H22A 0.9800 . ? 
C22 H22B 0.9800 . ? 
C22 H22C 0.9800 . ? 
 
loop_ 
 _geom_angle_atom_site_label_1 
 _geom_angle_atom_site_label_2 
 _geom_angle_atom_site_label_3 
 _geom_angle 
 _geom_angle_site_symmetry_1 
 _geom_angle_site_symmetry_3 
 _geom_angle_publ_flag 
C13 Si1 C14 106.41(7) . . ? 
C13 Si1 C17 110.21(8) . . ? 
C14 Si1 C17 109.95(8) . . ? 
C13 Si1 C20 108.59(8) . . ? 
C14 Si1 C20 111.61(8) . . ? 
C17 Si1 C20 110.00(7) . . ? 
C2 C1 C11 120.62(15) . 2_666 ? 
C2 C1 C12 120.57(15) . . ? 
C11 C1 C12 118.78(15) 2_666 . ? 
C3 C2 C1 121.79(15) . . ? 
C3 C2 C11 118.62(15) . . ? 
C1 C2 C11 119.58(15) . . ? 
C4 C3 C2 122.15(15) . . ? 
C4 C3 H3 118.9 . . ? 
C2 C3 H3 118.9 . . ? 
C3 C4 C5 122.64(15) . . ? 
C3 C4 C9 118.99(15) . . ? 
C5 C4 C9 118.37(15) . . ? 
C6 C5 C4 120.98(16) . . ? 
C6 C5 H5 119.5 . . ? 
C4 C5 H5 119.5 . . ? 
C5 C6 C7 120.65(16) . . ? 
C5 C6 H6 119.7 . . ? 
C7 C6 H6 119.7 . . ? 
C8 C7 C6 120.64(16) . . ? 
C8 C7 H7 119.7 . . ? 
C6 C7 H7 119.7 . . ? 
C7 C8 C9 120.76(16) . . ? 
C7 C8 H8 119.6 . . ? 
C9 C8 H8 119.6 . . ? 
C10 C9 C8 122.04(15) . . ? 
C10 C9 C4 119.38(15) . . ? 
C8 C9 C4 118.58(15) . . ? 
C9 C10 C11 122.26(15) . . ? 
C9 C10 H10 118.9 . . ? 
C11 C10 H10 118.9 . . ? 
C10 C11 C1 121.61(15) . 2_666 ? 
C10 C11 C2 118.59(15) . . ? 
C1 C11 C2 119.79(16) 2_666 . ? 
C13 C12 C1 176.64(17) . . ? 
C12 C13 Si1 173.95(14) . . ? 
C16 C14 C15 58.60(12) . . ? 
C16 C14 Si1 122.31(13) . . ? 
C15 C14 Si1 120.75(13) . . ? 
C16 C14 H14 114.6 . . ? 
C15 C14 H14 114.6 . . ? 
Si1 C14 H14 114.6 . . ? 
C16 C15 C14 60.55(12) . . ? 
C16 C15 H15A 117.7 . . ? 
C14 C15 H15A 117.7 . . ? 
C16 C15 H15B 117.7 . . ? 
C14 C15 H15B 117.7 . . ? 
H15A C15 H15B 114.8 . . ? 
C15 C16 C14 60.86(12) . . ? 
C15 C16 H16A 117.7 . . ? 
C14 C16 H16A 117.7 . . ? 
C15 C16 H16B 117.7 . . ? 
C14 C16 H16B 117.7 . . ? 
H16A C16 H16B 114.8 . . ? 
C18 C17 C19 58.77(11) . . ? 
C18 C17 Si1 121.72(12) . . ? 
C19 C17 Si1 119.67(12) . . ? 
C18 C17 H17 115.0 . . ? 
C19 C17 H17 115.0 . . ? 
Si1 C17 H17 115.0 . . ? 
C19 C18 C17 60.69(11) . . ? 
C19 C18 H18A 117.7 . . ? 
C17 C18 H18A 117.7 . . ? 
C19 C18 H18B 117.7 . . ? 
C17 C18 H18B 117.7 . . ? 
H18A C18 H18B 114.8 . . ? 
C18 C19 C17 60.53(11) . . ? 
C18 C19 H19A 117.7 . . ? 
C17 C19 H19A 117.7 . . ? 
C18 C19 H19B 117.7 . . ? 
C17 C19 H19B 117.7 . . ? 
H19A C19 H19B 114.8 . . ? 
C22 C20 C21 110.08(14) . . ? 
C22 C20 Si1 111.95(12) . . ? 
C21 C20 Si1 111.56(12) . . ? 
C22 C20 H20 107.7 . . ? 
C21 C20 H20 107.7 . . ? 
Si1 C20 H20 107.7 . . ? 
C20 C21 H21A 109.5 . . ? 
C20 C21 H21B 109.5 . . ? 
H21A C21 H21B 109.5 . . ? 
C20 C21 H21C 109.5 . . ? 
H21A C21 H21C 109.5 . . ? 
H21B C21 H21C 109.5 . . ? 
C20 C22 H22A 109.5 . . ? 
C20 C22 H22B 109.5 . . ? 
H22A C22 H22B 109.5 . . ? 
C20 C22 H22C 109.5 . . ? 
H22A C22 H22C 109.5 . . ? 
H22B C22 H22C 109.5 . . ? 
 
loop_ 
 _geom_torsion_atom_site_label_1 
 _geom_torsion_atom_site_label_2 
 _geom_torsion_atom_site_label_3 
 _geom_torsion_atom_site_label_4 
 _geom_torsion 
 _geom_torsion_site_symmetry_1 
 _geom_torsion_site_symmetry_2 
 _geom_torsion_site_symmetry_3 
 _geom_torsion_site_symmetry_4 
 _geom_torsion_publ_flag 
C11 C1 C2 C3 178.60(15) 2_666 . . . ? 
C12 C1 C2 C3 -3.1(3) . . . . ? 
C11 C1 C2 C11 -0.8(3) 2_666 . . . ? 
C12 C1 C2 C11 177.46(15) . . . . ? 
C1 C2 C3 C4 -179.01(16) . . . . ? 
C11 C2 C3 C4 0.4(3) . . . . ? 
C2 C3 C4 C5 179.42(16) . . . . ? 
C2 C3 C4 C9 -0.5(3) . . . . ? 
C3 C4 C5 C6 -178.61(17) . . . . ? 
C9 C4 C5 C6 1.3(3) . . . . ? 
C4 C5 C6 C7 -0.5(3) . . . . ? 
C5 C6 C7 C8 -0.8(3) . . . . ? 
C6 C7 C8 C9 1.3(3) . . . . ? 
C7 C8 C9 C10 178.80(17) . . . . ? 
C7 C8 C9 C4 -0.5(3) . . . . ? 
C3 C4 C9 C10 -0.2(2) . . . . ? 
C5 C4 C9 C10 179.91(15) . . . . ? 
C3 C4 C9 C8 179.09(15) . . . . ? 
C5 C4 C9 C8 -0.8(2) . . . . ? 
C8 C9 C10 C11 -178.33(15) . . . . ? 
C4 C9 C10 C11 0.9(3) . . . . ? 
C9 C10 C11 C1 177.93(16) . . . 2_666 ? 
C9 C10 C11 C2 -1.0(3) . . . . ? 
C3 C2 C11 C10 0.3(2) . . . . ? 
C1 C2 C11 C10 179.72(15) . . . . ? 
C3 C2 C11 C1 -178.63(15) . . . 2_666 ? 
C1 C2 C11 C1 0.8(3) . . . 2_666 ? 
C2 C1 C12 C13 -151(3) . . . . ? 
C11 C1 C12 C13 27(3) 2_666 . . . ? 
C1 C12 C13 Si1 -39(4) . . . . ? 
C14 Si1 C13 C12 1.8(15) . . . . ? 
C17 Si1 C13 C12 120.9(15) . . . . ? 
C20 Si1 C13 C12 -118.5(15) . . . . ? 
C13 Si1 C14 C16 36.38(16) . . . . ? 
C17 Si1 C14 C16 -82.97(15) . . . . ? 
C20 Si1 C14 C16 154.67(14) . . . . ? 
C13 Si1 C14 C15 -33.68(17) . . . . ? 
C17 Si1 C14 C15 -153.02(15) . . . . ? 
C20 Si1 C14 C15 84.62(16) . . . . ? 
Si1 C14 C15 C16 111.44(16) . . . . ? 
Si1 C14 C16 C15 -108.82(16) . . . . ? 
C13 Si1 C17 C18 -85.25(14) . . . . ? 
C14 Si1 C17 C18 31.74(16) . . . . ? 
C20 Si1 C17 C18 155.04(13) . . . . ? 
C13 Si1 C17 C19 -154.81(13) . . . . ? 
C14 Si1 C17 C19 -37.81(16) . . . . ? 
C20 Si1 C17 C19 85.49(15) . . . . ? 
Si1 C17 C18 C19 -107.81(15) . . . . ? 
Si1 C17 C19 C18 111.24(15) . . . . ? 
C13 Si1 C20 C22 -61.50(13) . . . . ? 
C14 Si1 C20 C22 -178.49(11) . . . . ? 
C17 Si1 C20 C22 59.19(13) . . . . ? 
C13 Si1 C20 C21 174.63(12) . . . . ? 
C14 Si1 C20 C21 57.65(14) . . . . ? 
C17 Si1 C20 C21 -64.68(14) . . . . ? 
 
_diffrn_measured_fraction_theta_max    0.982 
_diffrn_reflns_theta_full              68.53 
_diffrn_measured_fraction_theta_full   0.982 
_refine_diff_density_max    0.433 
_refine_diff_density_min   -0.352 
_refine_diff_density_rms    0.051 
