 
data_x06178 
 
_audit_creation_method            SHELXL-97 
_chemical_name_systematic 
; 
 ? 
; 
_chemical_name_common             ? 
_chemical_melting_point           ? 
_chemical_formula_moiety          
 'C41 H48 O S2 Si2' 
_chemical_formula_sum 
 'C41 H48 O S2 Si2' 
_chemical_formula_weight          677.09 
 
loop_ 
 _atom_type_symbol 
 _atom_type_description 
 _atom_type_scat_dispersion_real 
 _atom_type_scat_dispersion_imag 
 _atom_type_scat_source 
 'C'  'C'    .0181    .0091 
 'International Tables Vol C Tables 4.2.6.8 and 6.1.1.4' 
 'H'  'H'    .0000    .0000 
 'International Tables Vol C Tables 4.2.6.8 and 6.1.1.4' 
 'O'  'O'    .0492    .0322 
 'International Tables Vol C Tables 4.2.6.8 and 6.1.1.4' 
 'Si'  'Si'    .2541    .3302 
 'International Tables Vol C Tables 4.2.6.8 and 6.1.1.4' 
 'S'  'S'    .3331    .5567 
 'International Tables Vol C Tables 4.2.6.8 and 6.1.1.4' 
 
_symmetry_cell_setting            triclinic
_symmetry_space_group_name_H-M    'P -1'
 
loop_ 
 _symmetry_equiv_pos_as_xyz 
 'x, y, z' 
 '-x, -y, -z' 
 
_cell_length_a                    7.5396(6) 
_cell_length_b                    8.2833(6) 
_cell_length_c                    16.0480(12) 
_cell_angle_alpha                 100.793(3) 
_cell_angle_beta                  92.519(3) 
_cell_angle_gamma                 98.295(3) 
_cell_volume                      971.61(13) 
_cell_formula_units_Z             1 
_cell_measurement_temperature     90.0(2) 
_cell_measurement_reflns_used     8193
_cell_measurement_theta_min       2.81
_cell_measurement_theta_max       67.51
 
_exptl_crystal_description        block
_exptl_crystal_colour             red
_exptl_crystal_size_max           0.20 
_exptl_crystal_size_mid           0.12 
_exptl_crystal_size_min           0.08 
_exptl_crystal_density_meas       ? 
_exptl_crystal_density_diffrn     1.157 
_exptl_crystal_density_method     'not measured' 
_exptl_crystal_F_000              362 
_exptl_absorpt_coefficient_mu     2.048 
_exptl_absorpt_correction_type    multi-scan
_exptl_absorpt_correction_T_min   0.729
_exptl_absorpt_correction_T_max   0.853 
_exptl_absorpt_process_details    'Sadabs in APEX2 (Bruker-Nonius, 2004)'
 
_exptl_special_details 
; 
 ? 
; 
 
_diffrn_ambient_temperature       90.0(2) 
_diffrn_radiation_wavelength      1.54178 
_diffrn_radiation_type            CuK\a 
_diffrn_radiation_source          'fine-focus rotating anode' 
_diffrn_radiation_monochromator   'Bruker Helios multilayer optics' 
_diffrn_measurement_device_type   'Bruker-Nonius X8 Proteum'
_diffrn_measurement_method        '\w and \f scans'
_diffrn_detector_area_resol_mean  18
_diffrn_standards_number          ? 
_diffrn_standards_interval_count  ? 
_diffrn_standards_interval_time   ? 
_diffrn_standards_decay_%         ? 
_diffrn_reflns_number             11627 
_diffrn_reflns_av_R_equivalents   0.0339 
_diffrn_reflns_av_sigmaI/netI     0.0330 
_diffrn_reflns_limit_h_min        -7 
_diffrn_reflns_limit_h_max        8 
_diffrn_reflns_limit_k_min        -9 
_diffrn_reflns_limit_k_max        9 
_diffrn_reflns_limit_l_min        -19 
_diffrn_reflns_limit_l_max        19 
_diffrn_reflns_theta_min          2.81 
_diffrn_reflns_theta_max          67.84 
_reflns_number_total              3401 
_reflns_number_gt                 3096 
_reflns_threshold_expression      >2\s(I)    
 
_computing_data_collection        'APEX2 (Bruker-Nonius, 2004)'
_computing_cell_refinement        'APEX2 (Bruker-Nonius, 2004)'
_computing_data_reduction         'APEX2 (Bruker-Nonius, 2004)'
_computing_structure_solution     'SHELXS-97 (Sheldrick, 1990)' 
_computing_structure_refinement   'SHELXL-97 (Sheldrick, 1997)' 
_computing_molecular_graphics     'XP in SHELXTL (Sheldrick, 1994)'
_computing_publication_material
; 
SHELX97-2 (Sheldrick, 1997) and local procedures 
; 
 
_refine_special_details 
; 
 Refinement of F^2^ against ALL reflections.  The weighted R-factor wR and 
 goodness of fit S are based on F^2^, conventional R-factors R are based 
 on F, with F set to zero for negative F^2^. The threshold expression of 
 F^2^ > 2sigma(F^2^) is used only for calculating R-factors(gt) etc. and is 
 not relevant to the choice of reflections for refinement.  R-factors based 
 on F^2^ are statistically about twice as large as those based on F, and R- 
 factors based on ALL data will be even larger. 
; 
 
_refine_ls_structure_factor_coef  Fsqd  
_refine_ls_matrix_type            full 
_refine_ls_weighting_scheme       calc  
_refine_ls_weighting_details 
 'calc w=1/[\s^2^(Fo^2^)+(0.0531P)^2^+1.2003P] where P=(Fo^2^+2Fc^2^)/3' 
_atom_sites_solution_primary      direct 
_atom_sites_solution_secondary    difmap 
_atom_sites_solution_hydrogens    geom 
_refine_ls_hydrogen_treatment     constr 
_refine_ls_extinction_method      SHELXL 
_refine_ls_extinction_coef        0.0056(8) 
_refine_ls_extinction_expression 
 'Fc^*^=kFc[1+0.001xFc^2^\l^3^/sin(2\q)]^-1/4^' 
_refine_ls_number_reflns          3401 
_refine_ls_number_parameters      326 
_refine_ls_number_restraints      432 
_refine_ls_R_factor_all           0.0656 
_refine_ls_R_factor_gt            0.0607 
_refine_ls_wR_factor_ref          0.1678 
_refine_ls_wR_factor_gt           0.1630 
_refine_ls_goodness_of_fit_ref    1.124 
_refine_ls_restrained_S_all       1.070 
_refine_ls_shift/su_max           0.001 
_refine_ls_shift/su_mean          0.000 
 
loop_ 
 _atom_site_label 
 _atom_site_type_symbol 
 _atom_site_fract_x 
 _atom_site_fract_y 
 _atom_site_fract_z 
 _atom_site_U_iso_or_equiv 
 _atom_site_adp_type 
 _atom_site_occupancy 
 _atom_site_symmetry_multiplicity 
 _atom_site_calc_flag 
 _atom_site_refinement_flags 
 _atom_site_disorder_assembly 
 _atom_site_disorder_group 
Si1 Si 0.20420(13) 0.73000(12) 0.32403(5) 0.0562(3) Uani 1 1 d . . . 
C1 C 0.4399(3) 0.5511(3) 0.08112(15) 0.0315(5) Uani 1 1 d . . . 
C2 C 0.3979(3) 0.3837(3) 0.04054(15) 0.0311(5) Uani 1 1 d . B . 
C3 C 0.2988(3) 0.2641(3) 0.07999(16) 0.0352(5) Uani 1 1 d U . . 
H3 H 0.2589 0.2968 0.1351 0.042 Uiso 1 1 calc R A 1 
C4 C 0.2608(3) 0.1023(3) 0.03913(17) 0.0370(5) Uani 0.50 1 d PDU B 1 
S5 S 0.1483(4) -0.0650(3) 0.07574(19) 0.0452(4) Uani 0.50 1 d PDU B 1 
C6 C 0.1718(13) -0.1988(8) -0.0184(5) 0.0486(14) Uani 0.50 1 d PDU B 1 
C22 C 0.1054(17) -0.3668(15) -0.0246(9) 0.0549(14) Uani 0.25 1 d PDU . 1 
O1 O 0.0160(12) -0.4259(12) 0.0266(7) 0.0630(19) Uani 0.25 1 d PDU . 1 
C7 C 0.262(2) -0.1207(13) -0.0755(10) 0.0472(5) Uani 0.50 1 d PDU B 1 
H7 H 0.2857 -0.1763 -0.1303 0.057 Uiso 0.50 1 calc PR B 1 
C8 C 0.3162(3) 0.0511(3) -0.04461(17) 0.0374(5) Uani 0.50 1 d PDU B 1 
C4' C 0.2608(3) 0.1023(3) 0.03913(17) 0.0370(5) Uani 0.50 1 d PDU B 2 
C5' C 0.1667(19) -0.0317(14) 0.0693(9) 0.0452(4) Uani 0.50 1 d PDU B 2 
H5' H 0.1236 -0.0226 0.1245 0.054 Uiso 0.50 1 calc PR B 2 
O1' O 0.0500(12) -0.4603(11) -0.0380(7) 0.0594(19) Uani 0.25 1 d PDU . 2 
C22' C 0.0535(17) -0.3335(14) 0.0153(9) 0.0549(14) Uani 0.25 1 d PDU . 2 
C6' C 0.1443(13) -0.1758(9) 0.0106(5) 0.0483(14) Uani 0.50 1 d PDU B 2 
S7' S 0.2438(5) -0.1564(2) -0.0833(2) 0.0472(5) Uani 0.50 1 d PDU B 2 
C8' C 0.3162(3) 0.0511(3) -0.04461(17) 0.0374(5) Uani 0.50 1 d PDU B 2 
C9 C 0.4133(3) 0.1641(3) -0.08406(16) 0.0353(5) Uani 1 1 d U . . 
H9 H 0.4510 0.1294 -0.1394 0.042 Uiso 1 1 calc R B 1 
C10 C 0.4571(3) 0.3314(3) -0.04252(15) 0.0314(5) Uani 1 1 d . . . 
C11 C 0.3716(3) 0.6052(3) 0.16111(16) 0.0364(6) Uani 1 1 d . . . 
C12 C 0.3079(4) 0.6535(4) 0.22674(18) 0.0465(7) Uani 1 1 d . C . 
C13 C 0.167(2) 0.9426(16) 0.3178(7) 0.101(4) Uani 0.50 1 d PDU C 1 
H13 H 0.0893 0.9276 0.2641 0.121 Uiso 0.50 1 calc PR C 1 
C14 C 0.324(2) 1.0504(16) 0.3044(9) 0.106(5) Uani 0.50 1 d PDU C 1 
H14A H 0.3865 0.9937 0.2580 0.159 Uiso 0.50 1 calc PR C 1 
H14B H 0.4042 1.0801 0.3565 0.159 Uiso 0.50 1 calc PR C 1 
H14C H 0.2894 1.1515 0.2894 0.159 Uiso 0.50 1 calc PR C 1 
C15 C 0.056(3) 1.015(2) 0.3854(10) 0.143(7) Uani 0.50 1 d PDU C 1 
H15A H -0.0499 0.9341 0.3891 0.214 Uiso 0.50 1 calc PR C 1 
H15B H 0.0178 1.1159 0.3713 0.214 Uiso 0.50 1 calc PR C 1 
H15C H 0.1273 1.0443 0.4401 0.214 Uiso 0.50 1 calc PR C 1 
C13' C 0.2749(18) 0.9684(16) 0.3511(10) 0.107(4) Uani 0.50 1 d PDU C 2 
H13' H 0.1966 0.9861 0.3027 0.128 Uiso 0.50 1 calc PR C 2 
C14' C 0.430(2) 1.056(2) 0.3244(11) 0.145(9) Uani 0.50 1 d PDU C 2 
H14D H 0.4837 0.9798 0.2817 0.217 Uiso 0.50 1 calc PR C 2 
H14E H 0.5175 1.0996 0.3734 0.217 Uiso 0.50 1 calc PR C 2 
H14F H 0.3979 1.1477 0.2996 0.217 Uiso 0.50 1 calc PR C 2 
C15' C 0.173(2) 1.060(2) 0.4158(11) 0.132(7) Uani 0.50 1 d PDU C 2 
H15D H 0.0684 0.9846 0.4277 0.198 Uiso 0.50 1 calc PR C 2 
H15E H 0.1317 1.1526 0.3943 0.198 Uiso 0.50 1 calc PR C 2 
H15F H 0.2501 1.1034 0.4682 0.198 Uiso 0.50 1 calc PR C 2 
C16 C 0.320(3) 0.700(4) 0.4132(14) 0.094(7) Uani 0.50 1 d PDU C 1 
H16 H 0.3866 0.8152 0.4326 0.113 Uiso 0.50 1 calc PR C 1 
C17 C 0.479(2) 0.6086(19) 0.4064(9) 0.117(5) Uani 0.50 1 d PDU C 1 
H17A H 0.5342 0.6180 0.3530 0.176 Uiso 0.50 1 calc PR C 1 
H17B H 0.4393 0.4911 0.4074 0.176 Uiso 0.50 1 calc PR C 1 
H17C H 0.5672 0.6574 0.4545 0.176 Uiso 0.50 1 calc PR C 1 
C18 C 0.233(4) 0.678(5) 0.4968(15) 0.087(6) Uani 0.50 1 d PDU C 1 
H18A H 0.1285 0.7367 0.5022 0.131 Uiso 0.50 1 calc PR C 1 
H18B H 0.3201 0.7241 0.5453 0.131 Uiso 0.50 1 calc PR C 1 
H18C H 0.1934 0.5594 0.4955 0.131 Uiso 0.50 1 calc PR C 1 
C16' C 0.325(2) 0.643(3) 0.4136(12) 0.084(6) Uani 0.50 1 d PDU C 2 
H16' H 0.3101 0.5183 0.4017 0.101 Uiso 0.50 1 calc PR C 2 
C17' C 0.5201(15) 0.7236(19) 0.4238(8) 0.099(4) Uani 0.50 1 d PDU C 2 
H17D H 0.5808 0.6801 0.3735 0.149 Uiso 0.50 1 calc PR C 2 
H17E H 0.5788 0.6987 0.4745 0.149 Uiso 0.50 1 calc PR C 2 
H17F H 0.5269 0.8443 0.4297 0.149 Uiso 0.50 1 calc PR C 2 
C18' C 0.234(4) 0.713(6) 0.4949(19) 0.120(12) Uani 0.50 1 d PDU C 2 
H18D H 0.1065 0.6655 0.4892 0.180 Uiso 0.50 1 calc PR C 2 
H18E H 0.2463 0.8346 0.5020 0.180 Uiso 0.50 1 calc PR C 2 
H18F H 0.2928 0.6844 0.5446 0.180 Uiso 0.50 1 calc PR C 2 
C19 C -0.034(2) 0.6672(16) 0.3115(9) 0.062(3) Uani 0.50 1 d PDU C 1 
H19 H -0.0849 0.7076 0.3666 0.074 Uiso 0.50 1 calc PR C 1 
C20 C -0.076(2) 0.4810(16) 0.2909(10) 0.086(4) Uani 0.50 1 d PDU C 1 
H20A H -0.0172 0.4351 0.3349 0.130 Uiso 0.50 1 calc PR C 1 
H20B H -0.0324 0.4395 0.2356 0.130 Uiso 0.50 1 calc PR C 1 
H20C H -0.2064 0.4467 0.2890 0.130 Uiso 0.50 1 calc PR C 1 
C21 C -0.1232(13) 0.7361(15) 0.2429(7) 0.085(3) Uani 0.50 1 d PDU C 1 
H21A H -0.0968 0.8579 0.2561 0.127 Uiso 0.50 1 calc PR C 1 
H21B H -0.2535 0.7006 0.2401 0.127 Uiso 0.50 1 calc PR C 1 
H21C H -0.0775 0.6946 0.1880 0.127 Uiso 0.50 1 calc PR C 1 
C19' C -0.033(2) 0.5868(19) 0.3118(8) 0.076(5) Uani 0.50 1 d PDU C 2 
H19' H -0.0947 0.6223 0.3646 0.091 Uiso 0.50 1 calc PR C 2 
C20' C -0.0212(19) 0.4042(18) 0.3055(9) 0.096(4) Uani 0.50 1 d PDU C 2 
H20D H 0.0553 0.3901 0.3537 0.144 Uiso 0.50 1 calc PR C 2 
H20E H 0.0305 0.3623 0.2522 0.144 Uiso 0.50 1 calc PR C 2 
H20F H -0.1418 0.3421 0.3064 0.144 Uiso 0.50 1 calc PR C 2 
C21' C -0.1531(15) 0.605(2) 0.2384(7) 0.115(4) Uani 0.50 1 d PDU C 2 
H21D H -0.1638 0.7226 0.2421 0.173 Uiso 0.50 1 calc PR C 2 
H21E H -0.2724 0.5408 0.2400 0.173 Uiso 0.50 1 calc PR C 2 
H21F H -0.1018 0.5633 0.1850 0.173 Uiso 0.50 1 calc PR C 2 
 
loop_ 
 _atom_site_aniso_label 
 _atom_site_aniso_U_11 
 _atom_site_aniso_U_22 
 _atom_site_aniso_U_33 
 _atom_site_aniso_U_23 
 _atom_site_aniso_U_13 
 _atom_site_aniso_U_12 
Si1 0.0586(6) 0.0765(6) 0.0392(5) 0.0101(4) 0.0211(4) 0.0254(5) 
C1 0.0252(12) 0.0368(13) 0.0342(12) 0.0089(10) 0.0055(9) 0.0069(10) 
C2 0.0242(12) 0.0344(13) 0.0362(12) 0.0100(10) 0.0040(9) 0.0046(9) 
C3 0.0274(12) 0.0401(12) 0.0405(13) 0.0136(10) 0.0075(10) 0.0045(10) 
C4 0.0261(12) 0.0378(11) 0.0500(13) 0.0174(10) 0.0032(10) 0.0030(9) 
S5 0.0313(9) 0.0405(12) 0.0680(9) 0.0263(8) 0.0050(6) -0.0012(8) 
C6 0.033(3) 0.037(2) 0.076(4) 0.016(2) -0.007(3) 0.002(2) 
C22 0.038(3) 0.040(2) 0.087(4) 0.025(2) -0.014(3) -0.003(3) 
O1 0.045(4) 0.048(4) 0.097(5) 0.030(4) -0.014(4) -0.003(3) 
C7 0.0392(10) 0.0300(11) 0.0702(10) 0.0078(9) -0.0028(7) 0.0023(9) 
C8 0.0295(12) 0.0344(12) 0.0489(13) 0.0095(9) 0.0007(10) 0.0062(9) 
C4' 0.0261(12) 0.0378(11) 0.0500(13) 0.0174(10) 0.0032(10) 0.0030(9) 
C5' 0.0313(9) 0.0405(12) 0.0680(9) 0.0263(8) 0.0050(6) -0.0012(8) 
O1' 0.045(4) 0.040(3) 0.093(5) 0.024(3) -0.013(4) -0.005(3) 
C22' 0.038(3) 0.040(2) 0.087(4) 0.025(2) -0.014(3) -0.003(3) 
C6' 0.030(3) 0.042(2) 0.074(3) 0.023(2) -0.007(3) -0.003(2) 
S7' 0.0392(10) 0.0300(11) 0.0702(10) 0.0078(9) -0.0028(7) 0.0023(9) 
C8' 0.0295(12) 0.0344(12) 0.0489(13) 0.0095(9) 0.0007(10) 0.0062(9) 
C9 0.0318(13) 0.0337(12) 0.0397(13) 0.0043(10) 0.0045(10) 0.0056(10) 
C10 0.0244(12) 0.0350(13) 0.0367(13) 0.0101(10) 0.0053(9) 0.0056(9) 
C11 0.0320(13) 0.0400(14) 0.0383(14) 0.0104(11) 0.0077(10) 0.0039(10) 
C12 0.0445(16) 0.0540(17) 0.0430(15) 0.0111(13) 0.0123(12) 0.0094(13) 
C13 0.149(12) 0.099(8) 0.074(7) 0.026(6) 0.048(7) 0.062(9) 
C14 0.162(14) 0.052(6) 0.091(8) -0.012(5) 0.031(10) 0.004(8) 
C15 0.24(2) 0.109(12) 0.109(11) 0.026(9) 0.078(13) 0.108(13) 
C13' 0.108(10) 0.081(7) 0.124(11) -0.009(7) 0.058(8) 0.016(7) 
C14' 0.150(15) 0.111(11) 0.133(13) -0.028(9) 0.038(11) -0.056(12) 
C15' 0.155(14) 0.092(8) 0.136(13) -0.025(8) 0.058(11) 0.029(10) 
C16 0.074(8) 0.167(19) 0.052(7) 0.021(9) 0.013(5) 0.052(8) 
C17 0.132(12) 0.171(13) 0.089(9) 0.066(10) 0.038(8) 0.092(12) 
C18 0.092(11) 0.148(12) 0.040(8) 0.030(8) 0.034(8) 0.053(9) 
C16' 0.073(7) 0.164(17) 0.044(6) 0.049(8) 0.027(5) 0.066(8) 
C17' 0.060(5) 0.173(13) 0.065(6) 0.017(9) 0.011(4) 0.025(8) 
C18' 0.111(15) 0.21(3) 0.063(11) 0.062(12) 0.018(11) 0.064(15) 
C19 0.051(5) 0.090(9) 0.047(4) 0.010(5) 0.017(3) 0.015(6) 
C20 0.067(8) 0.106(13) 0.078(9) 0.013(7) 0.019(7) -0.011(7) 
C21 0.055(5) 0.139(9) 0.069(5) 0.038(7) -0.001(4) 0.023(6) 
C19' 0.047(6) 0.136(17) 0.047(5) 0.009(10) 0.019(4) 0.025(11) 
C20' 0.075(9) 0.117(11) 0.082(7) 0.014(7) 0.018(6) -0.026(7) 
C21' 0.066(6) 0.210(15) 0.077(6) 0.032(9) 0.009(5) 0.037(9) 
 
_geom_special_details 
; 
 All esds (except the esd in the dihedral angle between two l.s. planes) 
 are estimated using the full covariance matrix.  The cell esds are taken 
 into account individually in the estimation of esds in distances, angles 
 and torsion angles; correlations between esds in cell parameters are only 
 used when they are defined by crystal symmetry.  An approximate (isotropic) 
 treatment of cell esds is used for estimating esds involving l.s. planes. 
; 
 
loop_ 
 _geom_bond_atom_site_label_1 
 _geom_bond_atom_site_label_2 
 _geom_bond_distance 
 _geom_bond_site_symmetry_2 
 _geom_bond_publ_flag 
Si1 C16 1.722(19) . ? 
Si1 C19 1.786(17) . ? 
Si1 C12 1.825(3) . ? 
Si1 C13 1.841(12) . ? 
Si1 C13' 1.931(13) . ? 
Si1 C16' 1.97(2) . ? 
Si1 C19' 1.979(16) . ? 
C1 C2 1.402(3) . ? 
C1 C10 1.409(3) 2_665 ? 
C1 C11 1.423(3) . ? 
C2 C3 1.415(3) . ? 
C2 C10 1.434(3) . ? 
C3 C4 1.361(4) . ? 
C3 H3 0.9500 . ? 
C4 C8 1.431(4) . ? 
C4 S5 1.731(3) . ? 
S5 C6 1.731(8) . ? 
C6 C7 1.368(15) . ? 
C6 C22 1.393(12) . ? 
C22 O1 1.214(13) . ? 
C22 O1 1.820(15) 2_545 ? 
O1 O1 1.34(2) 2_545 ? 
O1 C22 1.820(15) 2_545 ? 
C7 C8 1.410(10) . ? 
C7 H7 0.9500 . ? 
C8 C9 1.370(4) . ? 
C5' C6' 1.359(14) . ? 
C5' H5' 0.9500 . ? 
O1' C22' 1.220(13) . ? 
O1' O1' 1.65(2) 2_545 ? 
O1' C22' 1.879(15) 2_545 ? 
C22' C6' 1.402(12) . ? 
C22' O1' 1.879(15) 2_545 ? 
C6' S7' 1.736(8) . ? 
C9 C10 1.406(3) . ? 
C9 H9 0.9500 . ? 
C10 C1 1.408(3) 2_665 ? 
C11 C12 1.201(4) . ? 
C13 C14 1.425(15) . ? 
C13 C15 1.492(11) . ? 
C13 H13 1.0000 . ? 
C14 H14A 0.9800 . ? 
C14 H14B 0.9800 . ? 
C14 H14C 0.9800 . ? 
C15 H15A 0.9800 . ? 
C15 H15B 0.9800 . ? 
C15 H15C 0.9800 . ? 
C13' C14' 1.412(15) . ? 
C13' C15' 1.481(12) . ? 
C13' H13' 1.0000 . ? 
C14' H14D 0.9800 . ? 
C14' H14E 0.9800 . ? 
C14' H14F 0.9800 . ? 
C15' H15D 0.9800 . ? 
C15' H15E 0.9800 . ? 
C15' H15F 0.9800 . ? 
C16 C17 1.500(16) . ? 
C16 C18 1.551(18) . ? 
C16 H16 1.0000 . ? 
C17 H17A 0.9800 . ? 
C17 H17B 0.9800 . ? 
C17 H17C 0.9800 . ? 
C18 H18A 0.9800 . ? 
C18 H18B 0.9800 . ? 
C18 H18C 0.9800 . ? 
C16' C17' 1.517(18) . ? 
C16' C18' 1.554(18) . ? 
C16' H16' 1.0000 . ? 
C17' H17D 0.9800 . ? 
C17' H17E 0.9800 . ? 
C17' H17F 0.9800 . ? 
C18' H18D 0.9800 . ? 
C18' H18E 0.9800 . ? 
C18' H18F 0.9800 . ? 
C19 C20 1.499(15) . ? 
C19 C21 1.508(12) . ? 
C19 H19 1.0000 . ? 
C20 H20A 0.9800 . ? 
C20 H20B 0.9800 . ? 
C20 H20C 0.9800 . ? 
C21 H21A 0.9800 . ? 
C21 H21B 0.9800 . ? 
C21 H21C 0.9800 . ? 
C19' C21' 1.498(13) . ? 
C19' C20' 1.512(16) . ? 
C19' H19' 1.0000 . ? 
C20' H20D 0.9800 . ? 
C20' H20E 0.9800 . ? 
C20' H20F 0.9800 . ? 
C21' H21D 0.9800 . ? 
C21' H21E 0.9800 . ? 
C21' H21F 0.9800 . ? 
 
loop_ 
 _geom_angle_atom_site_label_1 
 _geom_angle_atom_site_label_2 
 _geom_angle_atom_site_label_3 
 _geom_angle 
 _geom_angle_site_symmetry_1 
 _geom_angle_site_symmetry_3 
 _geom_angle_publ_flag 
C16 Si1 C19 118.7(8) . . ? 
C16 Si1 C12 111.9(6) . . ? 
C19 Si1 C12 110.8(5) . . ? 
C16 Si1 C13 118.6(11) . . ? 
C19 Si1 C13 88.5(6) . . ? 
C12 Si1 C13 105.8(3) . . ? 
C16 Si1 C13' 93.4(11) . . ? 
C19 Si1 C13' 113.3(6) . . ? 
C12 Si1 C13' 107.1(4) . . ? 
C13 Si1 C13' 28.3(5) . . ? 
C16 Si1 C16' 12.8(17) . . ? 
C19 Si1 C16' 113.9(7) . . ? 
C12 Si1 C16' 105.2(5) . . ? 
C13 Si1 C16' 131.3(9) . . ? 
C13' Si1 C16' 106.0(10) . . ? 
C16 Si1 C19' 107.7(9) . . ? 
C19 Si1 C19' 19.6(4) . . ? 
C12 Si1 C19' 103.7(4) . . ? 
C13 Si1 C19' 108.1(6) . . ? 
C13' Si1 C19' 132.3(6) . . ? 
C16' Si1 C19' 99.8(8) . . ? 
C2 C1 C10 121.2(2) . 2_665 ? 
C2 C1 C11 119.6(2) . . ? 
C10 C1 C11 119.2(2) 2_665 . ? 
C1 C2 C3 121.4(2) . . ? 
C1 C2 C10 119.6(2) . . ? 
C3 C2 C10 119.0(2) . . ? 
C4 C3 C2 120.1(2) . . ? 
C4 C3 H3 120.0 . . ? 
C2 C3 H3 120.0 . . ? 
C3 C4 C8 120.8(2) . . ? 
C3 C4 S5 128.1(2) . . ? 
C8 C4 S5 111.0(2) . . ? 
C6 S5 C4 91.3(3) . . ? 
C7 C6 C22 129.4(9) . . ? 
C7 C6 S5 113.0(6) . . ? 
C22 C6 S5 117.5(8) . . ? 
O1 C22 C6 125.7(13) . . ? 
O1 C22 O1 47.5(10) . 2_545 ? 
C6 C22 O1 170.3(11) . 2_545 ? 
C22 O1 O1 90.7(13) . 2_545 ? 
C22 O1 C22 132.5(10) . 2_545 ? 
O1 O1 C22 41.8(7) 2_545 2_545 ? 
C6 C7 C8 112.9(10) . . ? 
C6 C7 H7 123.5 . . ? 
C8 C7 H7 123.5 . . ? 
C9 C8 C7 128.0(7) . . ? 
C9 C8 C4 120.3(2) . . ? 
C7 C8 C4 111.7(7) . . ? 
C6' C5' H5' 123.8 . . ? 
C22' O1' O1' 80.2(10) . 2_545 ? 
C22' O1' C22' 120.0(9) . 2_545 ? 
O1' O1' C22' 39.8(5) 2_545 2_545 ? 
O1' C22' C6' 125.7(12) . . ? 
O1' C22' O1' 60.0(9) . 2_545 ? 
C6' C22' O1' 171.3(11) . 2_545 ? 
C5' C6' C22' 129.6(9) . . ? 
C5' C6' S7' 113.6(6) . . ? 
C22' C6' S7' 116.8(8) . . ? 
C8 C9 C10 119.9(2) . . ? 
C8 C9 H9 120.0 . . ? 
C10 C9 H9 120.0 . . ? 
C9 C10 C1 120.9(2) . 2_665 ? 
C9 C10 C2 119.9(2) . . ? 
C1 C10 C2 119.2(2) 2_665 . ? 
C12 C11 C1 177.1(3) . . ? 
C11 C12 Si1 177.7(3) . . ? 
C14 C13 C15 115.1(12) . . ? 
C14 C13 Si1 114.6(10) . . ? 
C15 C13 Si1 113.4(9) . . ? 
C14 C13 H13 104.0 . . ? 
C15 C13 H13 104.0 . . ? 
Si1 C13 H13 104.0 . . ? 
C13 C14 H14A 109.5 . . ? 
C13 C14 H14B 109.5 . . ? 
H14A C14 H14B 109.5 . . ? 
C13 C14 H14C 109.5 . . ? 
H14A C14 H14C 109.5 . . ? 
H14B C14 H14C 109.5 . . ? 
C13 C15 H15A 109.5 . . ? 
C13 C15 H15B 109.5 . . ? 
H15A C15 H15B 109.5 . . ? 
C13 C15 H15C 109.5 . . ? 
H15A C15 H15C 109.5 . . ? 
H15B C15 H15C 109.5 . . ? 
C14' C13' C15' 118.5(13) . . ? 
C14' C13' Si1 125.0(11) . . ? 
C15' C13' Si1 115.8(10) . . ? 
C14' C13' H13' 92.9 . . ? 
C15' C13' H13' 92.9 . . ? 
Si1 C13' H13' 92.9 . . ? 
C13' C14' H14D 109.5 . . ? 
C13' C14' H14E 109.5 . . ? 
H14D C14' H14E 109.5 . . ? 
C13' C14' H14F 109.5 . . ? 
H14D C14' H14F 109.5 . . ? 
H14E C14' H14F 109.5 . . ? 
C13' C15' H15D 109.5 . . ? 
C13' C15' H15E 109.5 . . ? 
H15D C15' H15E 109.5 . . ? 
C13' C15' H15F 109.5 . . ? 
H15D C15' H15F 109.5 . . ? 
H15E C15' H15F 109.5 . . ? 
C17 C16 C18 108.3(17) . . ? 
C17 C16 Si1 121.5(14) . . ? 
C18 C16 Si1 123.7(16) . . ? 
C17 C16 H16 98.5 . . ? 
C18 C16 H16 98.5 . . ? 
Si1 C16 H16 98.5 . . ? 
C16 C17 H17A 109.5 . . ? 
C16 C17 H17B 109.5 . . ? 
H17A C17 H17B 109.5 . . ? 
C16 C17 H17C 109.5 . . ? 
H17A C17 H17C 109.5 . . ? 
H17B C17 H17C 109.5 . . ? 
C16 C18 H18A 109.5 . . ? 
C16 C18 H18B 109.5 . . ? 
H18A C18 H18B 109.5 . . ? 
C16 C18 H18C 109.5 . . ? 
H18A C18 H18C 109.5 . . ? 
H18B C18 H18C 109.5 . . ? 
C17' C16' C18' 108(2) . . ? 
C17' C16' Si1 107.4(13) . . ? 
C18' C16' Si1 103(2) . . ? 
C17' C16' H16' 112.7 . . ? 
C18' C16' H16' 112.7 . . ? 
Si1 C16' H16' 112.7 . . ? 
C16' C17' H17D 109.5 . . ? 
C16' C17' H17E 109.5 . . ? 
H17D C17' H17E 109.5 . . ? 
C16' C17' H17F 109.5 . . ? 
H17D C17' H17F 109.5 . . ? 
H17E C17' H17F 109.5 . . ? 
C16' C18' H18D 109.5 . . ? 
C16' C18' H18E 109.5 . . ? 
H18D C18' H18E 109.5 . . ? 
C16' C18' H18F 109.5 . . ? 
H18D C18' H18F 109.5 . . ? 
H18E C18' H18F 109.5 . . ? 
C20 C19 C21 108.9(11) . . ? 
C20 C19 Si1 109.6(12) . . ? 
C21 C19 Si1 113.0(10) . . ? 
C20 C19 H19 108.4 . . ? 
C21 C19 H19 108.4 . . ? 
Si1 C19 H19 108.4 . . ? 
C19 C20 H20A 109.5 . . ? 
C19 C20 H20B 109.5 . . ? 
H20A C20 H20B 109.5 . . ? 
C19 C20 H20C 109.5 . . ? 
H20A C20 H20C 109.5 . . ? 
H20B C20 H20C 109.5 . . ? 
C19 C21 H21A 109.5 . . ? 
C19 C21 H21B 109.5 . . ? 
H21A C21 H21B 109.5 . . ? 
C19 C21 H21C 109.5 . . ? 
H21A C21 H21C 109.5 . . ? 
H21B C21 H21C 109.5 . . ? 
C21' C19' C20' 108.5(11) . . ? 
C21' C19' Si1 113.8(11) . . ? 
C20' C19' Si1 113.5(9) . . ? 
C21' C19' H19' 106.9 . . ? 
C20' C19' H19' 106.9 . . ? 
Si1 C19' H19' 106.9 . . ? 
C19' C20' H20D 109.5 . . ? 
C19' C20' H20E 109.5 . . ? 
H20D C20' H20E 109.5 . . ? 
C19' C20' H20F 109.5 . . ? 
H20D C20' H20F 109.5 . . ? 
H20E C20' H20F 109.5 . . ? 
C19' C21' H21D 109.5 . . ? 
C19' C21' H21E 109.5 . . ? 
H21D C21' H21E 109.5 . . ? 
C19' C21' H21F 109.5 . . ? 
H21D C21' H21F 109.5 . . ? 
H21E C21' H21F 109.5 . . ? 
 
loop_ 
 _geom_torsion_atom_site_label_1 
 _geom_torsion_atom_site_label_2 
 _geom_torsion_atom_site_label_3 
 _geom_torsion_atom_site_label_4 
 _geom_torsion 
 _geom_torsion_site_symmetry_1 
 _geom_torsion_site_symmetry_2 
 _geom_torsion_site_symmetry_3 
 _geom_torsion_site_symmetry_4 
 _geom_torsion_publ_flag 
C10 C1 C2 C3 178.2(2) 2_665 . . . ? 
C11 C1 C2 C3 -4.4(4) . . . . ? 
C10 C1 C2 C10 -1.4(4) 2_665 . . . ? 
C11 C1 C2 C10 176.0(2) . . . . ? 
C1 C2 C3 C4 -179.7(2) . . . . ? 
C10 C2 C3 C4 -0.1(4) . . . . ? 
C2 C3 C4 C8 -1.4(4) . . . . ? 
C2 C3 C4 S5 178.0(2) . . . . ? 
C3 C4 S5 C6 179.8(4) . . . . ? 
C8 C4 S5 C6 -0.8(4) . . . . ? 
C4 S5 C6 C7 0.3(11) . . . . ? 
C4 S5 C6 C22 177.8(9) . . . . ? 
C7 C6 C22 O1 -174.9(15) . . . . ? 
S5 C6 C22 O1 8.1(17) . . . . ? 
C7 C6 C22 O1 -133(6) . . . 2_545 ? 
S5 C6 C22 O1 50(7) . . . 2_545 ? 
C6 C22 O1 O1 171.2(13) . . . 2_545 ? 
C6 C22 O1 C22 171.2(13) . . . 2_545 ? 
O1 C22 O1 C22 -0.002(1) 2_545 . . 2_545 ? 
C22 C6 C7 C8 -176.9(11) . . . . ? 
S5 C6 C7 C8 0.3(16) . . . . ? 
C6 C7 C8 C9 177.8(8) . . . . ? 
C6 C7 C8 C4 -0.8(15) . . . . ? 
C3 C4 C8 C9 1.9(4) . . . . ? 
S5 C4 C8 C9 -177.7(2) . . . . ? 
C3 C4 C8 C7 -179.4(8) . . . . ? 
S5 C4 C8 C7 1.0(8) . . . . ? 
O1' O1' C22' C6' 172.2(13) 2_545 . . . ? 
C22' O1' C22' C6' 172.2(13) 2_545 . . . ? 
C22' O1' C22' O1' 0.000(1) 2_545 . . 2_545 ? 
O1' C22' C6' C5' -174.4(14) . . . . ? 
O1' C22' C6' C5' -46(8) 2_545 . . . ? 
O1' C22' C6' S7' 5.9(17) . . . . ? 
O1' C22' C6' S7' 134(7) 2_545 . . . ? 
C7 C8 C9 C10 -179.2(10) . . . . ? 
C4 C8 C9 C10 -0.7(4) . . . . ? 
C8 C9 C10 C1 178.6(2) . . . 2_665 ? 
C8 C9 C10 C2 -0.8(4) . . . . ? 
C1 C2 C10 C9 -179.1(2) . . . . ? 
C3 C2 C10 C9 1.3(3) . . . . ? 
C1 C2 C10 C1 1.4(4) . . . 2_665 ? 
C3 C2 C10 C1 -178.2(2) . . . 2_665 ? 
C2 C1 C11 C12 -99(6) . . . . ? 
C10 C1 C11 C12 78(6) 2_665 . . . ? 
C1 C11 C12 Si1 -1(12) . . . . ? 
C16 Si1 C12 C11 -177(100) . . . . ? 
C19 Si1 C12 C11 48(7) . . . . ? 
C13 Si1 C12 C11 -46(7) . . . . ? 
C13' Si1 C12 C11 -76(7) . . . . ? 
C16' Si1 C12 C11 172(7) . . . . ? 
C19' Si1 C12 C11 67(7) . . . . ? 
C16 Si1 C13 C14 72.0(12) . . . . ? 
C19 Si1 C13 C14 -165.7(11) . . . . ? 
C12 Si1 C13 C14 -54.5(11) . . . . ? 
C13' Si1 C13 C14 42.3(14) . . . . ? 
C16' Si1 C13 C14 73.1(11) . . . . ? 
C19' Si1 C13 C14 -165.2(10) . . . . ? 
C16 Si1 C13 C15 -62.9(15) . . . . ? 
C19 Si1 C13 C15 59.4(13) . . . . ? 
C12 Si1 C13 C15 170.6(11) . . . . ? 
C13' Si1 C13 C15 -92.6(17) . . . . ? 
C16' Si1 C13 C15 -61.8(15) . . . . ? 
C19' Si1 C13 C15 60.0(13) . . . . ? 
C16 Si1 C13' C14' 90.1(17) . . . . ? 
C19 Si1 C13' C14' -146.5(15) . . . . ? 
C12 Si1 C13' C14' -24.1(17) . . . . ? 
C13 Si1 C13' C14' -116(2) . . . . ? 
C16' Si1 C13' C14' 87.8(16) . . . . ? 
C19' Si1 C13' C14' -152.1(14) . . . . ? 
C16 Si1 C13' C15' -79.6(15) . . . . ? 
C19 Si1 C13' C15' 43.8(16) . . . . ? 
C12 Si1 C13' C15' 166.2(12) . . . . ? 
C13 Si1 C13' C15' 74.6(15) . . . . ? 
C16' Si1 C13' C15' -81.9(14) . . . . ? 
C19' Si1 C13' C15' 38.2(17) . . . . ? 
C19 Si1 C16 C17 126.8(18) . . . . ? 
C12 Si1 C16 C17 -4(2) . . . . ? 
C13 Si1 C16 C17 -128(2) . . . . ? 
C13' Si1 C16 C17 -114(2) . . . . ? 
C16' Si1 C16 C17 56(4) . . . . ? 
C19' Si1 C16 C17 109(2) . . . . ? 
C19 Si1 C16 C18 -22(3) . . . . ? 
C12 Si1 C16 C18 -153(3) . . . . ? 
C13 Si1 C16 C18 84(3) . . . . ? 
C13' Si1 C16 C18 97(3) . . . . ? 
C16' Si1 C16 C18 -92(6) . . . . ? 
C19' Si1 C16 C18 -39(3) . . . . ? 
C16 Si1 C16' C17' -58(4) . . . . ? 
C19 Si1 C16' C17' -173.1(11) . . . . ? 
C12 Si1 C16' C17' 65.5(14) . . . . ? 
C13 Si1 C16' C17' -62.4(14) . . . . ? 
C13' Si1 C16' C17' -47.8(13) . . . . ? 
C19' Si1 C16' C17' 172.7(12) . . . . ? 
C16 Si1 C16' C18' 56(4) . . . . ? 
C19 Si1 C16' C18' -59(2) . . . . ? 
C12 Si1 C16' C18' 179.1(19) . . . . ? 
C13 Si1 C16' C18' 51(2) . . . . ? 
C13' Si1 C16' C18' 66(2) . . . . ? 
C19' Si1 C16' C18' -74(2) . . . . ? 
C16 Si1 C19 C20 -71.8(16) . . . . ? 
C12 Si1 C19 C20 59.8(12) . . . . ? 
C13 Si1 C19 C20 166.1(12) . . . . ? 
C13' Si1 C19 C20 -179.8(11) . . . . ? 
C16' Si1 C19 C20 -58.5(14) . . . . ? 
C19' Si1 C19 C20 -12.2(18) . . . . ? 
C16 Si1 C19 C21 166.5(13) . . . . ? 
C12 Si1 C19 C21 -62.0(10) . . . . ? 
C13 Si1 C19 C21 44.4(10) . . . . ? 
C13' Si1 C19 C21 58.4(12) . . . . ? 
C16' Si1 C19 C21 179.7(11) . . . . ? 
C19' Si1 C19 C21 -134(3) . . . . ? 
C16 Si1 C19' C21' 177.7(12) . . . . ? 
C19 Si1 C19' C21' 50(2) . . . . ? 
C12 Si1 C19' C21' -63.5(10) . . . . ? 
C13 Si1 C19' C21' 48.5(11) . . . . ? 
C13' Si1 C19' C21' 65.7(13) . . . . ? 
C16' Si1 C19' C21' -171.9(11) . . . . ? 
C16 Si1 C19' C20' -57.5(13) . . . . ? 
C19 Si1 C19' C20' 175(3) . . . . ? 
C12 Si1 C19' C20' 61.2(10) . . . . ? 
C13 Si1 C19' C20' 173.2(9) . . . . ? 
C13' Si1 C19' C20' -169.6(9) . . . . ? 
C16' Si1 C19' C20' -47.2(11) . . . . ? 
 
_diffrn_measured_fraction_theta_max     .968 
_diffrn_reflns_theta_full              67.84 
_diffrn_measured_fraction_theta_full    .968 
_refine_diff_density_max     .270 
_refine_diff_density_min    -.287 
_refine_diff_density_rms     .051 
