 
data_x10151 
 
_audit_creation_method            SHELXL-97 
_chemical_name_systematic 
; 
 ? 
; 
_chemical_name_common             ? 
_chemical_melting_point           ? 
_chemical_formula_moiety 
 'C62 H76 N2 O2 S2 Si2, C7 H8' 
_chemical_formula_sum 
 'C69 H84 N2 O2 S2 Si2' 
_chemical_formula_weight          1093.68 
 
loop_ 
 _atom_type_symbol 
 _atom_type_description 
 _atom_type_scat_dispersion_real 
 _atom_type_scat_dispersion_imag 
 _atom_type_scat_source 
 'C'  'C'   0.0181   0.0091 
 'International Tables Vol C Tables 4.2.6.8 and 6.1.1.4' 
 'H'  'H'   0.0000   0.0000 
 'International Tables Vol C Tables 4.2.6.8 and 6.1.1.4' 
 'N'  'N'   0.0311   0.0180 
 'International Tables Vol C Tables 4.2.6.8 and 6.1.1.4' 
 'O'  'O'   0.0492   0.0322 
 'International Tables Vol C Tables 4.2.6.8 and 6.1.1.4' 
 'Si'  'Si'   0.2541   0.3302 
 'International Tables Vol C Tables 4.2.6.8 and 6.1.1.4' 
 'S'  'S'   0.3331   0.5567 
 'International Tables Vol C Tables 4.2.6.8 and 6.1.1.4' 
 
_symmetry_cell_setting            triclinic 
_symmetry_space_group_name_H-M    'P -1'
_symmetry_space_group_name_Hall   '-P 1'
 
loop_ 
 _symmetry_equiv_pos_as_xyz 
 'x, y, z' 
 '-x, -y, -z' 
 
_cell_length_a                    10.7005(3) 
_cell_length_b                    16.6855(4) 
_cell_length_c                    17.7387(4) 
_cell_angle_alpha                 97.472(1) 
_cell_angle_beta                  104.923(1) 
_cell_angle_gamma                 102.925(1) 
_cell_volume                      2922.96(13) 
_cell_formula_units_Z             2 
_cell_measurement_temperature     90.0(2) 
_cell_measurement_reflns_used     9913 
_cell_measurement_theta_min       2.77
_cell_measurement_theta_max       68.05
 
_exptl_crystal_description        slab 
_exptl_crystal_colour             red 
_exptl_crystal_size_max           0.18 
_exptl_crystal_size_mid           0.12 
_exptl_crystal_size_min           0.04 
_exptl_crystal_density_meas       ? 
_exptl_crystal_density_diffrn     1.243 
_exptl_crystal_density_method     'not measured' 
_exptl_crystal_F_000              1176 
_exptl_absorpt_coefficient_mu     1.580 
_exptl_absorpt_correction_type    multi-scan 
_exptl_absorpt_correction_T_min   0.767 
_exptl_absorpt_correction_T_max   0.940 
_exptl_absorpt_process_details    'Sadabs in APEX2 (BrukerAXS, 2006)' 
 
_exptl_special_details 
; 
 ? 
; 
 
_diffrn_ambient_temperature       90.0(2) 
_diffrn_radiation_wavelength      1.54178 
_diffrn_radiation_type            CuK\a 
_diffrn_radiation_source          'fine-focus rotating anode' 
_diffrn_radiation_monochromator   'graded multilayer optics' 
_diffrn_measurement_device_type   'Bruker X8 Proteum diffractometer'
_diffrn_measurement_method        '\f and \w scans'            
_diffrn_detector_area_resol_mean  5.6
_diffrn_standards_number          0 
_diffrn_standards_interval_count  . 
_diffrn_standards_interval_time   . 
_diffrn_standards_decay_%         ? 
_diffrn_reflns_number             41829 
_diffrn_reflns_av_R_equivalents   0.0367 
_diffrn_reflns_av_sigmaI/netI     0.0293 
_diffrn_reflns_limit_h_min        -12 
_diffrn_reflns_limit_h_max        12 
_diffrn_reflns_limit_k_min        -20 
_diffrn_reflns_limit_k_max        19 
_diffrn_reflns_limit_l_min        -21 
_diffrn_reflns_limit_l_max        21 
_diffrn_reflns_theta_min          2.77 
_diffrn_reflns_theta_max          68.24 
_reflns_number_total              10505 
_reflns_number_gt                 9718 
_reflns_threshold_expression      >2\s(I)    
 
_computing_data_collection        'APEX2 (Bruker-AXS, 2006)'            
_computing_cell_refinement        'APEX2'
_computing_data_reduction         'APEX2'
_computing_structure_solution     'SHELXS-97 (Sheldrick, 2008)' 
_computing_structure_refinement   'SHELXL-97 (Sheldrick, 2008)' 
_computing_molecular_graphics     'XP in SHELXTL (Sheldrick, 2008)'
_computing_publication_material
; 
SHELX-97 (Sheldrick, 2008) and local procedures 
; 
 
_publ_section_exptl_refinement
;
H atoms were found in difference Fourier maps and subsequently placed 
in idealized positions with constrained distances of 0.98 \%A (RCH~3~),
0.99 \%A (R~2~CH~2~),1.00 \%A (R~3~CH), 0.95 \%A (C~Ar~H), and with 
U~iso~(H) values set to either 1.2U~eq~ or 1.5U~eq~ (RCH~3~)  of the 
attached atom. 

One cyclopentyl group had minor disorder.  To keep this under control, 
the SHELXL97 commands EXYZ, EADP (constraints) and SAME, DELU (restraints) 
were used.
;

_refine_special_details 
; 
 Refinement of F^2^ against ALL reflections.  The weighted R-factor wR and 
 goodness of fit S are based on F^2^, conventional R-factors R are based 
 on F, with F set to zero for negative F^2^. The threshold expression of 
 F^2^ > 2\s(F^2^) is used only for calculating R-factors(gt) etc. and is 
 not relevant to the choice of reflections for refinement.  R-factors based 
 on F^2^ are statistically about twice as large as those based on F, and R- 
 factors based on ALL data will be even larger. 
; 
 
_refine_ls_structure_factor_coef  Fsqd  
_refine_ls_matrix_type            full 
_refine_ls_weighting_scheme       calc  
_refine_ls_weighting_details 
 'calc w=1/[\s^2^(Fo^2^)+(0.0616P)^2^+1.9878P] where P=(Fo^2^+2Fc^2^)/3' 
_atom_sites_solution_primary      direct 
_atom_sites_solution_secondary    difmap 
_atom_sites_solution_hydrogens    geom 
_refine_ls_hydrogen_treatment     constr 
_refine_ls_extinction_method      none 
_refine_ls_extinction_coef        ? 
_refine_ls_number_reflns          10505 
_refine_ls_number_parameters      707 
_refine_ls_number_restraints      9 
_refine_ls_R_factor_all           0.0460 
_refine_ls_R_factor_gt            0.0428 
_refine_ls_wR_factor_ref          0.1179 
_refine_ls_wR_factor_gt           0.1138 
_refine_ls_goodness_of_fit_ref    1.036 
_refine_ls_restrained_S_all       1.036 
_refine_ls_shift/su_max           0.001 
_refine_ls_shift/su_mean          0.000 
 
loop_ 
 _atom_site_label 
 _atom_site_type_symbol 
 _atom_site_fract_x 
 _atom_site_fract_y 
 _atom_site_fract_z 
 _atom_site_U_iso_or_equiv 
 _atom_site_adp_type 
 _atom_site_occupancy 
 _atom_site_symmetry_multiplicity 
 _atom_site_calc_flag 
 _atom_site_refinement_flags 
 _atom_site_disorder_assembly 
 _atom_site_disorder_group 
Si1 Si 0.60146(4) 0.17478(3) 0.11074(2) 0.02122(11) Uani 1 1 d . . . 
O1 O 1.40333(12) 0.57721(8) 0.42983(7) 0.0314(3) Uani 1 1 d . . . 
N1 N 1.46950(14) 0.60865(9) 0.56400(9) 0.0245(3) Uani 1 1 d . . . 
C1 C 0.70823(16) 0.23779(10) 0.37591(9) 0.0193(3) Uani 1 1 d . . . 
Si2 Si 0.90017(4) 0.34899(3) 0.80983(2) 0.02131(11) Uani 1 1 d . C . 
O2 O 0.07764(12) -0.11651(8) 0.38792(7) 0.0296(3) Uani 1 1 d . . . 
N2 N 0.09917(14) -0.08381(9) 0.51860(9) 0.0247(3) Uani 1 1 d . . . 
C2 C 0.82793(15) 0.29996(10) 0.42001(9) 0.0186(3) Uani 1 1 d . . . 
C3 C 0.91503(16) 0.34337(10) 0.38167(9) 0.0212(3) Uani 1 1 d . . . 
H3 H 0.8923 0.3327 0.3252 0.025 Uiso 1 1 calc R . . 
C4 C 1.03217(16) 0.40077(10) 0.42662(10) 0.0210(3) Uani 1 1 d . . . 
S5 S 1.15518(4) 0.45893(3) 0.39193(2) 0.02408(11) Uani 1 1 d . . . 
C6 C 1.25352(16) 0.50646(10) 0.49000(10) 0.0218(3) Uani 1 1 d . . . 
C7 C 1.19578(16) 0.48189(10) 0.54640(11) 0.0235(3) Uani 1 1 d . . . 
H7 H 1.2350 0.5031 0.6020 0.028 Uiso 1 1 calc R . . 
C8 C 1.06742(16) 0.41959(10) 0.51147(9) 0.0207(3) Uani 1 1 d . . . 
C9 C 0.98351(16) 0.37901(10) 0.54983(9) 0.0205(3) Uani 1 1 d . . . 
H9 H 1.0066 0.3922 0.6063 0.025 Uiso 1 1 calc R . . 
C10 C 0.86299(16) 0.31770(10) 0.50583(9) 0.0187(3) Uani 1 1 d . . . 
C11 C 0.77787(16) 0.27332(10) 0.54428(9) 0.0190(3) Uani 1 1 d . . . 
C12 C 0.66094(16) 0.20895(10) 0.50027(9) 0.0191(3) Uani 1 1 d . . . 
C13 C 0.57690(16) 0.16281(10) 0.53837(9) 0.0205(3) Uani 1 1 d . . . 
H13 H 0.5991 0.1747 0.5948 0.025 Uiso 1 1 calc R . . 
C14 C 0.46349(16) 0.10097(10) 0.49461(9) 0.0207(3) Uani 1 1 d . . . 
C15 C 0.36427(16) 0.04825(10) 0.52278(11) 0.0234(3) Uani 1 1 d . . . 
H15 H 0.3678 0.0516 0.5772 0.028 Uiso 1 1 calc R . . 
C16 C 0.26494(16) -0.00694(10) 0.46077(9) 0.0211(3) Uani 1 1 d . . . 
S17 S 0.28597(4) 0.00033(3) 0.36671(2) 0.02421(11) Uani 1 1 d . . . 
C18 C 0.43156(16) 0.08222(10) 0.40971(9) 0.0211(3) Uani 1 1 d . . . 
C19 C 0.51044(16) 0.12515(10) 0.37049(9) 0.0210(3) Uani 1 1 d . . . 
H19 H 0.4877 0.1113 0.3141 0.025 Uiso 1 1 calc R . . 
C20 C 0.62637(15) 0.19043(10) 0.41452(9) 0.0188(3) Uani 1 1 d . . . 
C21 C 0.67060(16) 0.22241(10) 0.29091(9) 0.0207(3) Uani 1 1 d . . . 
C22 C 0.63878(16) 0.20978(11) 0.21901(10) 0.0232(3) Uani 1 1 d . . . 
C23 C 0.45135(18) 0.08106(11) 0.08190(10) 0.0260(4) Uani 1 1 d . . . 
H23 H 0.4332 0.0564 0.0244 0.031 Uiso 1 1 calc R . . 
C24 C 0.3224(2) 0.09978(13) 0.09279(15) 0.0430(5) Uani 1 1 d . . . 
H24A H 0.3412 0.1385 0.1441 0.052 Uiso 1 1 calc R . . 
H24B H 0.2793 0.1248 0.0489 0.052 Uiso 1 1 calc R . . 
C25 C 0.2338(2) 0.01350(14) 0.09154(17) 0.0509(6) Uani 1 1 d . . . 
H25A H 0.1639 0.0191 0.1177 0.061 Uiso 1 1 calc R . . 
H25B H 0.1896 -0.0182 0.0362 0.061 Uiso 1 1 calc R . . 
C26 C 0.3306(2) -0.02987(13) 0.13765(13) 0.0410(5) Uani 1 1 d . . . 
H26A H 0.3032 -0.0908 0.1149 0.049 Uiso 1 1 calc R . . 
H26B H 0.3326 -0.0220 0.1943 0.049 Uiso 1 1 calc R . . 
C27 C 0.46929(19) 0.01137(11) 0.12986(11) 0.0299(4) Uani 1 1 d . . . 
H27A H 0.5027 -0.0306 0.1018 0.036 Uiso 1 1 calc R . . 
H27B H 0.5346 0.0356 0.1832 0.036 Uiso 1 1 calc R . . 
C28 C 0.75870(18) 0.15017(12) 0.09778(10) 0.0291(4) Uani 1 1 d . . . 
H28 H 0.7455 0.1342 0.0394 0.035 Uiso 1 1 calc R . . 
C29 C 0.8015(2) 0.07936(15) 0.13725(12) 0.0383(5) Uani 1 1 d . . . 
H29A H 0.7805 0.0792 0.1884 0.046 Uiso 1 1 calc R . . 
H29B H 0.7563 0.0238 0.1018 0.046 Uiso 1 1 calc R . . 
C30 C 0.9528(2) 0.10105(18) 0.15039(13) 0.0488(6) Uani 1 1 d . . . 
H30A H 0.9969 0.0726 0.1910 0.059 Uiso 1 1 calc R . . 
H30B H 0.9738 0.0851 0.1003 0.059 Uiso 1 1 calc R . . 
C31 C 0.9961(2) 0.1946(2) 0.17884(14) 0.0574(7) Uani 1 1 d . . . 
H31A H 1.0814 0.2192 0.1680 0.069 Uiso 1 1 calc R . . 
H31B H 1.0095 0.2091 0.2368 0.069 Uiso 1 1 calc R . . 
C32 C 0.8821(2) 0.22810(15) 0.13227(12) 0.0399(5) Uani 1 1 d . . . 
H32A H 0.9072 0.2533 0.0889 0.048 Uiso 1 1 calc R . . 
H32B H 0.8624 0.2710 0.1681 0.048 Uiso 1 1 calc R . . 
C33 C 0.57074(18) 0.25977(11) 0.05479(10) 0.0256(4) Uani 1 1 d . . . 
H33 H 0.6589 0.3025 0.0668 0.031 Uiso 1 1 calc R . . 
C34 C 0.5184(2) 0.22826(13) -0.03642(11) 0.0385(5) Uani 1 1 d . . . 
H34A H 0.5923 0.2197 -0.0578 0.046 Uiso 1 1 calc R . . 
H34B H 0.4474 0.1746 -0.0505 0.046 Uiso 1 1 calc R . . 
C35 C 0.4624(2) 0.29674(13) -0.06928(11) 0.0356(4) Uani 1 1 d . . . 
H35A H 0.3794 0.2718 -0.1142 0.043 Uiso 1 1 calc R . . 
H35B H 0.5287 0.3333 -0.0886 0.043 Uiso 1 1 calc R . . 
C36 C 0.4322(2) 0.34726(14) -0.00169(12) 0.0417(5) Uani 1 1 d . . . 
H36A H 0.3359 0.3458 -0.0163 0.050 Uiso 1 1 calc R . . 
H36B H 0.4860 0.4064 0.0101 0.050 Uiso 1 1 calc R . . 
C37 C 0.46912(19) 0.30686(11) 0.07083(10) 0.0279(4) Uani 1 1 d . . . 
H37A H 0.3887 0.2676 0.0759 0.034 Uiso 1 1 calc R . . 
H37B H 0.5099 0.3502 0.1203 0.034 Uiso 1 1 calc R . . 
C38 C 0.81200(16) 0.29396(10) 0.62927(9) 0.0199(3) Uani 1 1 d . . . 
C39 C 0.84453(17) 0.31466(10) 0.70082(10) 0.0226(3) Uani 1 1 d . . . 
C40 C 0.91756(18) 0.25564(11) 0.85622(10) 0.0274(4) Uani 1 1 d . . . 
H40 H 0.8249 0.2225 0.8520 0.033 Uiso 1 1 calc R . . 
C41 C 0.9850(2) 0.19522(13) 0.81986(12) 0.0396(5) Uani 1 1 d . . . 
H41A H 0.9167 0.1497 0.7784 0.048 Uiso 1 1 calc R . . 
H41B H 1.0493 0.2255 0.7951 0.048 Uiso 1 1 calc R . . 
C42 C 1.0575(2) 0.15921(16) 0.88649(14) 0.0470(5) Uani 1 1 d . . . 
H42A H 1.1548 0.1733 0.8921 0.056 Uiso 1 1 calc R . . 
H42B H 1.0224 0.0974 0.8752 0.056 Uiso 1 1 calc R . . 
C43 C 1.0335(2) 0.19727(13) 0.96202(12) 0.0354(4) Uani 1 1 d . . . 
H43A H 1.1151 0.2093 1.0080 0.043 Uiso 1 1 calc R . . 
H43B H 0.9586 0.1589 0.9734 0.043 Uiso 1 1 calc R . . 
C44 C 0.9984(2) 0.27801(14) 0.94534(11) 0.0414(5) Uani 1 1 d . . . 
H44A H 1.0806 0.3243 0.9556 0.050 Uiso 1 1 calc R . . 
H44B H 0.9437 0.2947 0.9787 0.050 Uiso 1 1 calc R . . 
C45 C 0.76808(18) 0.39128(11) 0.83972(9) 0.0264(4) Uani 1 1 d . . . 
H45 H 0.6895 0.3420 0.8315 0.032 Uiso 1 1 calc R A 1 
C46 C 0.8087(2) 0.43531(13) 0.92831(11) 0.0355(4) Uani 1 1 d . C . 
H46A H 0.7867 0.3942 0.9617 0.043 Uiso 1 1 calc R B 1 
H46B H 0.9061 0.4634 0.9481 0.043 Uiso 1 1 calc R B 1 
C47 C 0.7268(2) 0.49998(13) 0.93011(12) 0.0412(5) Uani 0.612(9) 1 d PDU C 1 
H47A H 0.6706 0.4898 0.9662 0.049 Uiso 0.612(9) 1 calc PR C 1 
H47B H 0.7870 0.5576 0.9486 0.049 Uiso 0.612(9) 1 calc PR C 1 
C48 C 0.6396(5) 0.4882(3) 0.8450(2) 0.0378(12) Uani 0.612(9) 1 d PDU C 1 
H48A H 0.5514 0.4479 0.8362 0.045 Uiso 0.612(9) 1 calc PR C 1 
H48B H 0.6248 0.5423 0.8332 0.045 Uiso 0.612(9) 1 calc PR C 1 
C49 C 0.7141(2) 0.45512(13) 0.79368(12) 0.0375(4) Uani 0.612(9) 1 d PDU C 1 
H49A H 0.7882 0.5002 0.7893 0.045 Uiso 0.612(9) 1 calc PR C 1 
H49B H 0.6538 0.4273 0.7397 0.045 Uiso 0.612(9) 1 calc PR C 1 
C47' C 0.7268(2) 0.49998(13) 0.93011(12) 0.0412(5) Uani 0.388(9) 1 d PDU C 2 
H47C H 0.6355 0.4735 0.9320 0.049 Uiso 0.388(9) 1 calc PR C 2 
H47D H 0.7717 0.5465 0.9768 0.049 Uiso 0.388(9) 1 calc PR C 2 
C48' C 0.7216(8) 0.5307(4) 0.8543(3) 0.045(2) Uani 0.388(9) 1 d PDU C 2 
H48C H 0.8029 0.5764 0.8610 0.054 Uiso 0.388(9) 1 calc PR C 2 
H48D H 0.6416 0.5519 0.8372 0.054 Uiso 0.388(9) 1 calc PR C 2 
C49' C 0.7141(2) 0.45512(13) 0.79368(12) 0.0375(4) Uani 0.388(9) 1 d PDU C 2 
H49C H 0.7689 0.4725 0.7584 0.045 Uiso 0.388(9) 1 calc PR C 2 
H49D H 0.6200 0.4294 0.7604 0.045 Uiso 0.388(9) 1 calc PR C 2 
C50 C 1.06580(18) 0.43042(11) 0.83667(10) 0.0275(4) Uani 1 1 d . . . 
H50 H 1.0978 0.4477 0.8960 0.033 Uiso 1 1 calc R C . 
C51 C 1.1772(2) 0.40142(13) 0.81078(13) 0.0383(4) Uani 1 1 d . C . 
H51A H 1.2175 0.3676 0.8472 0.046 Uiso 1 1 calc R . . 
H51B H 1.1425 0.3678 0.7559 0.046 Uiso 1 1 calc R . . 
C52 C 1.2792(2) 0.48358(16) 0.81544(15) 0.0543(6) Uani 1 1 d . . . 
H52A H 1.3326 0.5094 0.8713 0.065 Uiso 1 1 calc R C . 
H52B H 1.3409 0.4745 0.7841 0.065 Uiso 1 1 calc R . . 
C53 C 1.1930(3) 0.53748(15) 0.78032(14) 0.0554(7) Uani 1 1 d . C . 
H53A H 1.1743 0.5278 0.7218 0.067 Uiso 1 1 calc R . . 
H53B H 1.2384 0.5976 0.8027 0.067 Uiso 1 1 calc R . . 
C54 C 1.0623(2) 0.51128(13) 0.80269(14) 0.0451(5) Uani 1 1 d . C . 
H54A H 0.9834 0.5002 0.7552 0.054 Uiso 1 1 calc R . . 
H54B H 1.0570 0.5562 0.8431 0.054 Uiso 1 1 calc R . . 
C55 C 1.38178(16) 0.56653(11) 0.49325(10) 0.0240(3) Uani 1 1 d . . . 
C56 C 1.47090(17) 0.59439(11) 0.64440(10) 0.0253(4) Uani 1 1 d . . . 
H56A H 1.4503 0.5337 0.6454 0.030 Uiso 1 1 calc R . . 
H56B H 1.4051 0.6184 0.6632 0.030 Uiso 1 1 calc R . . 
C57 C 1.61420(17) 0.63975(12) 0.69526(11) 0.0292(4) Uani 1 1 d . . . 
H57A H 1.6165 0.6628 0.7501 0.035 Uiso 1 1 calc R . . 
H57B H 1.6730 0.6014 0.6977 0.035 Uiso 1 1 calc R . . 
C58 C 1.65764(18) 0.70976(12) 0.65285(12) 0.0328(4) Uani 1 1 d . . . 
H58A H 1.7566 0.7277 0.6655 0.039 Uiso 1 1 calc R . . 
H58B H 1.6254 0.7589 0.6681 0.039 Uiso 1 1 calc R . . 
C59 C 1.59219(17) 0.67047(11) 0.56470(11) 0.0280(4) Uani 1 1 d . . . 
H59A H 1.5702 0.7132 0.5335 0.034 Uiso 1 1 calc R . . 
H59B H 1.6517 0.6428 0.5428 0.034 Uiso 1 1 calc R . . 
C60 C 0.14120(16) -0.07331(10) 0.45442(10) 0.0228(3) Uani 1 1 d . . . 
C61 C 0.15861(18) -0.03641(12) 0.60068(10) 0.0267(4) Uani 1 1 d . . . 
H61A H 0.1831 0.0247 0.6020 0.032 Uiso 1 1 calc R . . 
H61B H 0.2398 -0.0525 0.6276 0.032 Uiso 1 1 calc R . . 
C62 C 0.0482(2) -0.06039(13) 0.64009(12) 0.0347(4) Uani 1 1 d . . . 
H62A H 0.0868 -0.0609 0.6970 0.042 Uiso 1 1 calc R . . 
H62B H -0.0087 -0.0209 0.6356 0.042 Uiso 1 1 calc R . . 
C63 C -0.0321(2) -0.14806(13) 0.59358(13) 0.0372(4) Uani 1 1 d . . . 
H63A H -0.1258 -0.1600 0.5957 0.045 Uiso 1 1 calc R . . 
H63B H 0.0090 -0.1910 0.6152 0.045 Uiso 1 1 calc R . . 
C64 C -0.02720(18) -0.14708(11) 0.50842(12) 0.0306(4) Uani 1 1 d . . . 
H64A H -0.0263 -0.2027 0.4816 0.037 Uiso 1 1 calc R . . 
H64B H -0.1050 -0.1308 0.4769 0.037 Uiso 1 1 calc R . . 
C1T C 0.34692(18) 0.26121(12) 0.67742(10) 0.0288(4) Uani 1 1 d . . . 
C2T C 0.47008(19) 0.24316(14) 0.69765(12) 0.0392(5) Uani 1 1 d . . . 
H2T H 0.5435 0.2759 0.6846 0.047 Uiso 1 1 calc R . . 
C3T C 0.4874(2) 0.17848(16) 0.73631(13) 0.0510(6) Uani 1 1 d . . . 
H3T H 0.5725 0.1669 0.7499 0.061 Uiso 1 1 calc R . . 
C4T C 0.3816(3) 0.13005(15) 0.75561(12) 0.0540(7) Uani 1 1 d . . . 
H4T H 0.3938 0.0852 0.7821 0.065 Uiso 1 1 calc R . . 
C5T C 0.2575(2) 0.14734(12) 0.73614(11) 0.0402(5) Uani 1 1 d . . . 
H5T H 0.1847 0.1148 0.7498 0.048 Uiso 1 1 calc R . . 
C6T C 0.24047(18) 0.21210(11) 0.69687(10) 0.0277(4) Uani 1 1 d . . . 
H6T H 0.1552 0.2234 0.6829 0.033 Uiso 1 1 calc R . . 
C7T C 0.3275(2) 0.33147(14) 0.63501(13) 0.0414(5) Uani 1 1 d . . . 
H7T1 H 0.4101 0.3563 0.6226 0.062 Uiso 1 1 calc R . . 
H7T2 H 0.3064 0.3744 0.6691 0.062 Uiso 1 1 calc R . . 
H7T3 H 0.2535 0.3098 0.5855 0.062 Uiso 1 1 calc R . . 
 
loop_ 
 _atom_site_aniso_label 
 _atom_site_aniso_U_11 
 _atom_site_aniso_U_22 
 _atom_site_aniso_U_33 
 _atom_site_aniso_U_23 
 _atom_site_aniso_U_13 
 _atom_site_aniso_U_12 
Si1 0.0223(2) 0.0290(2) 0.0121(2) 0.00398(17) 0.00331(16) 0.00855(18) 
O1 0.0253(6) 0.0431(7) 0.0266(6) 0.0143(6) 0.0087(5) 0.0054(5) 
N1 0.0197(7) 0.0272(7) 0.0257(7) 0.0103(6) 0.0050(6) 0.0037(6) 
C1 0.0199(8) 0.0246(8) 0.0141(7) 0.0031(6) 0.0035(6) 0.0093(6) 
Si2 0.0261(2) 0.0222(2) 0.0117(2) 0.00363(16) 0.00121(17) 0.00368(18) 
O2 0.0262(6) 0.0306(6) 0.0248(6) -0.0006(5) 0.0053(5) -0.0003(5) 
N2 0.0236(7) 0.0247(7) 0.0258(7) 0.0059(6) 0.0087(6) 0.0044(6) 
C2 0.0193(8) 0.0211(8) 0.0159(7) 0.0034(6) 0.0037(6) 0.0082(6) 
C3 0.0233(8) 0.0259(8) 0.0160(7) 0.0050(6) 0.0057(6) 0.0097(7) 
C4 0.0206(8) 0.0232(8) 0.0219(8) 0.0069(6) 0.0074(6) 0.0087(6) 
S5 0.0221(2) 0.0302(2) 0.0205(2) 0.00715(16) 0.00693(16) 0.00628(16) 
C6 0.0198(8) 0.0248(8) 0.0213(8) 0.0064(6) 0.0045(6) 0.0077(7) 
C7 0.0171(8) 0.0215(8) 0.0333(9) 0.0086(7) 0.0084(7) 0.0055(6) 
C8 0.0199(8) 0.0216(8) 0.0198(8) 0.0038(6) 0.0025(6) 0.0081(6) 
C9 0.0214(8) 0.0231(8) 0.0158(7) 0.0035(6) 0.0023(6) 0.0073(6) 
C10 0.0196(8) 0.0210(8) 0.0154(7) 0.0031(6) 0.0027(6) 0.0081(6) 
C11 0.0211(8) 0.0217(8) 0.0140(7) 0.0029(6) 0.0028(6) 0.0084(6) 
C12 0.0195(8) 0.0223(8) 0.0156(7) 0.0033(6) 0.0031(6) 0.0085(6) 
C13 0.0225(8) 0.0239(8) 0.0147(7) 0.0038(6) 0.0039(6) 0.0076(7) 
C14 0.0215(8) 0.0232(8) 0.0192(8) 0.0058(6) 0.0061(6) 0.0086(6) 
C15 0.0178(8) 0.0192(8) 0.0309(9) 0.0055(7) 0.0036(7) 0.0047(6) 
C16 0.0217(8) 0.0241(8) 0.0176(8) 0.0037(6) 0.0056(6) 0.0071(7) 
S17 0.0213(2) 0.0287(2) 0.0186(2) 0.00211(16) 0.00383(15) 0.00247(16) 
C18 0.0187(8) 0.0240(8) 0.0181(8) 0.0024(6) 0.0017(6) 0.0065(6) 
C19 0.0202(8) 0.0259(8) 0.0148(7) 0.0020(6) 0.0021(6) 0.0067(6) 
C20 0.0186(8) 0.0223(8) 0.0156(7) 0.0025(6) 0.0032(6) 0.0085(6) 
C21 0.0189(8) 0.0236(8) 0.0188(8) 0.0042(6) 0.0050(6) 0.0052(6) 
C22 0.0217(8) 0.0292(9) 0.0174(8) 0.0048(6) 0.0046(6) 0.0057(7) 
C23 0.0294(9) 0.0263(9) 0.0201(8) 0.0028(7) 0.0030(7) 0.0093(7) 
C24 0.0258(10) 0.0283(10) 0.0693(15) 0.0022(10) 0.0084(10) 0.0068(8) 
C25 0.0335(11) 0.0324(11) 0.0833(18) -0.0001(11) 0.0210(11) 0.0041(9) 
C26 0.0458(12) 0.0383(11) 0.0351(11) 0.0051(9) 0.0157(9) 0.0006(9) 
C27 0.0369(10) 0.0277(9) 0.0257(9) 0.0046(7) 0.0097(8) 0.0103(8) 
C28 0.0292(9) 0.0455(11) 0.0169(8) 0.0085(7) 0.0082(7) 0.0158(8) 
C29 0.0368(11) 0.0593(13) 0.0308(10) 0.0195(9) 0.0130(8) 0.0274(10) 
C30 0.0390(12) 0.0928(19) 0.0313(11) 0.0253(12) 0.0148(9) 0.0382(12) 
C31 0.0269(11) 0.104(2) 0.0368(12) 0.0133(13) 0.0059(9) 0.0142(12) 
C32 0.0292(10) 0.0603(13) 0.0302(10) 0.0067(9) 0.0142(8) 0.0069(9) 
C33 0.0304(9) 0.0304(9) 0.0167(8) 0.0048(7) 0.0066(7) 0.0103(7) 
C34 0.0652(14) 0.0395(11) 0.0171(9) 0.0075(8) 0.0086(9) 0.0298(10) 
C35 0.0501(12) 0.0385(11) 0.0226(9) 0.0094(8) 0.0075(8) 0.0225(9) 
C36 0.0582(13) 0.0394(11) 0.0298(10) 0.0066(8) 0.0060(9) 0.0262(10) 
C37 0.0335(9) 0.0245(8) 0.0256(9) 0.0014(7) 0.0096(7) 0.0083(7) 
C38 0.0206(8) 0.0210(8) 0.0172(8) 0.0046(6) 0.0044(6) 0.0045(6) 
C39 0.0244(8) 0.0226(8) 0.0186(8) 0.0056(6) 0.0034(6) 0.0043(6) 
C40 0.0267(9) 0.0291(9) 0.0241(9) 0.0108(7) 0.0040(7) 0.0040(7) 
C41 0.0631(14) 0.0321(10) 0.0257(9) 0.0060(8) 0.0106(9) 0.0196(10) 
C42 0.0553(14) 0.0600(14) 0.0465(13) 0.0279(11) 0.0253(11) 0.0351(12) 
C43 0.0359(10) 0.0413(11) 0.0306(10) 0.0184(8) 0.0061(8) 0.0114(8) 
C44 0.0632(14) 0.0464(12) 0.0212(9) 0.0143(8) 0.0113(9) 0.0250(11) 
C45 0.0298(9) 0.0299(9) 0.0152(8) 0.0007(7) 0.0014(7) 0.0074(7) 
C46 0.0376(10) 0.0442(11) 0.0190(9) -0.0034(8) 0.0024(8) 0.0123(9) 
C47 0.0528(13) 0.0354(11) 0.0326(10) -0.0046(8) 0.0126(9) 0.0127(9) 
C48 0.043(2) 0.032(2) 0.045(2) 0.0107(15) 0.0156(16) 0.0187(19) 
C49 0.0468(12) 0.0420(11) 0.0263(9) 0.0090(8) 0.0062(8) 0.0214(9) 
C47' 0.0528(13) 0.0354(11) 0.0326(10) -0.0046(8) 0.0126(9) 0.0127(9) 
C48' 0.057(5) 0.042(4) 0.046(3) 0.015(3) 0.019(3) 0.025(4) 
C49' 0.0468(12) 0.0420(11) 0.0263(9) 0.0090(8) 0.0062(8) 0.0214(9) 
C50 0.0331(9) 0.0272(9) 0.0157(8) 0.0057(7) 0.0006(7) 0.0019(7) 
C51 0.0324(10) 0.0393(11) 0.0383(11) 0.0081(9) 0.0090(8) 0.0016(8) 
C52 0.0461(13) 0.0546(14) 0.0488(13) 0.0031(11) 0.0174(11) -0.0127(11) 
C53 0.0738(17) 0.0392(12) 0.0362(12) 0.0089(10) 0.0132(11) -0.0160(11) 
C54 0.0459(12) 0.0299(10) 0.0465(12) 0.0142(9) -0.0015(10) -0.0021(9) 
C55 0.0211(8) 0.0278(9) 0.0261(9) 0.0112(7) 0.0076(7) 0.0087(7) 
C56 0.0230(8) 0.0286(9) 0.0232(8) 0.0068(7) 0.0050(7) 0.0061(7) 
C57 0.0228(9) 0.0351(10) 0.0271(9) 0.0061(7) 0.0034(7) 0.0075(7) 
C58 0.0218(9) 0.0334(10) 0.0370(10) 0.0093(8) 0.0009(7) 0.0032(7) 
C59 0.0187(8) 0.0299(9) 0.0345(10) 0.0146(7) 0.0050(7) 0.0034(7) 
C60 0.0212(8) 0.0234(8) 0.0241(8) 0.0043(7) 0.0065(7) 0.0069(6) 
C61 0.0275(9) 0.0338(9) 0.0222(8) 0.0088(7) 0.0092(7) 0.0114(7) 
C62 0.0336(10) 0.0461(11) 0.0314(10) 0.0150(8) 0.0147(8) 0.0146(9) 
C63 0.0414(11) 0.0356(10) 0.0461(12) 0.0182(9) 0.0247(9) 0.0136(9) 
C64 0.0254(9) 0.0278(9) 0.0402(11) 0.0103(8) 0.0136(8) 0.0040(7) 
C1T 0.0259(9) 0.0331(9) 0.0223(8) -0.0017(7) 0.0048(7) 0.0046(7) 
C2T 0.0257(9) 0.0498(12) 0.0314(10) -0.0147(9) 0.0011(8) 0.0103(9) 
C3T 0.0464(13) 0.0584(14) 0.0346(11) -0.0156(10) -0.0126(10) 0.0301(12) 
C4T 0.093(2) 0.0408(12) 0.0231(10) -0.0008(9) -0.0045(11) 0.0362(13) 
C5T 0.0641(14) 0.0304(10) 0.0228(9) 0.0021(8) 0.0126(9) 0.0086(9) 
C6T 0.0283(9) 0.0297(9) 0.0231(8) 0.0018(7) 0.0083(7) 0.0053(7) 
C7T 0.0420(11) 0.0429(11) 0.0425(12) 0.0158(9) 0.0194(9) 0.0060(9) 
 
_geom_special_details 
; 
 All esds (except the esd in the dihedral angle between two l.s. planes) 
 are estimated using the full covariance matrix.  The cell esds are taken 
 into account individually in the estimation of esds in distances, angles 
 and torsion angles; correlations between esds in cell parameters are only 
 used when they are defined by crystal symmetry.  An approximate (isotropic) 
 treatment of cell esds is used for estimating esds involving l.s. planes. 
; 
 
loop_ 
 _geom_bond_atom_site_label_1 
 _geom_bond_atom_site_label_2 
 _geom_bond_distance 
 _geom_bond_site_symmetry_2 
 _geom_bond_publ_flag 
Si1 C22 1.8433(17) . ? 
Si1 C33 1.8737(18) . ? 
Si1 C23 1.8794(18) . ? 
Si1 C28 1.8805(18) . ? 
O1 C55 1.232(2) . ? 
N1 C55 1.349(2) . ? 
N1 C56 1.473(2) . ? 
N1 C59 1.473(2) . ? 
C1 C20 1.414(2) . ? 
C1 C2 1.417(2) . ? 
C1 C21 1.429(2) . ? 
Si2 C39 1.8407(17) . ? 
Si2 C45 1.8740(18) . ? 
Si2 C40 1.8768(18) . ? 
Si2 C50 1.8799(18) . ? 
O2 C60 1.233(2) . ? 
N2 C60 1.345(2) . ? 
N2 C61 1.466(2) . ? 
N2 C64 1.470(2) . ? 
C2 C3 1.417(2) . ? 
C2 C10 1.444(2) . ? 
C3 C4 1.369(2) . ? 
C3 H3 0.9500 . ? 
C4 C8 1.428(2) . ? 
C4 S5 1.7476(16) . ? 
S5 C6 1.7572(17) . ? 
C6 C7 1.365(2) . ? 
C6 C55 1.490(2) . ? 
C7 C8 1.451(2) . ? 
C7 H7 0.9500 . ? 
C8 C9 1.375(2) . ? 
C9 C10 1.415(2) . ? 
C9 H9 0.9500 . ? 
C10 C11 1.412(2) . ? 
C11 C12 1.416(2) . ? 
C11 C38 1.432(2) . ? 
C12 C13 1.413(2) . ? 
C12 C20 1.443(2) . ? 
C13 C14 1.373(2) . ? 
C13 H13 0.9500 . ? 
C14 C18 1.431(2) . ? 
C14 C15 1.456(2) . ? 
C15 C16 1.373(2) . ? 
C15 H15 0.9500 . ? 
C16 C60 1.492(2) . ? 
C16 S17 1.7558(16) . ? 
S17 C18 1.7436(16) . ? 
C18 C19 1.368(2) . ? 
C19 C20 1.418(2) . ? 
C19 H19 0.9500 . ? 
C21 C22 1.209(2) . ? 
C23 C24 1.534(3) . ? 
C23 C27 1.544(2) . ? 
C23 H23 1.0000 . ? 
C24 C25 1.531(3) . ? 
C24 H24A 0.9900 . ? 
C24 H24B 0.9900 . ? 
C25 C26 1.523(3) . ? 
C25 H25A 0.9900 . ? 
C25 H25B 0.9900 . ? 
C26 C27 1.539(3) . ? 
C26 H26A 0.9900 . ? 
C26 H26B 0.9900 . ? 
C27 H27A 0.9900 . ? 
C27 H27B 0.9900 . ? 
C28 C29 1.545(3) . ? 
C28 C32 1.555(3) . ? 
C28 H28 1.0000 . ? 
C29 C30 1.526(3) . ? 
C29 H29A 0.9900 . ? 
C29 H29B 0.9900 . ? 
C30 C31 1.503(4) . ? 
C30 H30A 0.9900 . ? 
C30 H30B 0.9900 . ? 
C31 C32 1.546(3) . ? 
C31 H31A 0.9900 . ? 
C31 H31B 0.9900 . ? 
C32 H32A 0.9900 . ? 
C32 H32B 0.9900 . ? 
C33 C37 1.538(2) . ? 
C33 C34 1.545(2) . ? 
C33 H33 1.0000 . ? 
C34 C35 1.518(3) . ? 
C34 H34A 0.9900 . ? 
C34 H34B 0.9900 . ? 
C35 C36 1.520(3) . ? 
C35 H35A 0.9900 . ? 
C35 H35B 0.9900 . ? 
C36 C37 1.532(3) . ? 
C36 H36A 0.9900 . ? 
C36 H36B 0.9900 . ? 
C37 H37A 0.9900 . ? 
C37 H37B 0.9900 . ? 
C38 C39 1.207(2) . ? 
C40 C41 1.532(3) . ? 
C40 C44 1.544(2) . ? 
C40 H40 1.0000 . ? 
C41 C42 1.510(3) . ? 
C41 H41A 0.9900 . ? 
C41 H41B 0.9900 . ? 
C42 C43 1.514(3) . ? 
C42 H42A 0.9900 . ? 
C42 H42B 0.9900 . ? 
C43 C44 1.522(3) . ? 
C43 H43A 0.9900 . ? 
C43 H43B 0.9900 . ? 
C44 H44A 0.9900 . ? 
C44 H44B 0.9900 . ? 
C45 C49 1.547(3) . ? 
C45 C46 1.550(2) . ? 
C45 H45 1.0000 . ? 
C46 C47 1.536(3) . ? 
C46 H46A 0.9900 . ? 
C46 H46B 0.9900 . ? 
C47 C48 1.518(4) . ? 
C47 H47A 0.9900 . ? 
C47 H47B 0.9900 . ? 
C48 C49 1.486(4) . ? 
C48 H48A 0.9900 . ? 
C48 H48B 0.9900 . ? 
C49 H49A 0.9900 . ? 
C49 H49B 0.9900 . ? 
C48' H48C 0.9900 . ? 
C48' H48D 0.9900 . ? 
C50 C51 1.533(3) . ? 
C50 C54 1.552(3) . ? 
C50 H50 1.0000 . ? 
C51 C52 1.527(3) . ? 
C51 H51A 0.9900 . ? 
C51 H51B 0.9900 . ? 
C52 C53 1.506(4) . ? 
C52 H52A 0.9900 . ? 
C52 H52B 0.9900 . ? 
C53 C54 1.537(4) . ? 
C53 H53A 0.9900 . ? 
C53 H53B 0.9900 . ? 
C54 H54A 0.9900 . ? 
C54 H54B 0.9900 . ? 
C56 C57 1.526(2) . ? 
C56 H56A 0.9900 . ? 
C56 H56B 0.9900 . ? 
C57 C58 1.521(3) . ? 
C57 H57A 0.9900 . ? 
C57 H57B 0.9900 . ? 
C58 C59 1.526(3) . ? 
C58 H58A 0.9900 . ? 
C58 H58B 0.9900 . ? 
C59 H59A 0.9900 . ? 
C59 H59B 0.9900 . ? 
C61 C62 1.527(2) . ? 
C61 H61A 0.9900 . ? 
C61 H61B 0.9900 . ? 
C62 C63 1.522(3) . ? 
C62 H62A 0.9900 . ? 
C62 H62B 0.9900 . ? 
C63 C64 1.527(3) . ? 
C63 H63A 0.9900 . ? 
C63 H63B 0.9900 . ? 
C64 H64A 0.9900 . ? 
C64 H64B 0.9900 . ? 
C1T C2T 1.385(3) . ? 
C1T C6T 1.395(3) . ? 
C1T C7T 1.497(3) . ? 
C2T C3T 1.373(3) . ? 
C2T H2T 0.9500 . ? 
C3T C4T 1.383(4) . ? 
C3T H3T 0.9500 . ? 
C4T C5T 1.388(4) . ? 
C4T H4T 0.9500 . ? 
C5T C6T 1.380(3) . ? 
C5T H5T 0.9500 . ? 
C6T H6T 0.9500 . ? 
C7T H7T1 0.9800 . ? 
C7T H7T2 0.9800 . ? 
C7T H7T3 0.9800 . ? 
 
loop_ 
 _geom_angle_atom_site_label_1 
 _geom_angle_atom_site_label_2 
 _geom_angle_atom_site_label_3 
 _geom_angle 
 _geom_angle_site_symmetry_1 
 _geom_angle_site_symmetry_3 
 _geom_angle_publ_flag 
C22 Si1 C33 112.24(8) . . ? 
C22 Si1 C23 105.25(8) . . ? 
C33 Si1 C23 112.52(8) . . ? 
C22 Si1 C28 104.72(8) . . ? 
C33 Si1 C28 107.70(8) . . ? 
C23 Si1 C28 114.21(8) . . ? 
C55 N1 C56 128.74(14) . . ? 
C55 N1 C59 118.67(14) . . ? 
C56 N1 C59 112.05(13) . . ? 
C20 C1 C2 121.19(14) . . ? 
C20 C1 C21 119.65(14) . . ? 
C2 C1 C21 119.16(14) . . ? 
C39 Si2 C45 108.26(8) . . ? 
C39 Si2 C40 108.65(8) . . ? 
C45 Si2 C40 108.94(8) . . ? 
C39 Si2 C50 107.03(8) . . ? 
C45 Si2 C50 112.53(8) . . ? 
C40 Si2 C50 111.30(8) . . ? 
C60 N2 C61 128.81(14) . . ? 
C60 N2 C64 118.91(15) . . ? 
C61 N2 C64 112.18(14) . . ? 
C1 C2 C3 121.34(14) . . ? 
C1 C2 C10 119.05(14) . . ? 
C3 C2 C10 119.60(14) . . ? 
C4 C3 C2 119.49(15) . . ? 
C4 C3 H3 120.3 . . ? 
C2 C3 H3 120.3 . . ? 
C3 C4 C8 121.51(15) . . ? 
C3 C4 S5 126.99(13) . . ? 
C8 C4 S5 111.50(12) . . ? 
C4 S5 C6 90.81(8) . . ? 
C7 C6 C55 133.84(16) . . ? 
C7 C6 S5 113.77(13) . . ? 
C55 C6 S5 112.38(12) . . ? 
C6 C7 C8 112.02(15) . . ? 
C6 C7 H7 124.0 . . ? 
C8 C7 H7 124.0 . . ? 
C9 C8 C4 119.94(15) . . ? 
C9 C8 C7 128.19(15) . . ? 
C4 C8 C7 111.87(15) . . ? 
C8 C9 C10 120.45(15) . . ? 
C8 C9 H9 119.8 . . ? 
C10 C9 H9 119.8 . . ? 
C11 C10 C9 121.26(14) . . ? 
C11 C10 C2 119.75(14) . . ? 
C9 C10 C2 118.98(14) . . ? 
C10 C11 C12 121.12(14) . . ? 
C10 C11 C38 118.85(14) . . ? 
C12 C11 C38 120.03(14) . . ? 
C13 C12 C11 121.51(14) . . ? 
C13 C12 C20 119.25(14) . . ? 
C11 C12 C20 119.24(14) . . ? 
C14 C13 C12 120.64(14) . . ? 
C14 C13 H13 119.7 . . ? 
C12 C13 H13 119.7 . . ? 
C13 C14 C18 119.58(15) . . ? 
C13 C14 C15 128.56(15) . . ? 
C18 C14 C15 111.86(14) . . ? 
C16 C15 C14 111.45(15) . . ? 
C16 C15 H15 124.3 . . ? 
C14 C15 H15 124.3 . . ? 
C15 C16 C60 134.56(15) . . ? 
C15 C16 S17 114.10(13) . . ? 
C60 C16 S17 111.34(11) . . ? 
C18 S17 C16 90.80(8) . . ? 
C19 C18 C14 121.65(15) . . ? 
C19 C18 S17 126.58(13) . . ? 
C14 C18 S17 111.76(12) . . ? 
C18 C19 C20 119.59(14) . . ? 
C18 C19 H19 120.2 . . ? 
C20 C19 H19 120.2 . . ? 
C1 C20 C19 121.20(14) . . ? 
C1 C20 C12 119.53(14) . . ? 
C19 C20 C12 119.27(14) . . ? 
C22 C21 C1 179.71(18) . . ? 
C21 C22 Si1 170.25(15) . . ? 
C24 C23 C27 103.39(15) . . ? 
C24 C23 Si1 114.97(12) . . ? 
C27 C23 Si1 114.35(12) . . ? 
C24 C23 H23 107.9 . . ? 
C27 C23 H23 107.9 . . ? 
Si1 C23 H23 107.9 . . ? 
C25 C24 C23 103.63(16) . . ? 
C25 C24 H24A 111.0 . . ? 
C23 C24 H24A 111.0 . . ? 
C25 C24 H24B 111.0 . . ? 
C23 C24 H24B 111.0 . . ? 
H24A C24 H24B 109.0 . . ? 
C26 C25 C24 104.34(17) . . ? 
C26 C25 H25A 110.9 . . ? 
C24 C25 H25A 110.9 . . ? 
C26 C25 H25B 110.9 . . ? 
C24 C25 H25B 110.9 . . ? 
H25A C25 H25B 108.9 . . ? 
C25 C26 C27 105.99(17) . . ? 
C25 C26 H26A 110.5 . . ? 
C27 C26 H26A 110.5 . . ? 
C25 C26 H26B 110.5 . . ? 
C27 C26 H26B 110.5 . . ? 
H26A C26 H26B 108.7 . . ? 
C26 C27 C23 106.92(15) . . ? 
C26 C27 H27A 110.3 . . ? 
C23 C27 H27A 110.3 . . ? 
C26 C27 H27B 110.3 . . ? 
C23 C27 H27B 110.3 . . ? 
H27A C27 H27B 108.6 . . ? 
C29 C28 C32 104.99(16) . . ? 
C29 C28 Si1 116.75(13) . . ? 
C32 C28 Si1 111.33(13) . . ? 
C29 C28 H28 107.8 . . ? 
C32 C28 H28 107.8 . . ? 
Si1 C28 H28 107.8 . . ? 
C30 C29 C28 103.54(17) . . ? 
C30 C29 H29A 111.1 . . ? 
C28 C29 H29A 111.1 . . ? 
C30 C29 H29B 111.1 . . ? 
C28 C29 H29B 111.1 . . ? 
H29A C29 H29B 109.0 . . ? 
C31 C30 C29 103.12(18) . . ? 
C31 C30 H30A 111.1 . . ? 
C29 C30 H30A 111.1 . . ? 
C31 C30 H30B 111.1 . . ? 
C29 C30 H30B 111.1 . . ? 
H30A C30 H30B 109.1 . . ? 
C30 C31 C32 106.16(18) . . ? 
C30 C31 H31A 110.5 . . ? 
C32 C31 H31A 110.5 . . ? 
C30 C31 H31B 110.5 . . ? 
C32 C31 H31B 110.5 . . ? 
H31A C31 H31B 108.7 . . ? 
C31 C32 C28 105.24(19) . . ? 
C31 C32 H32A 110.7 . . ? 
C28 C32 H32A 110.7 . . ? 
C31 C32 H32B 110.7 . . ? 
C28 C32 H32B 110.7 . . ? 
H32A C32 H32B 108.8 . . ? 
C37 C33 C34 102.67(14) . . ? 
C37 C33 Si1 118.78(12) . . ? 
C34 C33 Si1 113.05(12) . . ? 
C37 C33 H33 107.2 . . ? 
C34 C33 H33 107.2 . . ? 
Si1 C33 H33 107.2 . . ? 
C35 C34 C33 105.26(15) . . ? 
C35 C34 H34A 110.7 . . ? 
C33 C34 H34A 110.7 . . ? 
C35 C34 H34B 110.7 . . ? 
C33 C34 H34B 110.7 . . ? 
H34A C34 H34B 108.8 . . ? 
C34 C35 C36 107.03(15) . . ? 
C34 C35 H35A 110.3 . . ? 
C36 C35 H35A 110.3 . . ? 
C34 C35 H35B 110.3 . . ? 
C36 C35 H35B 110.3 . . ? 
H35A C35 H35B 108.6 . . ? 
C35 C36 C37 106.78(15) . . ? 
C35 C36 H36A 110.4 . . ? 
C37 C36 H36A 110.4 . . ? 
C35 C36 H36B 110.4 . . ? 
C37 C36 H36B 110.4 . . ? 
H36A C36 H36B 108.6 . . ? 
C36 C37 C33 104.80(15) . . ? 
C36 C37 H37A 110.8 . . ? 
C33 C37 H37A 110.8 . . ? 
C36 C37 H37B 110.8 . . ? 
C33 C37 H37B 110.8 . . ? 
H37A C37 H37B 108.9 . . ? 
C39 C38 C11 177.10(18) . . ? 
C38 C39 Si2 177.79(16) . . ? 
C41 C40 C44 103.39(15) . . ? 
C41 C40 Si2 117.38(13) . . ? 
C44 C40 Si2 114.19(13) . . ? 
C41 C40 H40 107.1 . . ? 
C44 C40 H40 107.1 . . ? 
Si2 C40 H40 107.1 . . ? 
C42 C41 C40 107.31(16) . . ? 
C42 C41 H41A 110.3 . . ? 
C40 C41 H41A 110.3 . . ? 
C42 C41 H41B 110.3 . . ? 
C40 C41 H41B 110.3 . . ? 
H41A C41 H41B 108.5 . . ? 
C41 C42 C43 107.19(17) . . ? 
C41 C42 H42A 110.3 . . ? 
C43 C42 H42A 110.3 . . ? 
C41 C42 H42B 110.3 . . ? 
C43 C42 H42B 110.3 . . ? 
H42A C42 H42B 108.5 . . ? 
C42 C43 C44 104.71(16) . . ? 
C42 C43 H43A 110.8 . . ? 
C44 C43 H43A 110.8 . . ? 
C42 C43 H43B 110.8 . . ? 
C44 C43 H43B 110.8 . . ? 
H43A C43 H43B 108.9 . . ? 
C43 C44 C40 103.86(16) . . ? 
C43 C44 H44A 111.0 . . ? 
C40 C44 H44A 111.0 . . ? 
C43 C44 H44B 111.0 . . ? 
C40 C44 H44B 111.0 . . ? 
H44A C44 H44B 109.0 . . ? 
C49 C45 C46 103.87(15) . . ? 
C49 C45 Si2 117.67(13) . . ? 
C46 C45 Si2 114.81(12) . . ? 
C49 C45 H45 106.6 . . ? 
C46 C45 H45 106.6 . . ? 
Si2 C45 H45 106.6 . . ? 
C47 C46 C45 105.30(15) . . ? 
C47 C46 H46A 110.7 . . ? 
C45 C46 H46A 110.7 . . ? 
C47 C46 H46B 110.7 . . ? 
C45 C46 H46B 110.7 . . ? 
H46A C46 H46B 108.8 . . ? 
C48 C47 C46 105.49(18) . . ? 
C48 C47 H47A 110.6 . . ? 
C46 C47 H47A 110.6 . . ? 
C48 C47 H47B 110.6 . . ? 
C46 C47 H47B 110.6 . . ? 
H47A C47 H47B 108.8 . . ? 
C49 C48 C47 105.9(3) . . ? 
C49 C48 H48A 110.6 . . ? 
C47 C48 H48A 110.6 . . ? 
C49 C48 H48B 110.6 . . ? 
C47 C48 H48B 110.6 . . ? 
H48A C48 H48B 108.7 . . ? 
C48 C49 C45 101.70(19) . . ? 
C48 C49 H49A 111.4 . . ? 
C45 C49 H49A 111.4 . . ? 
C48 C49 H49B 111.4 . . ? 
C45 C49 H49B 111.4 . . ? 
H49A C49 H49B 109.3 . . ? 
H48C C48' H48D 108.8 . . ? 
C51 C50 C54 103.66(16) . . ? 
C51 C50 Si2 115.52(13) . . ? 
C54 C50 Si2 115.56(13) . . ? 
C51 C50 H50 107.2 . . ? 
C54 C50 H50 107.2 . . ? 
Si2 C50 H50 107.2 . . ? 
C52 C51 C50 103.43(18) . . ? 
C52 C51 H51A 111.1 . . ? 
C50 C51 H51A 111.1 . . ? 
C52 C51 H51B 111.1 . . ? 
C50 C51 H51B 111.1 . . ? 
H51A C51 H51B 109.0 . . ? 
C53 C52 C51 103.43(19) . . ? 
C53 C52 H52A 111.1 . . ? 
C51 C52 H52A 111.1 . . ? 
C53 C52 H52B 111.1 . . ? 
C51 C52 H52B 111.1 . . ? 
H52A C52 H52B 109.0 . . ? 
C52 C53 C54 105.78(18) . . ? 
C52 C53 H53A 110.6 . . ? 
C54 C53 H53A 110.6 . . ? 
C52 C53 H53B 110.6 . . ? 
C54 C53 H53B 110.6 . . ? 
H53A C53 H53B 108.7 . . ? 
C53 C54 C50 106.43(19) . . ? 
C53 C54 H54A 110.4 . . ? 
C50 C54 H54A 110.4 . . ? 
C53 C54 H54B 110.4 . . ? 
C50 C54 H54B 110.4 . . ? 
H54A C54 H54B 108.6 . . ? 
O1 C55 N1 121.68(16) . . ? 
O1 C55 C6 118.05(15) . . ? 
N1 C55 C6 120.26(15) . . ? 
N1 C56 C57 103.62(14) . . ? 
N1 C56 H56A 111.0 . . ? 
C57 C56 H56A 111.0 . . ? 
N1 C56 H56B 111.0 . . ? 
C57 C56 H56B 111.0 . . ? 
H56A C56 H56B 109.0 . . ? 
C58 C57 C56 104.09(14) . . ? 
C58 C57 H57A 110.9 . . ? 
C56 C57 H57A 110.9 . . ? 
C58 C57 H57B 110.9 . . ? 
C56 C57 H57B 110.9 . . ? 
H57A C57 H57B 109.0 . . ? 
C57 C58 C59 103.99(15) . . ? 
C57 C58 H58A 111.0 . . ? 
C59 C58 H58A 111.0 . . ? 
C57 C58 H58B 111.0 . . ? 
C59 C58 H58B 111.0 . . ? 
H58A C58 H58B 109.0 . . ? 
N1 C59 C58 103.36(14) . . ? 
N1 C59 H59A 111.1 . . ? 
C58 C59 H59A 111.1 . . ? 
N1 C59 H59B 111.1 . . ? 
C58 C59 H59B 111.1 . . ? 
H59A C59 H59B 109.1 . . ? 
O2 C60 N2 121.53(15) . . ? 
O2 C60 C16 117.42(15) . . ? 
N2 C60 C16 121.02(15) . . ? 
N2 C61 C62 104.17(15) . . ? 
N2 C61 H61A 110.9 . . ? 
C62 C61 H61A 110.9 . . ? 
N2 C61 H61B 110.9 . . ? 
C62 C61 H61B 110.9 . . ? 
H61A C61 H61B 108.9 . . ? 
C63 C62 C61 103.77(16) . . ? 
C63 C62 H62A 111.0 . . ? 
C61 C62 H62A 111.0 . . ? 
C63 C62 H62B 111.0 . . ? 
C61 C62 H62B 111.0 . . ? 
H62A C62 H62B 109.0 . . ? 
C62 C63 C64 104.68(15) . . ? 
C62 C63 H63A 110.8 . . ? 
C64 C63 H63A 110.8 . . ? 
C62 C63 H63B 110.8 . . ? 
C64 C63 H63B 110.8 . . ? 
H63A C63 H63B 108.9 . . ? 
N2 C64 C63 103.61(15) . . ? 
N2 C64 H64A 111.0 . . ? 
C63 C64 H64A 111.0 . . ? 
N2 C64 H64B 111.0 . . ? 
C63 C64 H64B 111.0 . . ? 
H64A C64 H64B 109.0 . . ? 
C2T C1T C6T 118.62(19) . . ? 
C2T C1T C7T 120.93(18) . . ? 
C6T C1T C7T 120.45(17) . . ? 
C3T C2T C1T 120.8(2) . . ? 
C3T C2T H2T 119.6 . . ? 
C1T C2T H2T 119.6 . . ? 
C2T C3T C4T 120.4(2) . . ? 
C2T C3T H3T 119.8 . . ? 
C4T C3T H3T 119.8 . . ? 
C3T C4T C5T 119.7(2) . . ? 
C3T C4T H4T 120.1 . . ? 
C5T C4T H4T 120.1 . . ? 
C6T C5T C4T 119.6(2) . . ? 
C6T C5T H5T 120.2 . . ? 
C4T C5T H5T 120.2 . . ? 
C5T C6T C1T 120.85(19) . . ? 
C5T C6T H6T 119.6 . . ? 
C1T C6T H6T 119.6 . . ? 
C1T C7T H7T1 109.5 . . ? 
C1T C7T H7T2 109.5 . . ? 
H7T1 C7T H7T2 109.5 . . ? 
C1T C7T H7T3 109.5 . . ? 
H7T1 C7T H7T3 109.5 . . ? 
H7T2 C7T H7T3 109.5 . . ? 
 
loop_ 
 _geom_torsion_atom_site_label_1 
 _geom_torsion_atom_site_label_2 
 _geom_torsion_atom_site_label_3 
 _geom_torsion_atom_site_label_4 
 _geom_torsion 
 _geom_torsion_site_symmetry_1 
 _geom_torsion_site_symmetry_2 
 _geom_torsion_site_symmetry_3 
 _geom_torsion_site_symmetry_4 
 _geom_torsion_publ_flag 
C20 C1 C2 C3 175.49(14) . . . . ? 
C21 C1 C2 C3 -4.0(2) . . . . ? 
C20 C1 C2 C10 -3.0(2) . . . . ? 
C21 C1 C2 C10 177.57(14) . . . . ? 
C1 C2 C3 C4 -177.58(15) . . . . ? 
C10 C2 C3 C4 0.9(2) . . . . ? 
C2 C3 C4 C8 -1.6(2) . . . . ? 
C2 C3 C4 S5 178.24(12) . . . . ? 
C3 C4 S5 C6 -178.95(15) . . . . ? 
C8 C4 S5 C6 0.87(12) . . . . ? 
C4 S5 C6 C7 -1.62(13) . . . . ? 
C4 S5 C6 C55 179.46(12) . . . . ? 
C55 C6 C7 C8 -179.48(17) . . . . ? 
S5 C6 C7 C8 1.90(18) . . . . ? 
C3 C4 C8 C9 0.7(2) . . . . ? 
S5 C4 C8 C9 -179.12(12) . . . . ? 
C3 C4 C8 C7 179.83(15) . . . . ? 
S5 C4 C8 C7 0.00(17) . . . . ? 
C6 C7 C8 C9 177.82(16) . . . . ? 
C6 C7 C8 C4 -1.2(2) . . . . ? 
C4 C8 C9 C10 0.9(2) . . . . ? 
C7 C8 C9 C10 -178.09(15) . . . . ? 
C8 C9 C10 C11 177.79(14) . . . . ? 
C8 C9 C10 C2 -1.5(2) . . . . ? 
C1 C2 C10 C11 -0.2(2) . . . . ? 
C3 C2 C10 C11 -178.67(14) . . . . ? 
C1 C2 C10 C9 179.14(14) . . . . ? 
C3 C2 C10 C9 0.7(2) . . . . ? 
C9 C10 C11 C12 -176.67(14) . . . . ? 
C2 C10 C11 C12 2.6(2) . . . . ? 
C9 C10 C11 C38 2.9(2) . . . . ? 
C2 C10 C11 C38 -177.79(14) . . . . ? 
C10 C11 C12 C13 178.44(14) . . . . ? 
C38 C11 C12 C13 -1.1(2) . . . . ? 
C10 C11 C12 C20 -2.0(2) . . . . ? 
C38 C11 C12 C20 178.48(14) . . . . ? 
C11 C12 C13 C14 179.60(15) . . . . ? 
C20 C12 C13 C14 0.0(2) . . . . ? 
C12 C13 C14 C18 1.1(2) . . . . ? 
C12 C13 C14 C15 -178.82(15) . . . . ? 
C13 C14 C15 C16 -179.65(16) . . . . ? 
C18 C14 C15 C16 0.4(2) . . . . ? 
C14 C15 C16 C60 -179.63(17) . . . . ? 
C14 C15 C16 S17 0.78(18) . . . . ? 
C15 C16 S17 C18 -1.38(13) . . . . ? 
C60 C16 S17 C18 178.93(12) . . . . ? 
C13 C14 C18 C19 -0.9(2) . . . . ? 
C15 C14 C18 C19 179.07(15) . . . . ? 
C13 C14 C18 S17 178.63(12) . . . . ? 
C15 C14 C18 S17 -1.45(17) . . . . ? 
C16 S17 C18 C19 -178.97(16) . . . . ? 
C16 S17 C18 C14 1.58(12) . . . . ? 
C14 C18 C19 C20 -0.5(2) . . . . ? 
S17 C18 C19 C20 -179.90(12) . . . . ? 
C2 C1 C20 C19 -176.58(14) . . . . ? 
C21 C1 C20 C19 2.9(2) . . . . ? 
C2 C1 C20 C12 3.7(2) . . . . ? 
C21 C1 C20 C12 -176.89(14) . . . . ? 
C18 C19 C20 C1 -178.19(15) . . . . ? 
C18 C19 C20 C12 1.6(2) . . . . ? 
C13 C12 C20 C1 178.44(14) . . . . ? 
C11 C12 C20 C1 -1.2(2) . . . . ? 
C13 C12 C20 C19 -1.3(2) . . . . ? 
C11 C12 C20 C19 179.05(14) . . . . ? 
C22 Si1 C23 C24 65.17(16) . . . . ? 
C33 Si1 C23 C24 -57.35(16) . . . . ? 
C28 Si1 C23 C24 179.47(14) . . . . ? 
C22 Si1 C23 C27 -54.24(14) . . . . ? 
C33 Si1 C23 C27 -176.77(12) . . . . ? 
C28 Si1 C23 C27 60.05(15) . . . . ? 
C27 C23 C24 C25 -37.1(2) . . . . ? 
Si1 C23 C24 C25 -162.46(15) . . . . ? 
C23 C24 C25 C26 39.1(2) . . . . ? 
C24 C25 C26 C27 -25.4(2) . . . . ? 
C25 C26 C27 C23 2.3(2) . . . . ? 
C24 C23 C27 C26 21.49(19) . . . . ? 
Si1 C23 C27 C26 147.23(13) . . . . ? 
C22 Si1 C28 C29 62.07(16) . . . . ? 
C33 Si1 C28 C29 -178.29(14) . . . . ? 
C23 Si1 C28 C29 -52.54(16) . . . . ? 
C22 Si1 C28 C32 -58.46(14) . . . . ? 
C33 Si1 C28 C32 61.19(14) . . . . ? 
C23 Si1 C28 C32 -173.06(12) . . . . ? 
C32 C28 C29 C30 -30.8(2) . . . . ? 
Si1 C28 C29 C30 -154.59(14) . . . . ? 
C28 C29 C30 C31 41.5(2) . . . . ? 
C29 C30 C31 C32 -36.3(2) . . . . ? 
C30 C31 C32 C28 16.9(2) . . . . ? 
C29 C28 C32 C31 8.76(19) . . . . ? 
Si1 C28 C32 C31 135.98(14) . . . . ? 
C22 Si1 C33 C37 -50.91(15) . . . . ? 
C23 Si1 C33 C37 67.59(15) . . . . ? 
C28 Si1 C33 C37 -165.66(13) . . . . ? 
C22 Si1 C33 C34 -171.28(13) . . . . ? 
C23 Si1 C33 C34 -52.78(16) . . . . ? 
C28 Si1 C33 C34 73.96(15) . . . . ? 
C37 C33 C34 C35 35.0(2) . . . . ? 
Si1 C33 C34 C35 164.18(14) . . . . ? 
C33 C34 C35 C36 -21.4(2) . . . . ? 
C34 C35 C36 C37 -0.8(2) . . . . ? 
C35 C36 C37 C33 22.8(2) . . . . ? 
C34 C33 C37 C36 -35.32(19) . . . . ? 
Si1 C33 C37 C36 -160.87(13) . . . . ? 
C39 Si2 C40 C41 43.31(16) . . . . ? 
C45 Si2 C40 C41 161.05(14) . . . . ? 
C50 Si2 C40 C41 -74.29(16) . . . . ? 
C39 Si2 C40 C44 164.54(14) . . . . ? 
C45 Si2 C40 C44 -77.72(15) . . . . ? 
C50 Si2 C40 C44 46.94(17) . . . . ? 
C44 C40 C41 C42 21.5(2) . . . . ? 
Si2 C40 C41 C42 148.24(16) . . . . ? 
C40 C41 C42 C43 0.2(3) . . . . ? 
C41 C42 C43 C44 -22.4(2) . . . . ? 
C42 C43 C44 C40 35.7(2) . . . . ? 
C41 C40 C44 C43 -35.1(2) . . . . ? 
Si2 C40 C44 C43 -163.79(14) . . . . ? 
C39 Si2 C45 C49 -48.44(16) . . . . ? 
C40 Si2 C45 C49 -166.42(13) . . . . ? 
C50 Si2 C45 C49 69.65(15) . . . . ? 
C39 Si2 C45 C46 -171.16(13) . . . . ? 
C40 Si2 C45 C46 70.85(15) . . . . ? 
C50 Si2 C45 C46 -53.07(16) . . . . ? 
C49 C45 C46 C47 22.4(2) . . . . ? 
Si2 C45 C46 C47 152.24(14) . . . . ? 
C45 C46 C47 C48 2.4(3) . . . . ? 
C46 C47 C48 C49 -27.8(3) . . . . ? 
C47 C48 C49 C45 41.5(3) . . . . ? 
C46 C45 C49 C48 -39.1(3) . . . . ? 
Si2 C45 C49 C48 -167.2(2) . . . . ? 
C39 Si2 C50 C51 -58.63(15) . . . . ? 
C45 Si2 C50 C51 -177.44(13) . . . . ? 
C40 Si2 C50 C51 59.95(15) . . . . ? 
C39 Si2 C50 C54 62.59(16) . . . . ? 
C45 Si2 C50 C54 -56.22(16) . . . . ? 
C40 Si2 C50 C54 -178.83(14) . . . . ? 
C54 C50 C51 C52 35.0(2) . . . . ? 
Si2 C50 C51 C52 162.48(14) . . . . ? 
C50 C51 C52 C53 -42.3(2) . . . . ? 
C51 C52 C53 C54 32.5(2) . . . . ? 
C52 C53 C54 C50 -10.7(2) . . . . ? 
C51 C50 C54 C53 -15.2(2) . . . . ? 
Si2 C50 C54 C53 -142.58(15) . . . . ? 
C56 N1 C55 O1 -169.26(16) . . . . ? 
C59 N1 C55 O1 1.6(2) . . . . ? 
C56 N1 C55 C6 12.0(3) . . . . ? 
C59 N1 C55 C6 -177.12(15) . . . . ? 
C7 C6 C55 O1 -177.41(18) . . . . ? 
S5 C6 C55 O1 1.2(2) . . . . ? 
C7 C6 C55 N1 1.4(3) . . . . ? 
S5 C6 C55 N1 -179.98(13) . . . . ? 
C55 N1 C56 C57 161.63(17) . . . . ? 
C59 N1 C56 C57 -9.76(19) . . . . ? 
N1 C56 C57 C58 28.29(18) . . . . ? 
C56 C57 C58 C59 -36.44(18) . . . . ? 
C55 N1 C59 C58 175.02(15) . . . . ? 
C56 N1 C59 C58 -12.63(18) . . . . ? 
C57 C58 C59 N1 29.95(18) . . . . ? 
C61 N2 C60 O2 -177.38(16) . . . . ? 
C64 N2 C60 O2 -1.4(2) . . . . ? 
C61 N2 C60 C16 0.8(3) . . . . ? 
C64 N2 C60 C16 176.78(15) . . . . ? 
C15 C16 C60 O2 -174.83(18) . . . . ? 
S17 C16 C60 O2 4.77(19) . . . . ? 
C15 C16 C60 N2 6.9(3) . . . . ? 
S17 C16 C60 N2 -173.51(13) . . . . ? 
C60 N2 C61 C62 164.88(17) . . . . ? 
C64 N2 C61 C62 -11.31(19) . . . . ? 
N2 C61 C62 C63 27.98(18) . . . . ? 
C61 C62 C63 C64 -34.52(19) . . . . ? 
C60 N2 C64 C63 173.37(15) . . . . ? 
C61 N2 C64 C63 -10.03(19) . . . . ? 
C62 C63 C64 N2 27.41(19) . . . . ? 
C6T C1T C2T C3T -0.2(3) . . . . ? 
C7T C1T C2T C3T -179.78(18) . . . . ? 
C1T C2T C3T C4T 0.1(3) . . . . ? 
C2T C3T C4T C5T -0.4(3) . . . . ? 
C3T C4T C5T C6T 0.7(3) . . . . ? 
C4T C5T C6T C1T -0.9(3) . . . . ? 
C2T C1T C6T C5T 0.6(3) . . . . ? 
C7T C1T C6T C5T -179.84(17) . . . . ? 
 
_diffrn_measured_fraction_theta_max    0.983 
_diffrn_reflns_theta_full              68.24 
_diffrn_measured_fraction_theta_full   0.983 
_refine_diff_density_max    0.759 
_refine_diff_density_min   -0.366 
_refine_diff_density_rms    0.052 
