data_x10159 

# start Validation Reply Form
_vrf_PLAT220_x10159
;
PROBLEM: Large Non-Solvent    C     Ueq(max)/Ueq(min) ...       5.05 Ratio
RESPONSE: This is a consequence of the disorder.  No useful additional
information would result from placing additional restraints on ill-defined
portions of this structure.  The alert is of no consequence.
;
# end Validation Reply Form
 
_audit_creation_method            SHELXL-97 
_chemical_name_systematic 
; 
 ? 
; 
_chemical_name_common             ? 
_chemical_melting_point           ? 
_chemical_formula_moiety 
 '2(C48 H48 N2 O2 S2 Si2), 2.20421(C3 H6 O)' 
_chemical_formula_sum 
 'C102.60 H109.21 N4 O6.20 S4 Si4' 
_chemical_formula_weight          1738.29 
 
loop_ 
 _atom_type_symbol 
 _atom_type_description 
 _atom_type_scat_dispersion_real 
 _atom_type_scat_dispersion_imag 
 _atom_type_scat_source 
 'C'  'C'   0.0181   0.0091 
 'International Tables Vol C Tables 4.2.6.8 and 6.1.1.4' 
 'H'  'H'   0.0000   0.0000 
 'International Tables Vol C Tables 4.2.6.8 and 6.1.1.4' 
 'N'  'N'   0.0311   0.0180 
 'International Tables Vol C Tables 4.2.6.8 and 6.1.1.4' 
 'O'  'O'   0.0492   0.0322 
 'International Tables Vol C Tables 4.2.6.8 and 6.1.1.4' 
 'Si'  'Si'   0.2541   0.3302 
 'International Tables Vol C Tables 4.2.6.8 and 6.1.1.4' 
 'S'  'S'   0.3331   0.5567 
 'International Tables Vol C Tables 4.2.6.8 and 6.1.1.4' 
 
_symmetry_cell_setting            triclinic 
_symmetry_space_group_name_H-M    'P -1'
_symmetry_space_group_name_Hall   '-P 1'
 
loop_ 
 _symmetry_equiv_pos_as_xyz 
 'x, y, z' 
 '-x, -y, -z' 
 
_cell_length_a                    14.7793(7) 
_cell_length_b                    17.6332(8) 
_cell_length_c                    20.4037(9) 
_cell_angle_alpha                 104.426(3) 
_cell_angle_beta                  105.135(3) 
_cell_angle_gamma                 105.495(3) 
_cell_volume                      4646.6(4) 
_cell_formula_units_Z             2 
_cell_measurement_temperature     90.0(2) 
_cell_measurement_reflns_used     9900 
_cell_measurement_theta_min       2.39
_cell_measurement_theta_max       68.05
 
_exptl_crystal_description        block 
_exptl_crystal_colour             red
_exptl_crystal_size_max           0.10 
_exptl_crystal_size_mid           0.08 
_exptl_crystal_size_min           0.06 
_exptl_crystal_density_meas       ? 
_exptl_crystal_density_diffrn     1.242 
_exptl_crystal_density_method     'not measured' 
_exptl_crystal_F_000              1845 
_exptl_absorpt_coefficient_mu     1.878 
_exptl_absorpt_correction_type    multi-scan 
_exptl_absorpt_correction_T_min   0.834 
_exptl_absorpt_correction_T_max   0.896 
_exptl_absorpt_process_details    'Sadabs in APEX2 (BrukerAXS, 2006)' 
 
_exptl_special_details 
; 
 ? 
; 
 
_diffrn_ambient_temperature       90.0(2) 
_diffrn_radiation_wavelength      1.54178 
_diffrn_radiation_type            CuK\a 
_diffrn_radiation_source          'fine-focus rotating anode' 
_diffrn_radiation_monochromator   'graded multilayer optics' 
_diffrn_measurement_device_type   'Bruker X8 Proteum diffractometer'
_diffrn_measurement_method        '\f and \w scans'            
_diffrn_detector_area_resol_mean  5.6
_diffrn_standards_number          0 
_diffrn_standards_interval_count  . 
_diffrn_standards_interval_time   . 
_diffrn_standards_decay_%         ? 
_diffrn_reflns_number             60874 
_diffrn_reflns_av_R_equivalents   0.0909 
_diffrn_reflns_av_sigmaI/netI     0.0841 
_diffrn_reflns_limit_h_min        -17 
_diffrn_reflns_limit_h_max        17 
_diffrn_reflns_limit_k_min        -20 
_diffrn_reflns_limit_k_max        21 
_diffrn_reflns_limit_l_min        -24 
_diffrn_reflns_limit_l_max        24 
_diffrn_reflns_theta_min          2.39 
_diffrn_reflns_theta_max          68.43 
_reflns_number_total              16415 
_reflns_number_gt                 10891 
_reflns_threshold_expression      >2\s(I)    
 
_computing_data_collection        'APEX2 (Bruker-AXS, 2006)'            
_computing_cell_refinement        'APEX2'
_computing_data_reduction         'APEX2'
_computing_structure_solution     'SHELXS-97 (Sheldrick, 2008)' 
_computing_structure_refinement   'SHELXL-97 (Sheldrick, 2008)' 
_computing_molecular_graphics     'XP in SHELXTL (Sheldrick, 2008)'
_computing_publication_material
; 
SHELX-97 (Sheldrick, 2008) and local procedures 
; 
 
_publ_section_exptl_refinement
;
H atoms were found in difference Fourier maps and subsequently placed in
idealized positions with constrained distances of 0.98 \%A (RCH~3~), 
0.99 \%A (R~2~CH~2~), 1.00 \%A (R~3~CH), 0.95 \%A (C~Ar~H), 0.88 \%A (N-H),
and with U~iso~(H) values set to either 1.2U~eq~ or 1.5U~eq~ (RCH~3~) of 
the attached atom. 

There was extensive disorder in the structure, including three-part 
disorder of an ethyl group on one triethylsilyl group, which was 
correlated with a partial occupancy acetone solvent molecule.  To 
ensure satisfactory refinement, a number of constraints (EXYZ and EADP)
and restraints (SAME, SIMU, DELU, SUMP) of the SHELXL-97 program were used.
;

_refine_special_details 
; 
 Refinement of F^2^ against ALL reflections.  The weighted R-factor wR and 
 goodness of fit S are based on F^2^, conventional R-factors R are based 
 on F, with F set to zero for negative F^2^. The threshold expression of 
 F^2^ > 2\s(F^2^) is used only for calculating R-factors(gt) etc. and is 
 not relevant to the choice of reflections for refinement.  R-factors based 
 on F^2^ are statistically about twice as large as those based on F, and R- 
 factors based on ALL data will be even larger. 
; 
 
_refine_ls_structure_factor_coef  Fsqd  
_refine_ls_matrix_type            full 
_refine_ls_weighting_scheme       calc  
_refine_ls_weighting_details 
 'calc w=1/[\s^2^(Fo^2^)+(0.0829P)^2^+13.2136P] where P=(Fo^2^+2Fc^2^)/3' 
_atom_sites_solution_primary      direct 
_atom_sites_solution_secondary    difmap 
_atom_sites_solution_hydrogens    geom 
_refine_ls_hydrogen_treatment     constr 
_refine_ls_extinction_method      none 
_refine_ls_extinction_coef        ? 
_refine_ls_number_reflns          16415 
_refine_ls_number_parameters      1136 
_refine_ls_number_restraints      27 
_refine_ls_R_factor_all           0.1246 
_refine_ls_R_factor_gt            0.0829 
_refine_ls_wR_factor_ref          0.2331 
_refine_ls_wR_factor_gt           0.2051 
_refine_ls_goodness_of_fit_ref    1.076 
_refine_ls_restrained_S_all       1.076 
_refine_ls_shift/su_max           0.000 
_refine_ls_shift/su_mean          0.000 
 
loop_ 
 _atom_site_label 
 _atom_site_type_symbol 
 _atom_site_fract_x 
 _atom_site_fract_y 
 _atom_site_fract_z 
 _atom_site_U_iso_or_equiv 
 _atom_site_adp_type 
 _atom_site_occupancy 
 _atom_site_symmetry_multiplicity 
 _atom_site_calc_flag 
 _atom_site_refinement_flags 
 _atom_site_disorder_assembly 
 _atom_site_disorder_group 
Si1A Si 0.22080(11) 1.00814(8) 0.56928(8) 0.0336(3) Uani 1 1 d . . . 
Si2A Si 0.13099(12) 0.43778(9) 0.77538(8) 0.0385(4) Uani 1 1 d . . . 
N1A N 0.1111(3) 0.8759(3) 1.0469(2) 0.0334(9) Uani 1 1 d . . . 
H1A H 0.1168 0.8269 1.0308 0.040 Uiso 1 1 calc R . . 
N2A N 0.1258(3) 0.3715(2) 0.2866(2) 0.0312(9) Uani 1 1 d . . . 
H2A H 0.1134 0.3510 0.3198 0.037 Uiso 1 1 calc R . . 
O1A O 0.1086(3) 0.9922(2) 1.01689(19) 0.0387(9) Uani 1 1 d . . . 
O2A O 0.1531(3) 0.4906(2) 0.2581(2) 0.0416(9) Uani 1 1 d . . . 
C1A C 0.1590(4) 0.7782(3) 0.6324(3) 0.0259(10) Uani 1 1 d . . . 
C2A C 0.1486(3) 0.7822(3) 0.6999(3) 0.0266(10) Uani 1 1 d . . . 
C3A C 0.1512(4) 0.8574(3) 0.7485(3) 0.0282(10) Uani 1 1 d . . . 
H3A H 0.1609 0.9066 0.7361 0.034 Uiso 1 1 calc R . . 
C4A C 0.1397(4) 0.8581(3) 0.8126(3) 0.0301(11) Uani 1 1 d . . . 
S5A S 0.13844(10) 0.94219(7) 0.87844(7) 0.0310(3) Uani 1 1 d . . . 
C6A C 0.1232(4) 0.8810(3) 0.9336(3) 0.0303(11) Uani 1 1 d . . . 
C7A C 0.1196(4) 0.8024(3) 0.9041(3) 0.0304(11) Uani 1 1 d . . . 
H7A H 0.1116 0.7619 0.9274 0.036 Uiso 1 1 calc R . . 
C8A C 0.1290(4) 0.7857(3) 0.8344(3) 0.0299(11) Uani 1 1 d . . . 
C9A C 0.1269(4) 0.7132(3) 0.7886(3) 0.0281(10) Uani 1 1 d . . . 
H9A H 0.1200 0.6654 0.8030 0.034 Uiso 1 1 calc R . . 
C10A C 0.1349(3) 0.7086(3) 0.7204(3) 0.0267(10) Uani 1 1 d . . . 
C11A C 0.1313(4) 0.6333(3) 0.6717(3) 0.0267(10) Uani 1 1 d . A . 
C12A C 0.1362(3) 0.6282(3) 0.6030(3) 0.0265(10) Uani 1 1 d . . . 
C13A C 0.1271(4) 0.5521(3) 0.5525(3) 0.0283(10) Uani 1 1 d . . . 
H13A H 0.1171 0.5029 0.5652 0.034 Uiso 1 1 calc R . . 
C14A C 0.1324(4) 0.5488(3) 0.4858(3) 0.0271(10) Uani 1 1 d . . . 
C15A C 0.1250(4) 0.4795(3) 0.4271(3) 0.0301(11) Uani 1 1 d . . . 
H15A H 0.1129 0.4243 0.4285 0.036 Uiso 1 1 calc R . . 
C16A C 0.1370(4) 0.5007(3) 0.3698(3) 0.0293(10) Uani 1 1 d . . . 
S17A S 0.15710(10) 0.60658(7) 0.38252(7) 0.0317(3) Uani 1 1 d . . . 
C18A C 0.1479(3) 0.6232(3) 0.4678(3) 0.0277(10) Uani 1 1 d . . . 
C19A C 0.1570(4) 0.6978(3) 0.5141(3) 0.0295(10) Uani 1 1 d . . . 
H19A H 0.1674 0.7462 0.5004 0.035 Uiso 1 1 calc R . . 
C20A C 0.1506(3) 0.7020(3) 0.5830(3) 0.0270(10) Uani 1 1 d . . . 
C21A C 0.1787(4) 0.8525(3) 0.6134(3) 0.0284(10) Uani 1 1 d . . . 
C22A C 0.1965(4) 0.9158(3) 0.5986(3) 0.0313(11) Uani 1 1 d . . . 
C23A C 0.1816(4) 0.9666(3) 0.4687(3) 0.0389(12) Uani 1 1 d . . . 
H23A H 0.1074 0.9433 0.4483 0.047 Uiso 1 1 calc R . . 
H23B H 0.2039 1.0142 0.4521 0.047 Uiso 1 1 calc R . . 
C24A C 0.2203(5) 0.8999(3) 0.4375(3) 0.0396(13) Uani 1 1 d . . . 
H24A H 0.2936 0.9233 0.4539 0.059 Uiso 1 1 calc R . . 
H24B H 0.1926 0.8810 0.3846 0.059 Uiso 1 1 calc R . . 
H24C H 0.1996 0.8524 0.4537 0.059 Uiso 1 1 calc R . . 
C25A C 0.3557(4) 1.0764(3) 0.6170(3) 0.0407(13) Uani 1 1 d . . . 
H25A H 0.3626 1.1330 0.6147 0.049 Uiso 1 1 calc R . . 
H25B H 0.3731 1.0815 0.6686 0.049 Uiso 1 1 calc R . . 
C26A C 0.4334(5) 1.0496(4) 0.5903(4) 0.0533(16) Uani 1 1 d . . . 
H26A H 0.4269 0.9930 0.5907 0.080 Uiso 1 1 calc R . . 
H26B H 0.5008 1.0886 0.6220 0.080 Uiso 1 1 calc R . . 
H26C H 0.4224 1.0501 0.5409 0.080 Uiso 1 1 calc R . . 
C27A C 0.1408(5) 1.0671(4) 0.5969(3) 0.0469(14) Uani 1 1 d . . . 
H27A H 0.1531 1.1167 0.5814 0.056 Uiso 1 1 calc R . . 
H27B H 0.0697 1.0309 0.5700 0.056 Uiso 1 1 calc R . . 
C28A C 0.1561(5) 1.0966(4) 0.6766(4) 0.0537(16) Uani 1 1 d . . . 
H28A H 0.1433 1.0482 0.6928 0.081 Uiso 1 1 calc R . . 
H28B H 0.1096 1.1254 0.6846 0.081 Uiso 1 1 calc R . . 
H28C H 0.2252 1.1352 0.7040 0.081 Uiso 1 1 calc R . . 
C29A C 0.1255(4) 0.5632(3) 0.6968(3) 0.0292(10) Uani 1 1 d . . . 
C30A C 0.1235(4) 0.5083(3) 0.7221(3) 0.0344(11) Uani 1 1 d . A . 
C31A C 0.1231(5) 0.3329(4) 0.7168(4) 0.0418(17) Uani 0.835(8) 1 d PDU A 1 
H31X H 0.1703 0.3427 0.6906 0.050 Uiso 0.835(8) 1 calc PR A 1 
H31Y H 0.1458 0.3024 0.7486 0.050 Uiso 0.835(8) 1 calc PR A 1 
C32A C 0.0173(8) 0.2760(6) 0.6608(5) 0.048(2) Uani 0.835(8) 1 d PD A 1 
H32X H -0.0295 0.2632 0.6862 0.072 Uiso 0.835(8) 1 calc PR A 1 
H32Y H 0.0207 0.2238 0.6324 0.072 Uiso 0.835(8) 1 calc PR A 1 
H32Z H -0.0059 0.3052 0.6286 0.072 Uiso 0.835(8) 1 calc PR A 1 
C31' C 0.034(3) 0.350(2) 0.7481(17) 0.042(5) Uiso 0.165(8) 1 d PDU A 2 
H31U H 0.0392 0.3232 0.7856 0.050 Uiso 0.165(8) 1 calc PR A 2 
H31V H -0.0293 0.3605 0.7372 0.050 Uiso 0.165(8) 1 calc PR A 2 
C32' C 0.041(5) 0.293(4) 0.679(3) 0.048(2) Uani 0.165(8) 1 d PD A 2 
H32U H -0.0149 0.2394 0.6596 0.072 Uiso 0.165(8) 1 calc PR A 2 
H32V H 0.1045 0.2840 0.6907 0.072 Uiso 0.165(8) 1 calc PR A 2 
H32W H 0.0362 0.3209 0.6425 0.072 Uiso 0.165(8) 1 calc PR A 2 
C33A C 0.0293(12) 0.4305(10) 0.8158(8) 0.038(4) Uiso 0.474(16) 1 d PDU A 1 
H33L H -0.0362 0.4095 0.7761 0.045 Uiso 0.474(16) 1 calc PR A 1 
H33M H 0.0287 0.3888 0.8405 0.045 Uiso 0.474(16) 1 calc PR A 1 
C34A C 0.0394(13) 0.5106(10) 0.8681(9) 0.048(4) Uiso 0.474(16) 1 d PDU A 1 
H34L H -0.0164 0.5012 0.8863 0.072 Uiso 0.474(16) 1 calc PR A 1 
H34M H 0.0382 0.5521 0.8440 0.072 Uiso 0.474(16) 1 calc PR A 1 
H34N H 0.1030 0.5313 0.9086 0.072 Uiso 0.474(16) 1 calc PR A 1 
C33' C 0.153(2) 0.516(2) 0.8777(18) 0.059(8) Uiso 0.204(7) 1 d PDU A 2 
H33O H 0.1751 0.4901 0.9140 0.070 Uiso 0.204(7) 1 calc PR A 2 
H33P H 0.2061 0.5703 0.8899 0.070 Uiso 0.204(7) 1 calc PR A 2 
C34' C 0.058(3) 0.529(3) 0.880(3) 0.052(9) Uiso 0.204(7) 1 d PDU A 2 
H34O H 0.0698 0.5661 0.9285 0.078 Uiso 0.204(7) 1 calc PR A 2 
H34P H 0.0058 0.4754 0.8686 0.078 Uiso 0.204(7) 1 calc PR A 2 
H34Q H 0.0369 0.5555 0.8446 0.078 Uiso 0.204(7) 1 calc PR A 2 
C33" C 0.0141(18) 0.4169(15) 0.8000(12) 0.036(5) Uiso 0.320(14) 1 d PDU A 3 
H33R H 0.0077 0.4711 0.8220 0.043 Uiso 0.320(14) 1 calc PR A 3 
H33S H -0.0451 0.3848 0.7553 0.043 Uiso 0.320(14) 1 calc PR A 3 
C34" C 0.0139(15) 0.3691(11) 0.8517(10) 0.046(5) Uiso 0.320(14) 1 d PDU A 3 
H34R H -0.0495 0.3585 0.8608 0.070 Uiso 0.320(14) 1 calc PR A 3 
H34S H 0.0699 0.4021 0.8974 0.070 Uiso 0.320(14) 1 calc PR A 3 
H34T H 0.0211 0.3156 0.8307 0.070 Uiso 0.320(14) 1 calc PR A 3 
C35A C 0.2526(5) 0.4871(4) 0.8509(4) 0.0437(17) Uani 0.835(8) 1 d PDU A 1 
H35J H 0.2567 0.5427 0.8801 0.052 Uiso 0.835(8) 1 calc PR A 1 
H35K H 0.2551 0.4524 0.8822 0.052 Uiso 0.835(8) 1 calc PR A 1 
C36A C 0.3430(7) 0.4980(10) 0.8273(13) 0.049(3) Uani 0.835(8) 1 d PD A 1 
H36J H 0.3404 0.4432 0.7990 0.073 Uiso 0.835(8) 1 calc PR A 1 
H36K H 0.4045 0.5241 0.8700 0.073 Uiso 0.835(8) 1 calc PR A 1 
H36L H 0.3425 0.5339 0.7975 0.073 Uiso 0.835(8) 1 calc PR A 1 
C35' C 0.256(2) 0.423(2) 0.7912(18) 0.041(5) Uiso 0.165(8) 1 d PDU A 2 
H35G H 0.2528 0.3793 0.8136 0.049 Uiso 0.165(8) 1 calc PR A 2 
H35H H 0.2581 0.3985 0.7427 0.049 Uiso 0.165(8) 1 calc PR A 2 
C36' C 0.358(4) 0.491(6) 0.834(7) 0.049(3) Uani 0.165(8) 1 d PD A 2 
H36G H 0.4103 0.4665 0.8367 0.073 Uiso 0.165(8) 1 calc PR A 2 
H36H H 0.3606 0.5180 0.8834 0.073 Uiso 0.165(8) 1 calc PR A 2 
H36I H 0.3692 0.5333 0.8108 0.073 Uiso 0.165(8) 1 calc PR A 2 
C37A C 0.1141(4) 0.9228(3) 1.0031(3) 0.0326(11) Uani 1 1 d . . . 
C38A C 0.0999(4) 0.8964(3) 1.1150(3) 0.0313(11) Uani 1 1 d . . . 
C39A C 0.0598(4) 0.9565(3) 1.1383(3) 0.0371(12) Uani 1 1 d . . . 
H39A H 0.0377 0.9858 1.1079 0.045 Uiso 1 1 calc R . . 
C40A C 0.0524(4) 0.9733(4) 1.2065(3) 0.0423(13) Uani 1 1 d . . . 
H40A H 0.0271 1.0156 1.2232 0.051 Uiso 1 1 calc R . . 
C41A C 0.0813(4) 0.9295(4) 1.2504(3) 0.0442(14) Uani 1 1 d . . . 
H41A H 0.0764 0.9421 1.2972 0.053 Uiso 1 1 calc R . . 
C42A C 0.1172(4) 0.8674(4) 1.2263(3) 0.0432(13) Uani 1 1 d . . . 
H42A H 0.1351 0.8359 1.2557 0.052 Uiso 1 1 calc R . . 
C43A C 0.1270(4) 0.8511(3) 1.1589(3) 0.0377(12) Uani 1 1 d . . . 
H43A H 0.1524 0.8087 1.1425 0.045 Uiso 1 1 calc R . . 
C44A C 0.1387(4) 0.4536(3) 0.2996(3) 0.0316(11) Uani 1 1 d . . . 
C45A C 0.1299(4) 0.3152(3) 0.2256(3) 0.0321(11) Uani 1 1 d . . . 
C46A C 0.1375(4) 0.2398(3) 0.2312(3) 0.0356(12) Uani 1 1 d . . . 
H46A H 0.1389 0.2281 0.2743 0.043 Uiso 1 1 calc R . . 
C47A C 0.1430(4) 0.1821(3) 0.1738(3) 0.0385(12) Uani 1 1 d . . . 
H47A H 0.1481 0.1308 0.1780 0.046 Uiso 1 1 calc R . . 
C48A C 0.1412(4) 0.1977(3) 0.1107(3) 0.0403(13) Uani 1 1 d . . . 
H48A H 0.1451 0.1577 0.0715 0.048 Uiso 1 1 calc R . . 
C49A C 0.1338(4) 0.2725(3) 0.1054(3) 0.0395(12) Uani 1 1 d . . . 
H49A H 0.1329 0.2837 0.0620 0.047 Uiso 1 1 calc R . . 
C50A C 0.1276(4) 0.3318(3) 0.1616(3) 0.0348(11) Uani 1 1 d . . . 
H50A H 0.1220 0.3827 0.1569 0.042 Uiso 1 1 calc R . . 
Si1B Si 0.35998(13) -0.33092(9) 0.20163(8) 0.0401(4) Uani 1 1 d . . . 
Si2B Si 0.33277(11) 0.22269(8) -0.01755(8) 0.0332(3) Uani 1 1 d . . . 
N1B N 0.3400(3) 0.2767(2) 0.4539(2) 0.0306(9) Uani 1 1 d . . . 
H1B H 0.3438 0.2940 0.4174 0.037 Uiso 1 1 calc R . . 
N2B N 0.3948(3) -0.2175(2) -0.2948(2) 0.0308(9) Uani 1 1 d . . . 
H2B H 0.3918 -0.1673 -0.2791 0.037 Uiso 1 1 calc R . . 
O1B O 0.3294(3) 0.1640(2) 0.49092(19) 0.0391(9) Uani 1 1 d . . . 
O2B O 0.3934(3) -0.3328(2) -0.2618(2) 0.0406(9) Uani 1 1 d . . . 
C1B C 0.3656(4) -0.1127(3) 0.1257(3) 0.0275(10) Uani 1 1 d . . . 
C2B C 0.3652(4) -0.0388(3) 0.1734(3) 0.0278(10) Uani 1 1 d . . . 
C3B C 0.3638(4) -0.0337(3) 0.2431(3) 0.0289(10) Uani 1 1 d . . . 
H3B H 0.3680 -0.0786 0.2601 0.035 Uiso 1 1 calc R . . 
C4B C 0.3563(3) 0.0358(3) 0.2865(3) 0.0287(10) Uani 1 1 d . . . 
S5B S 0.34872(10) 0.05120(7) 0.37162(6) 0.0312(3) Uani 1 1 d . . . 
C6B C 0.3421(4) 0.1503(3) 0.3770(3) 0.0300(11) Uani 1 1 d . . . 
C7B C 0.3440(4) 0.1695(3) 0.3169(3) 0.0309(11) Uani 1 1 d . . . 
H7B H 0.3410 0.2209 0.3116 0.037 Uiso 1 1 calc R . . 
C8B C 0.3511(4) 0.1043(3) 0.2621(3) 0.0295(11) Uani 1 1 d . . . 
C9B C 0.3546(4) 0.1020(3) 0.1954(3) 0.0272(10) Uani 1 1 d . . . 
H9B H 0.3525 0.1483 0.1800 0.033 Uiso 1 1 calc R . . 
C10B C 0.3612(4) 0.0306(3) 0.1490(3) 0.0279(10) Uani 1 1 d . . . 
C11B C 0.3648(3) 0.0259(3) 0.0794(3) 0.0270(10) Uani 1 1 d . . . 
C12B C 0.3704(3) -0.0467(3) 0.0332(3) 0.0275(10) Uani 1 1 d . . . 
C13B C 0.3769(4) -0.0509(3) -0.0353(3) 0.0280(10) Uani 1 1 d . . . 
H13B H 0.3801 -0.0038 -0.0505 0.034 Uiso 1 1 calc R . . 
C14B C 0.3787(4) -0.1226(3) -0.0800(3) 0.0287(10) Uani 1 1 d . . . 
C15B C 0.3865(4) -0.1398(3) -0.1506(3) 0.0289(10) Uani 1 1 d . . . 
H15B H 0.3924 -0.0999 -0.1746 0.035 Uiso 1 1 calc R . . 
C16B C 0.3847(4) -0.2182(3) -0.1795(3) 0.0312(11) Uani 1 1 d . . . 
S17B S 0.37285(10) -0.27821(7) -0.12316(7) 0.0312(3) Uani 1 1 d . . . 
C18B C 0.3712(4) -0.1940(3) -0.0576(3) 0.0273(10) Uani 1 1 d . . . 
C19B C 0.3653(4) -0.1922(3) 0.0081(3) 0.0290(11) Uani 1 1 d . . . 
H19B H 0.3603 -0.2405 0.0216 0.035 Uiso 1 1 calc R . . 
C20B C 0.3666(4) -0.1183(3) 0.0564(3) 0.0295(10) Uani 1 1 d . . . 
C21B C 0.3648(4) -0.1826(3) 0.1501(3) 0.0331(11) Uani 1 1 d . . . 
C22B C 0.3632(4) -0.2415(3) 0.1693(3) 0.0360(12) Uani 1 1 d . . . 
C23B C 0.4728(5) -0.3592(4) 0.1950(4) 0.0537(17) Uani 1 1 d . . . 
H23D H 0.4737 -0.4058 0.2136 0.064 Uiso 1 1 calc R . . 
H23E H 0.4657 -0.3795 0.1434 0.064 Uiso 1 1 calc R . . 
C24B C 0.5718(5) -0.2875(4) 0.2360(3) 0.0455(14) Uani 1 1 d . . . 
H24D H 0.5709 -0.2403 0.2191 0.068 Uiso 1 1 calc R . . 
H24E H 0.6263 -0.3057 0.2278 0.068 Uiso 1 1 calc R . . 
H24F H 0.5823 -0.2701 0.2878 0.068 Uiso 1 1 calc R . . 
C25B C 0.2415(6) -0.4207(4) 0.1434(4) 0.0623(18) Uani 1 1 d . . . 
H25D H 0.2407 -0.4690 0.1599 0.075 Uiso 1 1 calc R . . 
H25E H 0.1840 -0.4050 0.1495 0.075 Uiso 1 1 calc R . . 
C26B C 0.2280(9) -0.4473(8) 0.0642(5) 0.137(5) Uani 1 1 d . . . 
H26D H 0.2837 -0.4645 0.0573 0.205 Uiso 1 1 calc R . . 
H26E H 0.2270 -0.4004 0.0469 0.205 Uiso 1 1 calc R . . 
H26F H 0.1646 -0.4945 0.0368 0.205 Uiso 1 1 calc R . . 
C27B C 0.3652(6) -0.2956(4) 0.2975(4) 0.0548(17) Uani 1 1 d . . . 
H27D H 0.3516 -0.3448 0.3133 0.066 Uiso 1 1 calc R . . 
H27E H 0.4339 -0.2565 0.3285 0.066 Uiso 1 1 calc R . . 
C28B C 0.2911(5) -0.2524(4) 0.3088(3) 0.0477(14) Uani 1 1 d . . . 
H28D H 0.3075 -0.2009 0.2971 0.072 Uiso 1 1 calc R . . 
H28E H 0.2953 -0.2386 0.3594 0.072 Uiso 1 1 calc R . . 
H28F H 0.2230 -0.2900 0.2772 0.072 Uiso 1 1 calc R . . 
C29B C 0.3601(4) 0.0929(3) 0.0529(3) 0.0283(10) Uani 1 1 d . . . 
C30B C 0.3527(4) 0.1477(3) 0.0287(3) 0.0315(11) Uani 1 1 d . . . 
C31B C 0.1956(4) 0.1858(3) -0.0703(3) 0.0375(12) Uani 1 1 d . . . 
H31A H 0.1737 0.1269 -0.1022 0.045 Uiso 1 1 calc R . . 
H31B H 0.1587 0.1869 -0.0362 0.045 Uiso 1 1 calc R . . 
C32B C 0.1669(6) 0.2372(5) -0.1164(5) 0.079(3) Uani 1 1 d . . . 
H32A H 0.1789 0.2936 -0.0850 0.118 Uiso 1 1 calc R . . 
H32B H 0.0957 0.2102 -0.1466 0.118 Uiso 1 1 calc R . . 
H32C H 0.2075 0.2409 -0.1473 0.118 Uiso 1 1 calc R . . 
C33B C 0.4032(5) 0.2191(4) -0.0813(3) 0.0466(14) Uani 1 1 d . . . 
H33A H 0.3889 0.2553 -0.1096 0.056 Uiso 1 1 calc R . . 
H33B H 0.4760 0.2425 -0.0529 0.056 Uiso 1 1 calc R . . 
C34B C 0.3778(5) 0.1320(4) -0.1329(4) 0.0555(17) Uani 1 1 d . . . 
H34A H 0.3947 0.0963 -0.1054 0.083 Uiso 1 1 calc R . . 
H34B H 0.4164 0.1350 -0.1653 0.083 Uiso 1 1 calc R . . 
H34C H 0.3060 0.1084 -0.1615 0.083 Uiso 1 1 calc R . . 
C35B C 0.3794(5) 0.3306(3) 0.0519(3) 0.0489(15) Uani 1 1 d . . . 
H35A H 0.3311 0.3333 0.0773 0.059 Uiso 1 1 calc R . . 
H35B H 0.4441 0.3393 0.0881 0.059 Uiso 1 1 calc R . . 
C36B C 0.3941(8) 0.4015(4) 0.0214(5) 0.117(5) Uani 1 1 d . . . 
H36A H 0.4350 0.3954 -0.0090 0.175 Uiso 1 1 calc R . . 
H36B H 0.4281 0.4553 0.0613 0.175 Uiso 1 1 calc R . . 
H36C H 0.3287 0.3996 -0.0076 0.175 Uiso 1 1 calc R . . 
C37B C 0.3370(4) 0.1969(3) 0.4453(3) 0.0311(11) Uani 1 1 d . . . 
C38B C 0.3377(4) 0.3350(3) 0.5143(3) 0.0287(10) Uani 1 1 d . . . 
C39B C 0.3500(4) 0.3250(3) 0.5809(3) 0.0329(11) Uani 1 1 d . . . 
H39B H 0.3624 0.2771 0.5884 0.040 Uiso 1 1 calc R . . 
C40B C 0.3440(4) 0.3854(3) 0.6368(3) 0.0369(12) Uani 1 1 d . . . 
H40B H 0.3514 0.3778 0.6821 0.044 Uiso 1 1 calc R . . 
C41B C 0.3274(4) 0.4562(3) 0.6274(3) 0.0364(12) Uani 1 1 d . . . 
H41B H 0.3234 0.4971 0.6658 0.044 Uiso 1 1 calc R . . 
C42B C 0.3168(4) 0.4663(3) 0.5608(3) 0.0342(11) Uani 1 1 d . . . 
H42B H 0.3063 0.5150 0.5538 0.041 Uiso 1 1 calc R . . 
C43B C 0.3214(4) 0.4068(3) 0.5050(3) 0.0323(11) Uani 1 1 d . . . 
H43B H 0.3134 0.4145 0.4597 0.039 Uiso 1 1 calc R . . 
C44B C 0.3910(4) -0.2628(3) -0.2488(3) 0.0306(11) Uani 1 1 d . . . 
C45B C 0.4029(4) -0.2409(3) -0.3635(3) 0.0308(11) Uani 1 1 d . . . 
C46B C 0.3994(4) -0.1854(3) -0.4010(3) 0.0349(12) Uani 1 1 d . . . 
H46B H 0.3907 -0.1345 -0.3802 0.042 Uiso 1 1 calc R . . 
C47B C 0.4084(4) -0.2039(3) -0.4685(3) 0.0383(12) Uani 1 1 d . . . 
H47B H 0.4075 -0.1650 -0.4934 0.046 Uiso 1 1 calc R . . 
C48B C 0.4186(4) -0.2781(3) -0.4996(3) 0.0389(12) Uani 1 1 d . . . 
H48B H 0.4232 -0.2911 -0.5464 0.047 Uiso 1 1 calc R . . 
C49B C 0.4222(4) -0.3346(3) -0.4625(3) 0.0373(12) Uani 1 1 d . . . 
H49B H 0.4297 -0.3858 -0.4840 0.045 Uiso 1 1 calc R . . 
C50B C 0.4149(4) -0.3162(3) -0.3945(3) 0.0339(11) Uani 1 1 d . . . 
H50B H 0.4180 -0.3544 -0.3691 0.041 Uiso 1 1 calc R . . 
O1C O 0.3708(3) 0.3684(2) 0.3525(2) 0.0458(10) Uani 1 1 d . . . 
C1C C 0.3942(5) 0.5036(3) 0.3474(4) 0.0511(16) Uani 1 1 d . . . 
H1C1 H 0.3818 0.5139 0.3931 0.077 Uiso 1 1 calc R . . 
H1C2 H 0.3442 0.5142 0.3122 0.077 Uiso 1 1 calc R . . 
H1C3 H 0.4615 0.5410 0.3554 0.077 Uiso 1 1 calc R . . 
C2C C 0.3869(4) 0.4147(3) 0.3191(3) 0.0336(11) Uani 1 1 d . . . 
C3C C 0.4010(5) 0.3862(4) 0.2486(3) 0.0495(15) Uani 1 1 d . . . 
H3C1 H 0.4723 0.3969 0.2569 0.074 Uiso 1 1 calc R . . 
H3C2 H 0.3769 0.4168 0.2181 0.074 Uiso 1 1 calc R . . 
H3C3 H 0.3629 0.3260 0.2243 0.074 Uiso 1 1 calc R . . 
O1D O 0.0958(3) 0.2772(2) 0.3888(2) 0.0399(9) Uani 1 1 d . . . 
C1D C 0.0805(5) 0.2627(4) 0.4980(3) 0.0473(14) Uani 1 1 d . . . 
H1D1 H 0.1413 0.2657 0.5341 0.071 Uiso 1 1 calc R . . 
H1D2 H 0.0216 0.2240 0.5010 0.071 Uiso 1 1 calc R . . 
H1D3 H 0.0758 0.3186 0.5075 0.071 Uiso 1 1 calc R . . 
C2D C 0.0851(4) 0.2324(3) 0.4247(3) 0.0363(12) Uani 1 1 d . . . 
C3D C 0.0781(5) 0.1426(3) 0.3974(4) 0.0489(15) Uani 1 1 d . . . 
H3D1 H 0.0117 0.1053 0.3912 0.073 Uiso 1 1 calc R . . 
H3D2 H 0.1297 0.1332 0.4325 0.073 Uiso 1 1 calc R . . 
H3D3 H 0.0884 0.1308 0.3509 0.073 Uiso 1 1 calc R . . 
O1E O 0.1149(16) 0.7026(13) 1.0162(11) 0.050(6) Uiso 0.204(7) 1 d PU A -1 
C1E C 0.027(3) 0.555(2) 0.968(2) 0.068(9) Uiso 0.204(7) 1 d PU A -1 
H1E1 H 0.0769 0.5513 0.9454 0.102 Uiso 0.204(7) 1 calc PR A -1 
H1E2 H -0.0406 0.5288 0.9306 0.102 Uiso 0.204(7) 1 calc PR A -1 
H1E3 H 0.0313 0.5266 1.0034 0.102 Uiso 0.204(7) 1 calc PR A -1 
C2E C 0.045(2) 0.6454(19) 1.0048(16) 0.047(7) Uiso 0.204(7) 1 d PU A -1 
C3E C -0.027(3) 0.659(2) 1.043(2) 0.072(10) Uiso 0.204(7) 1 d PU A -1 
H3E1 H -0.0109 0.7191 1.0660 0.108 Uiso 0.204(7) 1 calc PR A -1 
H3E2 H -0.0222 0.6322 1.0799 0.108 Uiso 0.204(7) 1 calc PR A -1 
H3E3 H -0.0960 0.6342 1.0078 0.108 Uiso 0.204(7) 1 calc PR A -1 
 
loop_ 
 _atom_site_aniso_label 
 _atom_site_aniso_U_11 
 _atom_site_aniso_U_22 
 _atom_site_aniso_U_33 
 _atom_site_aniso_U_23 
 _atom_site_aniso_U_13 
 _atom_site_aniso_U_12 
Si1A 0.0425(8) 0.0216(6) 0.0383(8) 0.0137(6) 0.0129(6) 0.0120(6) 
Si2A 0.0472(9) 0.0297(7) 0.0481(9) 0.0223(6) 0.0192(7) 0.0177(7) 
N1A 0.043(3) 0.026(2) 0.032(2) 0.0076(17) 0.0133(19) 0.0156(19) 
N2A 0.034(2) 0.026(2) 0.034(2) 0.0103(17) 0.0146(18) 0.0097(18) 
O1A 0.050(2) 0.0278(18) 0.040(2) 0.0099(15) 0.0157(17) 0.0184(17) 
O2A 0.062(3) 0.0309(19) 0.038(2) 0.0140(16) 0.0229(18) 0.0196(18) 
C1A 0.026(2) 0.021(2) 0.031(3) 0.0114(19) 0.0082(19) 0.0085(19) 
C2A 0.022(2) 0.023(2) 0.032(3) 0.0088(19) 0.0076(19) 0.0072(19) 
C3A 0.030(3) 0.022(2) 0.031(3) 0.0087(19) 0.007(2) 0.010(2) 
C4A 0.030(3) 0.027(2) 0.033(3) 0.009(2) 0.010(2) 0.012(2) 
S5A 0.0369(7) 0.0230(6) 0.0339(7) 0.0086(5) 0.0122(5) 0.0131(5) 
C6A 0.026(3) 0.026(2) 0.034(3) 0.010(2) 0.006(2) 0.007(2) 
C7A 0.031(3) 0.028(2) 0.032(3) 0.011(2) 0.009(2) 0.011(2) 
C8A 0.023(2) 0.026(2) 0.038(3) 0.010(2) 0.007(2) 0.010(2) 
C9A 0.030(3) 0.023(2) 0.030(3) 0.0101(19) 0.008(2) 0.010(2) 
C10A 0.021(2) 0.025(2) 0.033(3) 0.0122(19) 0.0071(19) 0.0063(19) 
C11A 0.027(3) 0.024(2) 0.030(3) 0.0100(19) 0.008(2) 0.012(2) 
C12A 0.025(2) 0.023(2) 0.031(3) 0.0105(19) 0.0060(19) 0.009(2) 
C13A 0.027(3) 0.021(2) 0.035(3) 0.0095(19) 0.008(2) 0.009(2) 
C14A 0.027(3) 0.024(2) 0.030(3) 0.0091(19) 0.0078(19) 0.012(2) 
C15A 0.027(3) 0.024(2) 0.039(3) 0.011(2) 0.010(2) 0.010(2) 
C16A 0.027(3) 0.026(2) 0.036(3) 0.011(2) 0.010(2) 0.013(2) 
S17A 0.0408(7) 0.0231(6) 0.0339(7) 0.0113(5) 0.0142(5) 0.0128(5) 
C18A 0.022(2) 0.026(2) 0.036(3) 0.014(2) 0.008(2) 0.009(2) 
C19A 0.030(3) 0.025(2) 0.035(3) 0.014(2) 0.011(2) 0.009(2) 
C20A 0.024(2) 0.022(2) 0.034(3) 0.0112(19) 0.009(2) 0.009(2) 
C21A 0.029(3) 0.025(2) 0.031(3) 0.0055(19) 0.011(2) 0.013(2) 
C22A 0.039(3) 0.025(2) 0.033(3) 0.009(2) 0.014(2) 0.017(2) 
C23A 0.043(3) 0.029(3) 0.047(3) 0.020(2) 0.015(3) 0.012(2) 
C24A 0.054(4) 0.026(2) 0.042(3) 0.015(2) 0.017(3) 0.014(2) 
C25A 0.052(4) 0.025(3) 0.041(3) 0.015(2) 0.014(3) 0.009(2) 
C26A 0.046(4) 0.038(3) 0.067(4) 0.021(3) 0.010(3) 0.010(3) 
C27A 0.054(4) 0.037(3) 0.055(4) 0.021(3) 0.019(3) 0.021(3) 
C28A 0.067(4) 0.040(3) 0.062(4) 0.015(3) 0.030(3) 0.028(3) 
C29A 0.033(3) 0.022(2) 0.030(3) 0.0061(19) 0.011(2) 0.009(2) 
C30A 0.041(3) 0.027(2) 0.038(3) 0.012(2) 0.014(2) 0.015(2) 
C31A 0.047(4) 0.024(3) 0.050(4) 0.014(3) 0.008(3) 0.013(3) 
C32A 0.052(7) 0.032(5) 0.043(6) 0.006(4) 0.005(5) 0.006(5) 
C32' 0.052(7) 0.032(5) 0.043(6) 0.006(4) 0.005(5) 0.006(5) 
C35A 0.052(4) 0.036(3) 0.044(4) 0.017(3) 0.013(3) 0.016(3) 
C36A 0.047(5) 0.035(4) 0.051(6) 0.006(3) 0.002(5) 0.016(4) 
C36' 0.047(5) 0.035(4) 0.051(6) 0.006(3) 0.002(5) 0.016(4) 
C37A 0.032(3) 0.029(3) 0.033(3) 0.009(2) 0.008(2) 0.010(2) 
C38A 0.029(3) 0.028(2) 0.031(3) 0.009(2) 0.008(2) 0.005(2) 
C39A 0.039(3) 0.034(3) 0.037(3) 0.009(2) 0.013(2) 0.014(2) 
C40A 0.041(3) 0.044(3) 0.039(3) 0.009(2) 0.013(2) 0.017(3) 
C41A 0.039(3) 0.056(4) 0.034(3) 0.011(3) 0.015(2) 0.014(3) 
C42A 0.038(3) 0.058(4) 0.040(3) 0.023(3) 0.014(2) 0.020(3) 
C43A 0.033(3) 0.043(3) 0.043(3) 0.018(2) 0.015(2) 0.019(2) 
C44A 0.031(3) 0.029(2) 0.034(3) 0.010(2) 0.010(2) 0.011(2) 
C45A 0.029(3) 0.027(2) 0.037(3) 0.008(2) 0.010(2) 0.009(2) 
C46A 0.034(3) 0.032(3) 0.039(3) 0.011(2) 0.012(2) 0.011(2) 
C47A 0.037(3) 0.029(3) 0.047(3) 0.007(2) 0.015(2) 0.013(2) 
C48A 0.036(3) 0.035(3) 0.044(3) 0.003(2) 0.015(2) 0.014(2) 
C49A 0.038(3) 0.038(3) 0.040(3) 0.008(2) 0.016(2) 0.013(2) 
C50A 0.036(3) 0.029(3) 0.040(3) 0.010(2) 0.014(2) 0.013(2) 
Si1B 0.0600(10) 0.0254(7) 0.0414(8) 0.0152(6) 0.0209(7) 0.0183(7) 
Si2B 0.0349(8) 0.0255(7) 0.0409(8) 0.0170(6) 0.0098(6) 0.0114(6) 
N1B 0.038(2) 0.024(2) 0.030(2) 0.0089(16) 0.0119(18) 0.0130(18) 
N2B 0.035(2) 0.0231(19) 0.034(2) 0.0086(17) 0.0120(18) 0.0117(18) 
O1B 0.061(3) 0.0252(17) 0.037(2) 0.0143(15) 0.0208(18) 0.0171(17) 
O2B 0.059(3) 0.0265(18) 0.043(2) 0.0122(15) 0.0227(18) 0.0212(18) 
C1B 0.029(3) 0.021(2) 0.032(3) 0.0098(19) 0.009(2) 0.010(2) 
C2B 0.025(2) 0.021(2) 0.033(3) 0.0092(19) 0.006(2) 0.007(2) 
C3B 0.034(3) 0.022(2) 0.030(3) 0.0102(19) 0.009(2) 0.011(2) 
C4B 0.022(2) 0.024(2) 0.039(3) 0.013(2) 0.010(2) 0.005(2) 
S5B 0.0431(7) 0.0205(5) 0.0328(6) 0.0107(5) 0.0149(5) 0.0126(5) 
C6B 0.031(3) 0.023(2) 0.036(3) 0.011(2) 0.009(2) 0.012(2) 
C7B 0.036(3) 0.022(2) 0.033(3) 0.009(2) 0.011(2) 0.009(2) 
C8B 0.028(3) 0.022(2) 0.036(3) 0.009(2) 0.009(2) 0.007(2) 
C9B 0.029(3) 0.021(2) 0.034(3) 0.0103(19) 0.013(2) 0.010(2) 
C10B 0.025(2) 0.023(2) 0.035(3) 0.0108(19) 0.007(2) 0.008(2) 
C11B 0.023(2) 0.023(2) 0.034(3) 0.0098(19) 0.009(2) 0.007(2) 
C12B 0.022(2) 0.022(2) 0.039(3) 0.014(2) 0.008(2) 0.0070(19) 
C13B 0.027(3) 0.026(2) 0.034(3) 0.015(2) 0.008(2) 0.012(2) 
C14B 0.027(3) 0.028(2) 0.029(3) 0.0076(19) 0.0061(19) 0.011(2) 
C15B 0.025(3) 0.025(2) 0.035(3) 0.008(2) 0.009(2) 0.008(2) 
C16B 0.028(3) 0.025(2) 0.038(3) 0.012(2) 0.009(2) 0.006(2) 
S17B 0.0375(7) 0.0223(6) 0.0345(7) 0.0092(5) 0.0119(5) 0.0130(5) 
C18B 0.026(2) 0.024(2) 0.031(3) 0.0067(19) 0.008(2) 0.012(2) 
C19B 0.027(3) 0.023(2) 0.035(3) 0.011(2) 0.006(2) 0.010(2) 
C20B 0.028(3) 0.027(2) 0.033(3) 0.012(2) 0.008(2) 0.009(2) 
C21B 0.040(3) 0.028(2) 0.032(3) 0.008(2) 0.014(2) 0.015(2) 
C22B 0.048(3) 0.030(3) 0.037(3) 0.015(2) 0.019(2) 0.018(2) 
C23B 0.087(5) 0.034(3) 0.052(4) 0.021(3) 0.027(3) 0.032(3) 
C24B 0.062(4) 0.041(3) 0.051(4) 0.026(3) 0.027(3) 0.027(3) 
C25B 0.074(5) 0.039(3) 0.065(4) 0.018(3) 0.019(4) 0.012(3) 
C26B 0.102(8) 0.159(11) 0.066(6) -0.015(7) 0.011(6) -0.012(8) 
C27B 0.081(5) 0.039(3) 0.058(4) 0.025(3) 0.030(3) 0.029(3) 
C28B 0.064(4) 0.037(3) 0.049(3) 0.018(3) 0.026(3) 0.019(3) 
C29B 0.029(3) 0.023(2) 0.031(3) 0.0056(19) 0.010(2) 0.009(2) 
C30B 0.035(3) 0.024(2) 0.037(3) 0.011(2) 0.014(2) 0.011(2) 
C31B 0.039(3) 0.035(3) 0.042(3) 0.017(2) 0.017(2) 0.014(2) 
C32B 0.050(4) 0.065(5) 0.106(6) 0.050(5) -0.007(4) 0.011(4) 
C33B 0.045(3) 0.052(3) 0.059(4) 0.034(3) 0.021(3) 0.026(3) 
C34B 0.067(4) 0.065(4) 0.062(4) 0.038(3) 0.037(3) 0.038(4) 
C35B 0.052(4) 0.027(3) 0.054(4) 0.010(2) 0.001(3) 0.014(3) 
C36B 0.147(9) 0.028(3) 0.096(7) 0.015(4) -0.050(6) 0.007(4) 
C37B 0.034(3) 0.022(2) 0.037(3) 0.013(2) 0.012(2) 0.008(2) 
C38B 0.027(3) 0.022(2) 0.034(3) 0.0075(19) 0.011(2) 0.007(2) 
C39B 0.040(3) 0.027(2) 0.035(3) 0.011(2) 0.013(2) 0.016(2) 
C40B 0.043(3) 0.031(3) 0.033(3) 0.009(2) 0.012(2) 0.012(2) 
C41B 0.037(3) 0.028(3) 0.044(3) 0.006(2) 0.015(2) 0.015(2) 
C42B 0.033(3) 0.024(2) 0.045(3) 0.010(2) 0.013(2) 0.011(2) 
C43B 0.033(3) 0.026(2) 0.039(3) 0.011(2) 0.013(2) 0.010(2) 
C44B 0.027(3) 0.028(3) 0.032(3) 0.008(2) 0.007(2) 0.006(2) 
C45B 0.029(3) 0.029(2) 0.035(3) 0.012(2) 0.011(2) 0.011(2) 
C46B 0.032(3) 0.031(3) 0.043(3) 0.014(2) 0.011(2) 0.013(2) 
C47B 0.036(3) 0.041(3) 0.040(3) 0.018(2) 0.010(2) 0.014(2) 
C48B 0.032(3) 0.044(3) 0.037(3) 0.014(2) 0.013(2) 0.007(2) 
C49B 0.036(3) 0.031(3) 0.038(3) 0.007(2) 0.011(2) 0.008(2) 
C50B 0.034(3) 0.030(3) 0.037(3) 0.012(2) 0.012(2) 0.010(2) 
O1C 0.061(3) 0.034(2) 0.050(2) 0.0212(18) 0.021(2) 0.0199(19) 
C1C 0.054(4) 0.030(3) 0.079(5) 0.021(3) 0.033(3) 0.017(3) 
C2C 0.028(3) 0.036(3) 0.040(3) 0.017(2) 0.009(2) 0.014(2) 
C3C 0.051(4) 0.054(4) 0.041(3) 0.013(3) 0.015(3) 0.020(3) 
O1D 0.043(2) 0.0318(19) 0.041(2) 0.0144(16) 0.0088(17) 0.0115(17) 
C1D 0.042(3) 0.053(3) 0.043(3) 0.014(3) 0.014(3) 0.013(3) 
C2D 0.027(3) 0.034(3) 0.044(3) 0.015(2) 0.007(2) 0.008(2) 
C3D 0.046(4) 0.037(3) 0.070(4) 0.021(3) 0.027(3) 0.015(3) 
 
_geom_special_details 
; 
 All esds (except the esd in the dihedral angle between two l.s. planes) 
 are estimated using the full covariance matrix.  The cell esds are taken 
 into account individually in the estimation of esds in distances, angles 
 and torsion angles; correlations between esds in cell parameters are only 
 used when they are defined by crystal symmetry.  An approximate (isotropic) 
 treatment of cell esds is used for estimating esds involving l.s. planes. 
; 
 
loop_ 
 _geom_bond_atom_site_label_1 
 _geom_bond_atom_site_label_2 
 _geom_bond_distance 
 _geom_bond_site_symmetry_2 
 _geom_bond_publ_flag 
Si1A C22A 1.850(5) . ? 
Si1A C23A 1.867(6) . ? 
Si1A C25A 1.869(6) . ? 
Si1A C27A 1.873(6) . ? 
Si2A C31' 1.65(3) . ? 
Si2A C35A 1.847(7) . ? 
Si2A C30A 1.851(5) . ? 
Si2A C33A 1.885(16) . ? 
Si2A C35' 1.89(3) . ? 
Si2A C31A 1.891(6) . ? 
Si2A C33" 1.89(2) . ? 
Si2A C33' 2.08(3) . ? 
N1A C37A 1.362(6) . ? 
N1A C38A 1.412(7) . ? 
N1A H1A 0.8800 . ? 
N2A C44A 1.356(6) . ? 
N2A C45A 1.411(6) . ? 
N2A H2A 0.8800 . ? 
O1A C37A 1.214(6) . ? 
O2A C44A 1.218(6) . ? 
C1A C2A 1.413(7) . ? 
C1A C20A 1.418(6) . ? 
C1A C21A 1.434(6) . ? 
C2A C3A 1.428(7) . ? 
C2A C10A 1.440(6) . ? 
C3A C4A 1.359(7) . ? 
C3A H3A 0.9500 . ? 
C4A C8A 1.438(7) . ? 
C4A S5A 1.743(5) . ? 
S5A C6A 1.758(5) . ? 
C6A C7A 1.348(7) . ? 
C6A C37A 1.485(7) . ? 
C7A C8A 1.431(7) . ? 
C7A H7A 0.9500 . ? 
C8A C9A 1.369(7) . ? 
C9A C10A 1.412(7) . ? 
C9A H9A 0.9500 . ? 
C10A C11A 1.425(7) . ? 
C11A C12A 1.404(7) . ? 
C11A C29A 1.442(6) . ? 
C12A C13A 1.422(7) . ? 
C12A C20A 1.438(6) . ? 
C13A C14A 1.373(7) . ? 
C13A H13A 0.9500 . ? 
C14A C18A 1.425(6) . ? 
C14A C15A 1.438(7) . ? 
C15A C16A 1.352(7) . ? 
C15A H15A 0.9500 . ? 
C16A C44A 1.477(7) . ? 
C16A S17A 1.750(5) . ? 
S17A C18A 1.739(5) . ? 
C18A C19A 1.365(7) . ? 
C19A C20A 1.418(7) . ? 
C19A H19A 0.9500 . ? 
C21A C22A 1.209(7) . ? 
C23A C24A 1.514(8) . ? 
C23A H23A 0.9900 . ? 
C23A H23B 0.9900 . ? 
C24A H24A 0.9800 . ? 
C24A H24B 0.9800 . ? 
C24A H24C 0.9800 . ? 
C25A C26A 1.526(9) . ? 
C25A H25A 0.9900 . ? 
C25A H25B 0.9900 . ? 
C26A H26A 0.9800 . ? 
C26A H26B 0.9800 . ? 
C26A H26C 0.9800 . ? 
C27A C28A 1.514(9) . ? 
C27A H27A 0.9900 . ? 
C27A H27B 0.9900 . ? 
C28A H28A 0.9800 . ? 
C28A H28B 0.9800 . ? 
C28A H28C 0.9800 . ? 
C29A C30A 1.203(7) . ? 
C31A C32A 1.554(10) . ? 
C31A H31X 0.9900 . ? 
C31A H31Y 0.9900 . ? 
C32A H32X 0.9800 . ? 
C32A H32Y 0.9800 . ? 
C32A H32Z 0.9800 . ? 
C31' C32' 1.55(2) . ? 
C31' H31U 0.9900 . ? 
C31' H31V 0.9900 . ? 
C32' H32U 0.9800 . ? 
C32' H32V 0.9800 . ? 
C32' H32W 0.9800 . ? 
C33A C34A 1.486(18) . ? 
C33A H33L 0.9900 . ? 
C33A H33M 0.9900 . ? 
C34A H34L 0.9800 . ? 
C34A H34M 0.9800 . ? 
C34A H34N 0.9800 . ? 
C33' C34' 1.49(2) . ? 
C33' H33O 0.9900 . ? 
C33' H33P 0.9900 . ? 
C34' H34O 0.9800 . ? 
C34' H34P 0.9800 . ? 
C34' H34Q 0.9800 . ? 
C33" C34" 1.51(2) . ? 
C33" H33R 0.9900 . ? 
C33" H33S 0.9900 . ? 
C34" H34R 0.9800 . ? 
C34" H34S 0.9800 . ? 
C34" H34T 0.9800 . ? 
C35A C36A 1.52(2) . ? 
C35A H35J 0.9900 . ? 
C35A H35K 0.9900 . ? 
C36A H36J 0.9800 . ? 
C36A H36K 0.9800 . ? 
C36A H36L 0.9800 . ? 
C35' C36' 1.52(3) . ? 
C35' H35G 0.9900 . ? 
C35' H35H 0.9900 . ? 
C36' H36G 0.9800 . ? 
C36' H36H 0.9800 . ? 
C36' H36I 0.9800 . ? 
C38A C39A 1.389(7) . ? 
C38A C43A 1.393(7) . ? 
C39A C40A 1.388(8) . ? 
C39A H39A 0.9500 . ? 
C40A C41A 1.379(8) . ? 
C40A H40A 0.9500 . ? 
C41A C42A 1.379(8) . ? 
C41A H41A 0.9500 . ? 
C42A C43A 1.387(8) . ? 
C42A H42A 0.9500 . ? 
C43A H43A 0.9500 . ? 
C45A C46A 1.393(7) . ? 
C45A C50A 1.401(7) . ? 
C46A C47A 1.383(7) . ? 
C46A H46A 0.9500 . ? 
C47A C48A 1.379(8) . ? 
C47A H47A 0.9500 . ? 
C48A C49A 1.380(8) . ? 
C48A H48A 0.9500 . ? 
C49A C50A 1.388(7) . ? 
C49A H49A 0.9500 . ? 
C50A H50A 0.9500 . ? 
Si1B C22B 1.848(5) . ? 
Si1B C25B 1.865(7) . ? 
Si1B C27B 1.873(7) . ? 
Si1B C23B 1.891(7) . ? 
Si2B C30B 1.847(5) . ? 
Si2B C33B 1.865(6) . ? 
Si2B C31B 1.871(6) . ? 
Si2B C35B 1.883(6) . ? 
N1B C37B 1.362(6) . ? 
N1B C38B 1.408(6) . ? 
N1B H1B 0.8800 . ? 
N2B C44B 1.378(6) . ? 
N2B C45B 1.405(6) . ? 
N2B H2B 0.8800 . ? 
O1B C37B 1.227(6) . ? 
O2B C44B 1.208(6) . ? 
C1B C20B 1.397(7) . ? 
C1B C2B 1.421(7) . ? 
C1B C21B 1.437(7) . ? 
C2B C3B 1.410(7) . ? 
C2B C10B 1.439(6) . ? 
C3B C4B 1.371(7) . ? 
C3B H3B 0.9500 . ? 
C4B C8B 1.430(6) . ? 
C4B S5B 1.727(5) . ? 
S5B C6B 1.754(5) . ? 
C6B C7B 1.355(7) . ? 
C6B C37B 1.463(7) . ? 
C7B C8B 1.438(7) . ? 
C7B H7B 0.9500 . ? 
C8B C9B 1.367(7) . ? 
C9B C10B 1.419(7) . ? 
C9B H9B 0.9500 . ? 
C10B C11B 1.416(7) . ? 
C11B C12B 1.424(7) . ? 
C11B C29B 1.428(6) . ? 
C12B C13B 1.410(7) . ? 
C12B C20B 1.447(6) . ? 
C13B C14B 1.374(7) . ? 
C13B H13B 0.9500 . ? 
C14B C18B 1.432(7) . ? 
C14B C15B 1.438(7) . ? 
C15B C16B 1.351(7) . ? 
C15B H15B 0.9500 . ? 
C16B C44B 1.477(7) . ? 
C16B S17B 1.756(5) . ? 
S17B C18B 1.744(5) . ? 
C18B C19B 1.357(7) . ? 
C19B C20B 1.416(7) . ? 
C19B H19B 0.9500 . ? 
C21B C22B 1.197(7) . ? 
C23B C24B 1.511(9) . ? 
C23B H23D 0.9900 . ? 
C23B H23E 0.9900 . ? 
C24B H24D 0.9800 . ? 
C24B H24E 0.9800 . ? 
C24B H24F 0.9800 . ? 
C25B C26B 1.508(12) . ? 
C25B H25D 0.9900 . ? 
C25B H25E 0.9900 . ? 
C26B H26D 0.9800 . ? 
C26B H26E 0.9800 . ? 
C26B H26F 0.9800 . ? 
C27B C28B 1.523(9) . ? 
C27B H27D 0.9900 . ? 
C27B H27E 0.9900 . ? 
C28B H28D 0.9800 . ? 
C28B H28E 0.9800 . ? 
C28B H28F 0.9800 . ? 
C29B C30B 1.206(7) . ? 
C31B C32B 1.519(8) . ? 
C31B H31A 0.9900 . ? 
C31B H31B 0.9900 . ? 
C32B H32A 0.9800 . ? 
C32B H32B 0.9800 . ? 
C32B H32C 0.9800 . ? 
C33B C34B 1.513(9) . ? 
C33B H33A 0.9900 . ? 
C33B H33B 0.9900 . ? 
C34B H34A 0.9800 . ? 
C34B H34B 0.9800 . ? 
C34B H34C 0.9800 . ? 
C35B C36B 1.520(9) . ? 
C35B H35A 0.9900 . ? 
C35B H35B 0.9900 . ? 
C36B H36A 0.9800 . ? 
C36B H36B 0.9800 . ? 
C36B H36C 0.9800 . ? 
C38B C39B 1.385(7) . ? 
C38B C43B 1.399(7) . ? 
C39B C40B 1.394(7) . ? 
C39B H39B 0.9500 . ? 
C40B C41B 1.382(7) . ? 
C40B H40B 0.9500 . ? 
C41B C42B 1.389(8) . ? 
C41B H41B 0.9500 . ? 
C42B C43B 1.372(7) . ? 
C42B H42B 0.9500 . ? 
C43B H43B 0.9500 . ? 
C45B C46B 1.387(7) . ? 
C45B C50B 1.401(7) . ? 
C46B C47B 1.386(8) . ? 
C46B H46B 0.9500 . ? 
C47B C48B 1.370(8) . ? 
C47B H47B 0.9500 . ? 
C48B C49B 1.397(8) . ? 
C48B H48B 0.9500 . ? 
C49B C50B 1.383(7) . ? 
C49B H49B 0.9500 . ? 
C50B H50B 0.9500 . ? 
O1C C2C 1.203(6) . ? 
C1C C2C 1.492(7) . ? 
C1C H1C1 0.9800 . ? 
C1C H1C2 0.9800 . ? 
C1C H1C3 0.9800 . ? 
C2C C3C 1.488(8) . ? 
C3C H3C1 0.9800 . ? 
C3C H3C2 0.9800 . ? 
C3C H3C3 0.9800 . ? 
O1D C2D 1.210(6) . ? 
C1D C2D 1.485(8) . ? 
C1D H1D1 0.9800 . ? 
C1D H1D2 0.9800 . ? 
C1D H1D3 0.9800 . ? 
C2D C3D 1.508(8) . ? 
C3D H3D1 0.9800 . ? 
C3D H3D2 0.9800 . ? 
C3D H3D3 0.9800 . ? 
O1E C2E 1.16(3) . ? 
C1E C2E 1.49(5) . ? 
C1E H1E1 0.9800 . ? 
C1E H1E2 0.9800 . ? 
C1E H1E3 0.9800 . ? 
C2E C3E 1.51(5) . ? 
C3E H3E1 0.9800 . ? 
C3E H3E2 0.9800 . ? 
C3E H3E3 0.9800 . ? 
 
loop_ 
 _geom_angle_atom_site_label_1 
 _geom_angle_atom_site_label_2 
 _geom_angle_atom_site_label_3 
 _geom_angle 
 _geom_angle_site_symmetry_1 
 _geom_angle_site_symmetry_3 
 _geom_angle_publ_flag 
C22A Si1A C23A 106.4(2) . . ? 
C22A Si1A C25A 108.8(2) . . ? 
C23A Si1A C25A 114.6(3) . . ? 
C22A Si1A C27A 107.3(3) . . ? 
C23A Si1A C27A 110.3(3) . . ? 
C25A Si1A C27A 109.1(3) . . ? 
C31' Si2A C35A 134.7(12) . . ? 
C31' Si2A C30A 117.4(12) . . ? 
C35A Si2A C30A 107.9(3) . . ? 
C31' Si2A C33A 59.0(12) . . ? 
C35A Si2A C33A 107.5(5) . . ? 
C30A Si2A C33A 108.1(5) . . ? 
C31' Si2A C35' 114.1(16) . . ? 
C35A Si2A C35' 46.0(10) . . ? 
C30A Si2A C35' 108.9(11) . . ? 
C33A Si2A C35' 140.0(11) . . ? 
C31' Si2A C31A 55.5(12) . . ? 
C35A Si2A C31A 109.5(3) . . ? 
C30A Si2A C31A 110.1(3) . . ? 
C33A Si2A C31A 113.5(5) . . ? 
C35' Si2A C31A 66.3(10) . . ? 
C31' Si2A C33" 50.6(14) . . ? 
C35A Si2A C33" 116.9(8) . . ? 
C30A Si2A C33" 106.3(7) . . ? 
C33A Si2A C33" 9.9(9) . . ? 
C35' Si2A C33" 144.4(12) . . ? 
C31A Si2A C33" 106.0(8) . . ? 
C31' Si2A C33' 111.8(14) . . ? 
C35A Si2A C33' 55.7(9) . . ? 
C30A Si2A C33' 101.7(10) . . ? 
C33A Si2A C33' 56.7(10) . . ? 
C35' Si2A C33' 101.0(13) . . ? 
C31A Si2A C33' 148.0(10) . . ? 
C33" Si2A C33' 66.5(12) . . ? 
C37A N1A C38A 127.8(4) . . ? 
C37A N1A H1A 116.1 . . ? 
C38A N1A H1A 116.1 . . ? 
C44A N2A C45A 127.2(4) . . ? 
C44A N2A H2A 116.4 . . ? 
C45A N2A H2A 116.4 . . ? 
C2A C1A C20A 121.1(4) . . ? 
C2A C1A C21A 119.6(4) . . ? 
C20A C1A C21A 119.3(4) . . ? 
C1A C2A C3A 121.7(4) . . ? 
C1A C2A C10A 119.2(4) . . ? 
C3A C2A C10A 119.1(4) . . ? 
C4A C3A C2A 119.8(4) . . ? 
C4A C3A H3A 120.1 . . ? 
C2A C3A H3A 120.1 . . ? 
C3A C4A C8A 121.5(4) . . ? 
C3A C4A S5A 127.0(4) . . ? 
C8A C4A S5A 111.4(4) . . ? 
C4A S5A C6A 90.6(2) . . ? 
C7A C6A C37A 130.9(5) . . ? 
C7A C6A S5A 113.3(4) . . ? 
C37A C6A S5A 115.8(3) . . ? 
C6A C7A C8A 113.6(4) . . ? 
C6A C7A H7A 123.2 . . ? 
C8A C7A H7A 123.2 . . ? 
C9A C8A C7A 129.5(5) . . ? 
C9A C8A C4A 119.4(5) . . ? 
C7A C8A C4A 111.0(4) . . ? 
C8A C9A C10A 121.0(4) . . ? 
C8A C9A H9A 119.5 . . ? 
C10A C9A H9A 119.5 . . ? 
C9A C10A C11A 121.7(4) . . ? 
C9A C10A C2A 119.1(4) . . ? 
C11A C10A C2A 119.2(4) . . ? 
C12A C11A C10A 121.5(4) . . ? 
C12A C11A C29A 121.4(4) . . ? 
C10A C11A C29A 117.1(4) . . ? 
C11A C12A C13A 121.9(4) . . ? 
C11A C12A C20A 119.1(4) . . ? 
C13A C12A C20A 119.0(4) . . ? 
C14A C13A C12A 120.8(4) . . ? 
C14A C13A H13A 119.6 . . ? 
C12A C13A H13A 119.6 . . ? 
C13A C14A C18A 118.9(4) . . ? 
C13A C14A C15A 130.0(4) . . ? 
C18A C14A C15A 111.0(4) . . ? 
C16A C15A C14A 113.3(4) . . ? 
C16A C15A H15A 123.4 . . ? 
C14A C15A H15A 123.4 . . ? 
C15A C16A C44A 133.3(4) . . ? 
C15A C16A S17A 113.1(4) . . ? 
C44A C16A S17A 113.5(3) . . ? 
C18A S17A C16A 90.9(2) . . ? 
C19A C18A C14A 122.7(5) . . ? 
C19A C18A S17A 125.6(4) . . ? 
C14A C18A S17A 111.7(4) . . ? 
C18A C19A C20A 119.0(4) . . ? 
C18A C19A H19A 120.5 . . ? 
C20A C19A H19A 120.5 . . ? 
C19A C20A C1A 120.7(4) . . ? 
C19A C20A C12A 119.6(4) . . ? 
C1A C20A C12A 119.7(4) . . ? 
C22A C21A C1A 178.8(6) . . ? 
C21A C22A Si1A 176.0(4) . . ? 
C24A C23A Si1A 116.5(4) . . ? 
C24A C23A H23A 108.2 . . ? 
Si1A C23A H23A 108.2 . . ? 
C24A C23A H23B 108.2 . . ? 
Si1A C23A H23B 108.2 . . ? 
H23A C23A H23B 107.3 . . ? 
C23A C24A H24A 109.5 . . ? 
C23A C24A H24B 109.5 . . ? 
H24A C24A H24B 109.5 . . ? 
C23A C24A H24C 109.5 . . ? 
H24A C24A H24C 109.5 . . ? 
H24B C24A H24C 109.5 . . ? 
C26A C25A Si1A 118.1(4) . . ? 
C26A C25A H25A 107.8 . . ? 
Si1A C25A H25A 107.8 . . ? 
C26A C25A H25B 107.8 . . ? 
Si1A C25A H25B 107.8 . . ? 
H25A C25A H25B 107.1 . . ? 
C25A C26A H26A 109.5 . . ? 
C25A C26A H26B 109.5 . . ? 
H26A C26A H26B 109.5 . . ? 
C25A C26A H26C 109.5 . . ? 
H26A C26A H26C 109.5 . . ? 
H26B C26A H26C 109.5 . . ? 
C28A C27A Si1A 116.5(4) . . ? 
C28A C27A H27A 108.2 . . ? 
Si1A C27A H27A 108.2 . . ? 
C28A C27A H27B 108.2 . . ? 
Si1A C27A H27B 108.2 . . ? 
H27A C27A H27B 107.3 . . ? 
C27A C28A H28A 109.5 . . ? 
C27A C28A H28B 109.5 . . ? 
H28A C28A H28B 109.5 . . ? 
C27A C28A H28C 109.5 . . ? 
H28A C28A H28C 109.5 . . ? 
H28B C28A H28C 109.5 . . ? 
C30A C29A C11A 175.9(5) . . ? 
C29A C30A Si2A 170.7(5) . . ? 
C32A C31A Si2A 115.2(6) . . ? 
C32A C31A H31X 108.5 . . ? 
Si2A C31A H31X 108.5 . . ? 
C32A C31A H31Y 108.5 . . ? 
Si2A C31A H31Y 108.5 . . ? 
H31X C31A H31Y 107.5 . . ? 
C32' C31' Si2A 105(3) . . ? 
C32' C31' H31U 110.8 . . ? 
Si2A C31' H31U 110.8 . . ? 
C32' C31' H31V 110.8 . . ? 
Si2A C31' H31V 110.8 . . ? 
H31U C31' H31V 108.8 . . ? 
C31' C32' H32U 109.5 . . ? 
C31' C32' H32V 109.5 . . ? 
H32U C32' H32V 109.5 . . ? 
C31' C32' H32W 109.5 . . ? 
H32U C32' H32W 109.5 . . ? 
H32V C32' H32W 109.5 . . ? 
C34A C33A Si2A 114.9(12) . . ? 
C34A C33A H33L 108.6 . . ? 
Si2A C33A H33L 108.6 . . ? 
C34A C33A H33M 108.6 . . ? 
Si2A C33A H33M 108.6 . . ? 
H33L C33A H33M 107.5 . . ? 
C33A C34A H34L 109.5 . . ? 
C33A C34A H34M 109.5 . . ? 
H34L C34A H34M 109.5 . . ? 
C33A C34A H34N 109.5 . . ? 
H34L C34A H34N 109.5 . . ? 
H34M C34A H34N 109.5 . . ? 
C34' C33' Si2A 111(3) . . ? 
C34' C33' H33O 109.5 . . ? 
Si2A C33' H33O 109.5 . . ? 
C34' C33' H33P 109.5 . . ? 
Si2A C33' H33P 109.5 . . ? 
H33O C33' H33P 108.1 . . ? 
C33' C34' H34O 109.5 . . ? 
C33' C34' H34P 109.5 . . ? 
H34O C34' H34P 109.5 . . ? 
C33' C34' H34Q 109.5 . . ? 
H34O C34' H34Q 109.5 . . ? 
H34P C34' H34Q 109.5 . . ? 
C34" C33" Si2A 113.5(15) . . ? 
C34" C33" H33R 108.9 . . ? 
Si2A C33" H33R 108.9 . . ? 
C34" C33" H33S 108.9 . . ? 
Si2A C33" H33S 108.9 . . ? 
H33R C33" H33S 107.7 . . ? 
C33" C34" H34R 109.5 . . ? 
C33" C34" H34S 109.5 . . ? 
H34R C34" H34S 109.5 . . ? 
C33" C34" H34T 109.5 . . ? 
H34R C34" H34T 109.5 . . ? 
H34S C34" H34T 109.5 . . ? 
C36A C35A Si2A 114.1(8) . . ? 
C36A C35A H35J 108.7 . . ? 
Si2A C35A H35J 108.7 . . ? 
C36A C35A H35K 108.7 . . ? 
Si2A C35A H35K 108.7 . . ? 
H35J C35A H35K 107.6 . . ? 
C36' C35' Si2A 126(5) . . ? 
C36' C35' H35G 105.8 . . ? 
Si2A C35' H35G 105.8 . . ? 
C36' C35' H35H 105.8 . . ? 
Si2A C35' H35H 105.8 . . ? 
H35G C35' H35H 106.2 . . ? 
C35' C36' H36G 109.5 . . ? 
C35' C36' H36H 109.5 . . ? 
H36G C36' H36H 109.5 . . ? 
C35' C36' H36I 109.5 . . ? 
H36G C36' H36I 109.5 . . ? 
H36H C36' H36I 109.5 . . ? 
O1A C37A N1A 125.2(5) . . ? 
O1A C37A C6A 120.9(5) . . ? 
N1A C37A C6A 113.8(4) . . ? 
C39A C38A C43A 119.5(5) . . ? 
C39A C38A N1A 123.1(5) . . ? 
C43A C38A N1A 117.3(5) . . ? 
C40A C39A C38A 119.3(5) . . ? 
C40A C39A H39A 120.4 . . ? 
C38A C39A H39A 120.4 . . ? 
C41A C40A C39A 121.1(5) . . ? 
C41A C40A H40A 119.4 . . ? 
C39A C40A H40A 119.4 . . ? 
C42A C41A C40A 119.7(5) . . ? 
C42A C41A H41A 120.1 . . ? 
C40A C41A H41A 120.1 . . ? 
C41A C42A C43A 119.9(5) . . ? 
C41A C42A H42A 120.1 . . ? 
C43A C42A H42A 120.1 . . ? 
C42A C43A C38A 120.5(5) . . ? 
C42A C43A H43A 119.8 . . ? 
C38A C43A H43A 119.8 . . ? 
O2A C44A N2A 124.4(5) . . ? 
O2A C44A C16A 118.6(4) . . ? 
N2A C44A C16A 116.9(4) . . ? 
C46A C45A C50A 119.5(5) . . ? 
C46A C45A N2A 116.9(5) . . ? 
C50A C45A N2A 123.6(4) . . ? 
C47A C46A C45A 120.0(5) . . ? 
C47A C46A H46A 120.0 . . ? 
C45A C46A H46A 120.0 . . ? 
C48A C47A C46A 121.1(5) . . ? 
C48A C47A H47A 119.5 . . ? 
C46A C47A H47A 119.5 . . ? 
C47A C48A C49A 118.8(5) . . ? 
C47A C48A H48A 120.6 . . ? 
C49A C48A H48A 120.6 . . ? 
C48A C49A C50A 121.8(5) . . ? 
C48A C49A H49A 119.1 . . ? 
C50A C49A H49A 119.1 . . ? 
C49A C50A C45A 118.9(5) . . ? 
C49A C50A H50A 120.6 . . ? 
C45A C50A H50A 120.6 . . ? 
C22B Si1B C25B 108.9(3) . . ? 
C22B Si1B C27B 107.2(2) . . ? 
C25B Si1B C27B 110.9(3) . . ? 
C22B Si1B C23B 107.5(3) . . ? 
C25B Si1B C23B 110.6(3) . . ? 
C27B Si1B C23B 111.5(3) . . ? 
C30B Si2B C33B 107.5(2) . . ? 
C30B Si2B C31B 107.5(2) . . ? 
C33B Si2B C31B 109.2(3) . . ? 
C30B Si2B C35B 109.1(2) . . ? 
C33B Si2B C35B 111.3(3) . . ? 
C31B Si2B C35B 112.1(3) . . ? 
C37B N1B C38B 127.7(4) . . ? 
C37B N1B H1B 116.2 . . ? 
C38B N1B H1B 116.2 . . ? 
C44B N2B C45B 128.5(4) . . ? 
C44B N2B H2B 115.8 . . ? 
C45B N2B H2B 115.8 . . ? 
C20B C1B C2B 121.3(4) . . ? 
C20B C1B C21B 120.0(4) . . ? 
C2B C1B C21B 118.7(4) . . ? 
C3B C2B C1B 120.9(4) . . ? 
C3B C2B C10B 119.3(4) . . ? 
C1B C2B C10B 119.6(4) . . ? 
C4B C3B C2B 120.2(4) . . ? 
C4B C3B H3B 119.9 . . ? 
C2B C3B H3B 119.9 . . ? 
C3B C4B C8B 120.6(5) . . ? 
C3B C4B S5B 126.7(4) . . ? 
C8B C4B S5B 112.7(4) . . ? 
C4B S5B C6B 90.4(2) . . ? 
C7B C6B C37B 132.2(4) . . ? 
C7B C6B S5B 113.4(4) . . ? 
C37B C6B S5B 114.4(3) . . ? 
C6B C7B C8B 113.2(4) . . ? 
C6B C7B H7B 123.4 . . ? 
C8B C7B H7B 123.4 . . ? 
C9B C8B C4B 120.4(4) . . ? 
C9B C8B C7B 129.2(4) . . ? 
C4B C8B C7B 110.3(4) . . ? 
C8B C9B C10B 120.2(4) . . ? 
C8B C9B H9B 119.9 . . ? 
C10B C9B H9B 119.9 . . ? 
C11B C10B C9B 121.8(4) . . ? 
C11B C10B C2B 119.1(4) . . ? 
C9B C10B C2B 119.2(4) . . ? 
C10B C11B C12B 121.0(4) . . ? 
C10B C11B C29B 120.8(4) . . ? 
C12B C11B C29B 118.1(4) . . ? 
C13B C12B C11B 121.4(4) . . ? 
C13B C12B C20B 119.5(4) . . ? 
C11B C12B C20B 119.1(4) . . ? 
C14B C13B C12B 120.4(4) . . ? 
C14B C13B H13B 119.8 . . ? 
C12B C13B H13B 119.8 . . ? 
C13B C14B C18B 119.6(4) . . ? 
C13B C14B C15B 129.6(4) . . ? 
C18B C14B C15B 110.9(4) . . ? 
C16B C15B C14B 113.4(4) . . ? 
C16B C15B H15B 123.3 . . ? 
C14B C15B H15B 123.3 . . ? 
C15B C16B C44B 132.5(5) . . ? 
C15B C16B S17B 113.4(4) . . ? 
C44B C16B S17B 114.1(3) . . ? 
C18B S17B C16B 90.6(2) . . ? 
C19B C18B C14B 121.6(4) . . ? 
C19B C18B S17B 126.6(4) . . ? 
C14B C18B S17B 111.8(4) . . ? 
C18B C19B C20B 120.1(4) . . ? 
C18B C19B H19B 119.9 . . ? 
C20B C19B H19B 119.9 . . ? 
C1B C20B C19B 121.8(4) . . ? 
C1B C20B C12B 119.5(4) . . ? 
C19B C20B C12B 118.7(4) . . ? 
C22B C21B C1B 179.0(6) . . ? 
C21B C22B Si1B 178.2(5) . . ? 
C24B C23B Si1B 114.0(4) . . ? 
C24B C23B H23D 108.8 . . ? 
Si1B C23B H23D 108.8 . . ? 
C24B C23B H23E 108.8 . . ? 
Si1B C23B H23E 108.8 . . ? 
H23D C23B H23E 107.7 . . ? 
C23B C24B H24D 109.5 . . ? 
C23B C24B H24E 109.5 . . ? 
H24D C24B H24E 109.5 . . ? 
C23B C24B H24F 109.5 . . ? 
H24D C24B H24F 109.5 . . ? 
H24E C24B H24F 109.5 . . ? 
C26B C25B Si1B 113.7(6) . . ? 
C26B C25B H25D 108.8 . . ? 
Si1B C25B H25D 108.8 . . ? 
C26B C25B H25E 108.8 . . ? 
Si1B C25B H25E 108.8 . . ? 
H25D C25B H25E 107.7 . . ? 
C25B C26B H26D 109.5 . . ? 
C25B C26B H26E 109.5 . . ? 
H26D C26B H26E 109.5 . . ? 
C25B C26B H26F 109.5 . . ? 
H26D C26B H26F 109.5 . . ? 
H26E C26B H26F 109.5 . . ? 
C28B C27B Si1B 113.9(5) . . ? 
C28B C27B H27D 108.8 . . ? 
Si1B C27B H27D 108.8 . . ? 
C28B C27B H27E 108.8 . . ? 
Si1B C27B H27E 108.8 . . ? 
H27D C27B H27E 107.7 . . ? 
C27B C28B H28D 109.5 . . ? 
C27B C28B H28E 109.5 . . ? 
H28D C28B H28E 109.5 . . ? 
C27B C28B H28F 109.5 . . ? 
H28D C28B H28F 109.5 . . ? 
H28E C28B H28F 109.5 . . ? 
C30B C29B C11B 177.7(5) . . ? 
C29B C30B Si2B 173.9(5) . . ? 
C32B C31B Si2B 114.4(4) . . ? 
C32B C31B H31A 108.7 . . ? 
Si2B C31B H31A 108.7 . . ? 
C32B C31B H31B 108.7 . . ? 
Si2B C31B H31B 108.7 . . ? 
H31A C31B H31B 107.6 . . ? 
C31B C32B H32A 109.5 . . ? 
C31B C32B H32B 109.5 . . ? 
H32A C32B H32B 109.5 . . ? 
C31B C32B H32C 109.5 . . ? 
H32A C32B H32C 109.5 . . ? 
H32B C32B H32C 109.5 . . ? 
C34B C33B Si2B 113.9(4) . . ? 
C34B C33B H33A 108.8 . . ? 
Si2B C33B H33A 108.8 . . ? 
C34B C33B H33B 108.8 . . ? 
Si2B C33B H33B 108.8 . . ? 
H33A C33B H33B 107.7 . . ? 
C33B C34B H34A 109.5 . . ? 
C33B C34B H34B 109.5 . . ? 
H34A C34B H34B 109.5 . . ? 
C33B C34B H34C 109.5 . . ? 
H34A C34B H34C 109.5 . . ? 
H34B C34B H34C 109.5 . . ? 
C36B C35B Si2B 114.6(5) . . ? 
C36B C35B H35A 108.6 . . ? 
Si2B C35B H35A 108.6 . . ? 
C36B C35B H35B 108.6 . . ? 
Si2B C35B H35B 108.6 . . ? 
H35A C35B H35B 107.6 . . ? 
C35B C36B H36A 109.5 . . ? 
C35B C36B H36B 109.5 . . ? 
H36A C36B H36B 109.5 . . ? 
C35B C36B H36C 109.5 . . ? 
H36A C36B H36C 109.5 . . ? 
H36B C36B H36C 109.5 . . ? 
O1B C37B N1B 123.2(5) . . ? 
O1B C37B C6B 120.6(4) . . ? 
N1B C37B C6B 116.2(4) . . ? 
C39B C38B C43B 119.0(4) . . ? 
C39B C38B N1B 124.2(4) . . ? 
C43B C38B N1B 116.8(4) . . ? 
C38B C39B C40B 119.7(5) . . ? 
C38B C39B H39B 120.2 . . ? 
C40B C39B H39B 120.2 . . ? 
C41B C40B C39B 121.2(5) . . ? 
C41B C40B H40B 119.4 . . ? 
C39B C40B H40B 119.4 . . ? 
C40B C41B C42B 118.7(5) . . ? 
C40B C41B H41B 120.7 . . ? 
C42B C41B H41B 120.7 . . ? 
C43B C42B C41B 120.8(5) . . ? 
C43B C42B H42B 119.6 . . ? 
C41B C42B H42B 119.6 . . ? 
C42B C43B C38B 120.7(5) . . ? 
C42B C43B H43B 119.7 . . ? 
C38B C43B H43B 119.7 . . ? 
O2B C44B N2B 124.7(5) . . ? 
O2B C44B C16B 121.0(4) . . ? 
N2B C44B C16B 114.3(4) . . ? 
C46B C45B C50B 119.6(5) . . ? 
C46B C45B N2B 117.2(4) . . ? 
C50B C45B N2B 123.1(4) . . ? 
C47B C46B C45B 120.4(5) . . ? 
C47B C46B H46B 119.8 . . ? 
C45B C46B H46B 119.8 . . ? 
C48B C47B C46B 120.2(5) . . ? 
C48B C47B H47B 119.9 . . ? 
C46B C47B H47B 119.9 . . ? 
C47B C48B C49B 120.0(5) . . ? 
C47B C48B H48B 120.0 . . ? 
C49B C48B H48B 120.0 . . ? 
C50B C49B C48B 120.3(5) . . ? 
C50B C49B H49B 119.9 . . ? 
C48B C49B H49B 119.9 . . ? 
C49B C50B C45B 119.5(5) . . ? 
C49B C50B H50B 120.3 . . ? 
C45B C50B H50B 120.3 . . ? 
C2C C1C H1C1 109.5 . . ? 
C2C C1C H1C2 109.5 . . ? 
H1C1 C1C H1C2 109.5 . . ? 
C2C C1C H1C3 109.5 . . ? 
H1C1 C1C H1C3 109.5 . . ? 
H1C2 C1C H1C3 109.5 . . ? 
O1C C2C C3C 121.6(5) . . ? 
O1C C2C C1C 120.8(5) . . ? 
C3C C2C C1C 117.6(5) . . ? 
C2C C3C H3C1 109.5 . . ? 
C2C C3C H3C2 109.5 . . ? 
H3C1 C3C H3C2 109.5 . . ? 
C2C C3C H3C3 109.5 . . ? 
H3C1 C3C H3C3 109.5 . . ? 
H3C2 C3C H3C3 109.5 . . ? 
C2D C1D H1D1 109.5 . . ? 
C2D C1D H1D2 109.5 . . ? 
H1D1 C1D H1D2 109.5 . . ? 
C2D C1D H1D3 109.5 . . ? 
H1D1 C1D H1D3 109.5 . . ? 
H1D2 C1D H1D3 109.5 . . ? 
O1D C2D C1D 122.5(5) . . ? 
O1D C2D C3D 121.3(5) . . ? 
C1D C2D C3D 116.2(5) . . ? 
C2D C3D H3D1 109.5 . . ? 
C2D C3D H3D2 109.5 . . ? 
H3D1 C3D H3D2 109.5 . . ? 
C2D C3D H3D3 109.5 . . ? 
H3D1 C3D H3D3 109.5 . . ? 
H3D2 C3D H3D3 109.5 . . ? 
C2E C1E H1E1 109.5 . . ? 
C2E C1E H1E2 109.5 . . ? 
H1E1 C1E H1E2 109.5 . . ? 
C2E C1E H1E3 109.5 . . ? 
H1E1 C1E H1E3 109.5 . . ? 
H1E2 C1E H1E3 109.5 . . ? 
O1E C2E C1E 127(3) . . ? 
O1E C2E C3E 118(3) . . ? 
C1E C2E C3E 114(3) . . ? 
C2E C3E H3E1 109.5 . . ? 
C2E C3E H3E2 109.5 . . ? 
H3E1 C3E H3E2 109.5 . . ? 
C2E C3E H3E3 109.5 . . ? 
H3E1 C3E H3E3 109.5 . . ? 
H3E2 C3E H3E3 109.5 . . ? 
 
loop_ 
 _geom_torsion_atom_site_label_1 
 _geom_torsion_atom_site_label_2 
 _geom_torsion_atom_site_label_3 
 _geom_torsion_atom_site_label_4 
 _geom_torsion 
 _geom_torsion_site_symmetry_1 
 _geom_torsion_site_symmetry_2 
 _geom_torsion_site_symmetry_3 
 _geom_torsion_site_symmetry_4 
 _geom_torsion_publ_flag 
C20A C1A C2A C3A -176.3(4) . . . . ? 
C21A C1A C2A C3A 3.8(7) . . . . ? 
C20A C1A C2A C10A 3.5(7) . . . . ? 
C21A C1A C2A C10A -176.3(4) . . . . ? 
C1A C2A C3A C4A 179.2(5) . . . . ? 
C10A C2A C3A C4A -0.7(7) . . . . ? 
C2A C3A C4A C8A 2.6(7) . . . . ? 
C2A C3A C4A S5A -178.9(4) . . . . ? 
C3A C4A S5A C6A -178.9(5) . . . . ? 
C8A C4A S5A C6A -0.3(4) . . . . ? 
C4A S5A C6A C7A 0.2(4) . . . . ? 
C4A S5A C6A C37A -178.5(4) . . . . ? 
C37A C6A C7A C8A 178.4(5) . . . . ? 
S5A C6A C7A C8A 0.0(6) . . . . ? 
C6A C7A C8A C9A -178.8(5) . . . . ? 
C6A C7A C8A C4A -0.2(6) . . . . ? 
C3A C4A C8A C9A -2.2(7) . . . . ? 
S5A C4A C8A C9A 179.1(4) . . . . ? 
C3A C4A C8A C7A 179.1(5) . . . . ? 
S5A C4A C8A C7A 0.4(5) . . . . ? 
C7A C8A C9A C10A 178.3(5) . . . . ? 
C4A C8A C9A C10A -0.2(7) . . . . ? 
C8A C9A C10A C11A -179.0(5) . . . . ? 
C8A C9A C10A C2A 2.0(7) . . . . ? 
C1A C2A C10A C9A 178.5(4) . . . . ? 
C3A C2A C10A C9A -1.6(7) . . . . ? 
C1A C2A C10A C11A -0.5(7) . . . . ? 
C3A C2A C10A C11A 179.4(4) . . . . ? 
C9A C10A C11A C12A 178.0(5) . . . . ? 
C2A C10A C11A C12A -3.0(7) . . . . ? 
C9A C10A C11A C29A -3.7(7) . . . . ? 
C2A C10A C11A C29A 175.2(4) . . . . ? 
C10A C11A C12A C13A -176.4(4) . . . . ? 
C29A C11A C12A C13A 5.5(7) . . . . ? 
C10A C11A C12A C20A 3.4(7) . . . . ? 
C29A C11A C12A C20A -174.7(4) . . . . ? 
C11A C12A C13A C14A -179.8(5) . . . . ? 
C20A C12A C13A C14A 0.4(7) . . . . ? 
C12A C13A C14A C18A 0.4(7) . . . . ? 
C12A C13A C14A C15A -179.8(5) . . . . ? 
C13A C14A C15A C16A -178.1(5) . . . . ? 
C18A C14A C15A C16A 1.7(6) . . . . ? 
C14A C15A C16A C44A 177.9(5) . . . . ? 
C14A C15A C16A S17A -0.5(6) . . . . ? 
C15A C16A S17A C18A -0.6(4) . . . . ? 
C44A C16A S17A C18A -179.4(4) . . . . ? 
C13A C14A C18A C19A -0.5(7) . . . . ? 
C15A C14A C18A C19A 179.6(4) . . . . ? 
C13A C14A C18A S17A 177.8(4) . . . . ? 
C15A C14A C18A S17A -2.1(5) . . . . ? 
C16A S17A C18A C19A 179.7(5) . . . . ? 
C16A S17A C18A C14A 1.5(4) . . . . ? 
C14A C18A C19A C20A -0.1(7) . . . . ? 
S17A C18A C19A C20A -178.1(4) . . . . ? 
C18A C19A C20A C1A -179.6(4) . . . . ? 
C18A C19A C20A C12A 0.9(7) . . . . ? 
C2A C1A C20A C19A 177.3(5) . . . . ? 
C21A C1A C20A C19A -2.8(7) . . . . ? 
C2A C1A C20A C12A -3.1(7) . . . . ? 
C21A C1A C20A C12A 176.7(4) . . . . ? 
C11A C12A C20A C19A 179.2(4) . . . . ? 
C13A C12A C20A C19A -1.0(7) . . . . ? 
C11A C12A C20A C1A -0.4(7) . . . . ? 
C13A C12A C20A C1A 179.5(4) . . . . ? 
C2A C1A C21A C22A 44(28) . . . . ? 
C20A C1A C21A C22A -136(28) . . . . ? 
C1A C21A C22A Si1A 154(24) . . . . ? 
C23A Si1A C22A C21A 3(7) . . . . ? 
C25A Si1A C22A C21A -121(7) . . . . ? 
C27A Si1A C22A C21A 121(7) . . . . ? 
C22A Si1A C23A C24A -48.9(5) . . . . ? 
C25A Si1A C23A C24A 71.4(5) . . . . ? 
C27A Si1A C23A C24A -165.0(4) . . . . ? 
C22A Si1A C25A C26A 77.0(5) . . . . ? 
C23A Si1A C25A C26A -41.9(5) . . . . ? 
C27A Si1A C25A C26A -166.1(4) . . . . ? 
C22A Si1A C27A C28A 58.0(5) . . . . ? 
C23A Si1A C27A C28A 173.6(4) . . . . ? 
C25A Si1A C27A C28A -59.7(5) . . . . ? 
C12A C11A C29A C30A 152(8) . . . . ? 
C10A C11A C29A C30A -26(8) . . . . ? 
C11A C29A C30A Si2A -2(10) . . . . ? 
C31' Si2A C30A C29A 143(3) . . . . ? 
C35A Si2A C30A C29A -37(3) . . . . ? 
C33A Si2A C30A C29A 79(3) . . . . ? 
C35' Si2A C30A C29A -86(3) . . . . ? 
C31A Si2A C30A C29A -157(3) . . . . ? 
C33" Si2A C30A C29A 89(3) . . . . ? 
C33' Si2A C30A C29A 20(3) . . . . ? 
C31' Si2A C31A C32A 36.4(16) . . . . ? 
C35A Si2A C31A C32A 167.8(6) . . . . ? 
C30A Si2A C31A C32A -73.7(7) . . . . ? 
C33A Si2A C31A C32A 47.7(8) . . . . ? 
C35' Si2A C31A C32A -176.2(13) . . . . ? 
C33" Si2A C31A C32A 40.8(9) . . . . ? 
C33' Si2A C31A C32A 112.0(17) . . . . ? 
C35A Si2A C31' C32' -107(4) . . . . ? 
C30A Si2A C31' C32' 73(4) . . . . ? 
C33A Si2A C31' C32' 169(4) . . . . ? 
C35' Si2A C31' C32' -56(4) . . . . ? 
C31A Si2A C31' C32' -24(3) . . . . ? 
C33" Si2A C31' C32' 162(4) . . . . ? 
C33' Si2A C31' C32' -170(4) . . . . ? 
C31' Si2A C33A C34A -175(2) . . . . ? 
C35A Si2A C33A C34A 52.7(13) . . . . ? 
C30A Si2A C33A C34A -63.5(12) . . . . ? 
C35' Si2A C33A C34A 93(2) . . . . ? 
C31A Si2A C33A C34A 173.9(10) . . . . ? 
C33" Si2A C33A C34A -144(7) . . . . ? 
C33' Si2A C33A C34A 28.8(15) . . . . ? 
C31' Si2A C33' C34' -53(3) . . . . ? 
C35A Si2A C33' C34' 177(3) . . . . ? 
C30A Si2A C33' C34' 73(3) . . . . ? 
C33A Si2A C33' C34' -31(2) . . . . ? 
C35' Si2A C33' C34' -174(3) . . . . ? 
C31A Si2A C33' C34' -112(3) . . . . ? 
C33" Si2A C33' C34' -29(2) . . . . ? 
C31' Si2A C33" C34" 75(2) . . . . ? 
C35A Si2A C33" C34" -52.2(18) . . . . ? 
C30A Si2A C33" C34" -172.6(14) . . . . ? 
C33A Si2A C33" C34" -70(6) . . . . ? 
C35' Si2A C33" C34" -1(3) . . . . ? 
C31A Si2A C33" C34" 70.2(17) . . . . ? 
C33' Si2A C33" C34" -76.7(19) . . . . ? 
C31' Si2A C35A C36A 117.0(17) . . . . ? 
C30A Si2A C35A C36A -63.3(8) . . . . ? 
C33A Si2A C35A C36A -179.7(8) . . . . ? 
C35' Si2A C35A C36A 36.0(16) . . . . ? 
C31A Si2A C35A C36A 56.6(8) . . . . ? 
C33" Si2A C35A C36A 177.1(10) . . . . ? 
C33' Si2A C35A C36A -155.5(14) . . . . ? 
C31' Si2A C35' C36' -163(7) . . . . ? 
C35A Si2A C35' C36' -33(7) . . . . ? 
C30A Si2A C35' C36' 64(7) . . . . ? 
C33A Si2A C35' C36' -93(7) . . . . ? 
C31A Si2A C35' C36' 168(7) . . . . ? 
C33" Si2A C35' C36' -107(7) . . . . ? 
C33' Si2A C35' C36' -43(7) . . . . ? 
C38A N1A C37A O1A 1.0(9) . . . . ? 
C38A N1A C37A C6A -178.0(5) . . . . ? 
C7A C6A C37A O1A -172.0(5) . . . . ? 
S5A C6A C37A O1A 6.3(7) . . . . ? 
C7A C6A C37A N1A 7.0(8) . . . . ? 
S5A C6A C37A N1A -174.6(4) . . . . ? 
C37A N1A C38A C39A 20.5(8) . . . . ? 
C37A N1A C38A C43A -162.2(5) . . . . ? 
C43A C38A C39A C40A 3.3(8) . . . . ? 
N1A C38A C39A C40A -179.4(5) . . . . ? 
C38A C39A C40A C41A -2.1(9) . . . . ? 
C39A C40A C41A C42A -0.6(9) . . . . ? 
C40A C41A C42A C43A 2.0(9) . . . . ? 
C41A C42A C43A C38A -0.7(9) . . . . ? 
C39A C38A C43A C42A -2.0(8) . . . . ? 
N1A C38A C43A C42A -179.4(5) . . . . ? 
C45A N2A C44A O2A 2.4(8) . . . . ? 
C45A N2A C44A C16A -176.3(5) . . . . ? 
C15A C16A C44A O2A -178.6(5) . . . . ? 
S17A C16A C44A O2A -0.2(6) . . . . ? 
C15A C16A C44A N2A 0.2(8) . . . . ? 
S17A C16A C44A N2A 178.6(4) . . . . ? 
C44A N2A C45A C46A 165.5(5) . . . . ? 
C44A N2A C45A C50A -13.9(8) . . . . ? 
C50A C45A C46A C47A 0.2(8) . . . . ? 
N2A C45A C46A C47A -179.3(5) . . . . ? 
C45A C46A C47A C48A 0.0(8) . . . . ? 
C46A C47A C48A C49A 0.0(8) . . . . ? 
C47A C48A C49A C50A -0.3(8) . . . . ? 
C48A C49A C50A C45A 0.5(8) . . . . ? 
C46A C45A C50A C49A -0.5(8) . . . . ? 
N2A C45A C50A C49A 179.0(5) . . . . ? 
C20B C1B C2B C3B 179.7(5) . . . . ? 
C21B C1B C2B C3B -0.2(7) . . . . ? 
C20B C1B C2B C10B 2.8(7) . . . . ? 
C21B C1B C2B C10B -177.0(4) . . . . ? 
C1B C2B C3B C4B -175.4(5) . . . . ? 
C10B C2B C3B C4B 1.5(7) . . . . ? 
C2B C3B C4B C8B -0.7(7) . . . . ? 
C2B C3B C4B S5B 177.4(4) . . . . ? 
C3B C4B S5B C6B -179.8(5) . . . . ? 
C8B C4B S5B C6B -1.6(4) . . . . ? 
C4B S5B C6B C7B 0.9(4) . . . . ? 
C4B S5B C6B C37B -178.2(4) . . . . ? 
C37B C6B C7B C8B 179.0(5) . . . . ? 
S5B C6B C7B C8B 0.0(6) . . . . ? 
C3B C4B C8B C9B -0.7(7) . . . . ? 
S5B C4B C8B C9B -179.1(4) . . . . ? 
C3B C4B C8B C7B -179.8(5) . . . . ? 
S5B C4B C8B C7B 1.9(5) . . . . ? 
C6B C7B C8B C9B 179.9(5) . . . . ? 
C6B C7B C8B C4B -1.2(6) . . . . ? 
C4B C8B C9B C10B 1.4(7) . . . . ? 
C7B C8B C9B C10B -179.8(5) . . . . ? 
C8B C9B C10B C11B 179.9(5) . . . . ? 
C8B C9B C10B C2B -0.6(7) . . . . ? 
C3B C2B C10B C11B 178.7(4) . . . . ? 
C1B C2B C10B C11B -4.4(7) . . . . ? 
C3B C2B C10B C9B -0.8(7) . . . . ? 
C1B C2B C10B C9B 176.1(4) . . . . ? 
C9B C10B C11B C12B -179.3(4) . . . . ? 
C2B C10B C11B C12B 1.2(7) . . . . ? 
C9B C10B C11B C29B -1.1(7) . . . . ? 
C2B C10B C11B C29B 179.4(4) . . . . ? 
C10B C11B C12B C13B -178.1(4) . . . . ? 
C29B C11B C12B C13B 3.6(7) . . . . ? 
C10B C11B C12B C20B 3.5(7) . . . . ? 
C29B C11B C12B C20B -174.8(4) . . . . ? 
C11B C12B C13B C14B -177.7(4) . . . . ? 
C20B C12B C13B C14B 0.7(7) . . . . ? 
C12B C13B C14B C18B 1.6(7) . . . . ? 
C12B C13B C14B C15B -178.9(5) . . . . ? 
C13B C14B C15B C16B -179.2(5) . . . . ? 
C18B C14B C15B C16B 0.2(6) . . . . ? 
C14B C15B C16B C44B -179.6(5) . . . . ? 
C14B C15B C16B S17B 0.2(6) . . . . ? 
C15B C16B S17B C18B -0.4(4) . . . . ? 
C44B C16B S17B C18B 179.4(4) . . . . ? 
C13B C14B C18B C19B -2.0(7) . . . . ? 
C15B C14B C18B C19B 178.5(5) . . . . ? 
C13B C14B C18B S17B 179.0(4) . . . . ? 
C15B C14B C18B S17B -0.6(5) . . . . ? 
C16B S17B C18B C19B -178.4(5) . . . . ? 
C16B S17B C18B C14B 0.6(4) . . . . ? 
C14B C18B C19B C20B -0.1(7) . . . . ? 
S17B C18B C19B C20B 178.8(4) . . . . ? 
C2B C1B C20B C19B -178.9(4) . . . . ? 
C21B C1B C20B C19B 0.9(8) . . . . ? 
C2B C1B C20B C12B 2.0(7) . . . . ? 
C21B C1B C20B C12B -178.2(4) . . . . ? 
C18B C19B C20B C1B -176.8(5) . . . . ? 
C18B C19B C20B C12B 2.3(7) . . . . ? 
C13B C12B C20B C1B 176.5(5) . . . . ? 
C11B C12B C20B C1B -5.1(7) . . . . ? 
C13B C12B C20B C19B -2.6(7) . . . . ? 
C11B C12B C20B C19B 175.8(4) . . . . ? 
C20B C1B C21B C22B -39(38) . . . . ? 
C2B C1B C21B C22B 141(38) . . . . ? 
C1B C21B C22B Si1B -132(33) . . . . ? 
C25B Si1B C22B C21B 107(18) . . . . ? 
C27B Si1B C22B C21B -13(18) . . . . ? 
C23B Si1B C22B C21B -133(18) . . . . ? 
C22B Si1B C23B C24B 56.6(5) . . . . ? 
C25B Si1B C23B C24B 175.4(4) . . . . ? 
C27B Si1B C23B C24B -60.6(5) . . . . ? 
C22B Si1B C25B C26B 57.1(8) . . . . ? 
C27B Si1B C25B C26B 174.8(7) . . . . ? 
C23B Si1B C25B C26B -60.9(8) . . . . ? 
C22B Si1B C27B C28B 48.6(5) . . . . ? 
C25B Si1B C27B C28B -70.1(5) . . . . ? 
C23B Si1B C27B C28B 166.1(4) . . . . ? 
C10B C11B C29B C30B -109(14) . . . . ? 
C12B C11B C29B C30B 69(14) . . . . ? 
C11B C29B C30B Si2B -31(17) . . . . ? 
C33B Si2B C30B C29B -71(5) . . . . ? 
C31B Si2B C30B C29B 47(5) . . . . ? 
C35B Si2B C30B C29B 168(4) . . . . ? 
C30B Si2B C31B C32B -175.7(5) . . . . ? 
C33B Si2B C31B C32B -59.4(6) . . . . ? 
C35B Si2B C31B C32B 64.3(6) . . . . ? 
C30B Si2B C33B C34B 53.8(5) . . . . ? 
C31B Si2B C33B C34B -62.5(5) . . . . ? 
C35B Si2B C33B C34B 173.2(4) . . . . ? 
C30B Si2B C35B C36B 164.2(6) . . . . ? 
C33B Si2B C35B C36B 45.7(7) . . . . ? 
C31B Si2B C35B C36B -76.9(7) . . . . ? 
C38B N1B C37B O1B 1.8(8) . . . . ? 
C38B N1B C37B C6B -179.1(5) . . . . ? 
C7B C6B C37B O1B 175.1(5) . . . . ? 
S5B C6B C37B O1B -6.0(7) . . . . ? 
C7B C6B C37B N1B -4.1(8) . . . . ? 
S5B C6B C37B N1B 174.9(4) . . . . ? 
C37B N1B C38B C39B 12.2(8) . . . . ? 
C37B N1B C38B C43B -167.6(5) . . . . ? 
C43B C38B C39B C40B 1.3(8) . . . . ? 
N1B C38B C39B C40B -178.4(5) . . . . ? 
C38B C39B C40B C41B -1.0(8) . . . . ? 
C39B C40B C41B C42B -0.1(8) . . . . ? 
C40B C41B C42B C43B 0.8(8) . . . . ? 
C41B C42B C43B C38B -0.6(8) . . . . ? 
C39B C38B C43B C42B -0.5(8) . . . . ? 
N1B C38B C43B C42B 179.2(5) . . . . ? 
C45B N2B C44B O2B -0.6(8) . . . . ? 
C45B N2B C44B C16B 178.7(5) . . . . ? 
C15B C16B C44B O2B 175.8(5) . . . . ? 
S17B C16B C44B O2B -4.0(7) . . . . ? 
C15B C16B C44B N2B -3.5(8) . . . . ? 
S17B C16B C44B N2B 176.6(3) . . . . ? 
C44B N2B C45B C46B 176.3(5) . . . . ? 
C44B N2B C45B C50B -4.2(8) . . . . ? 
C50B C45B C46B C47B -0.5(8) . . . . ? 
N2B C45B C46B C47B 179.0(5) . . . . ? 
C45B C46B C47B C48B 1.5(8) . . . . ? 
C46B C47B C48B C49B -1.4(8) . . . . ? 
C47B C48B C49B C50B 0.4(8) . . . . ? 
C48B C49B C50B C45B 0.6(8) . . . . ? 
C46B C45B C50B C49B -0.6(8) . . . . ? 
N2B C45B C50B C49B 179.9(5) . . . . ? 
 
_diffrn_measured_fraction_theta_max    0.960 
_diffrn_reflns_theta_full              68.43 
_diffrn_measured_fraction_theta_full   0.960 
_refine_diff_density_max    0.722 
_refine_diff_density_min   -0.442 
_refine_diff_density_rms    0.085 
