data_x10174 

# start Validation Reply Form
_vrf_PLAT412_x10174
;
PROBLEM: Short Intra XH3 .. XHn     H24B   ..  H29'    ..       1.55 Ang. 
RESPONSE: This is a consequence of disorder.  A minor component was very
apparent for two of the isopropyl groups attached to Si1, but not to the
third.  As a result of their proximity this third isopropyl group must be 
disordered as well, but the minor component was not apparent in any of 
the difference maps.  Although it would have been possible to ignore the 
disorder completely, the fit was much better with it included.  The above
short contact is between a minor component H and the refined-at-full 
occupancy H of the aforementioned third isopropyl.
;
# end Validation Reply Form

 
_audit_creation_method            SHELXL-97 
_chemical_name_systematic 
; 
 ? 
; 
_chemical_name_common             ? 
_chemical_melting_point           ? 
_chemical_formula_moiety 
 'C64 H80 N2 O2 S2 Si2' 
_chemical_formula_sum 
 'C64 H80 N2 O2 S2 Si2' 
_chemical_formula_weight          1029.60 
 
loop_ 
 _atom_type_symbol 
 _atom_type_description 
 _atom_type_scat_dispersion_real 
 _atom_type_scat_dispersion_imag 
 _atom_type_scat_source 
 'C'  'C'   0.0181   0.0091 
 'International Tables Vol C Tables 4.2.6.8 and 6.1.1.4' 
 'H'  'H'   0.0000   0.0000 
 'International Tables Vol C Tables 4.2.6.8 and 6.1.1.4' 
 'N'  'N'   0.0311   0.0180 
 'International Tables Vol C Tables 4.2.6.8 and 6.1.1.4' 
 'O'  'O'   0.0492   0.0322 
 'International Tables Vol C Tables 4.2.6.8 and 6.1.1.4' 
 'Si'  'Si'   0.2541   0.3302 
 'International Tables Vol C Tables 4.2.6.8 and 6.1.1.4' 
 'S'  'S'   0.3331   0.5567 
 'International Tables Vol C Tables 4.2.6.8 and 6.1.1.4' 
 
_symmetry_cell_setting            monoclinic 
_symmetry_space_group_name_H-M    'P 21/n'
_symmetry_space_group_name_Hall   '-P 2yn'
 
loop_ 
 _symmetry_equiv_pos_as_xyz 
 'x, y, z' 
 '-x+1/2, y+1/2, -z+1/2' 
 '-x, -y, -z' 
 'x-1/2, -y-1/2, z-1/2' 
 
_cell_length_a                    11.6566(5) 
_cell_length_b                    35.6563(12) 
_cell_length_c                    14.7698(7) 
_cell_angle_alpha                 90.00 
_cell_angle_beta                  103.720(3) 
_cell_angle_gamma                 90.00 
_cell_volume                      5963.6(4) 
_cell_formula_units_Z             4 
_cell_measurement_temperature     90.0(2) 
_cell_measurement_reflns_used     6974 
_cell_measurement_theta_min       2.48
_cell_measurement_theta_max       67.56
 
_exptl_crystal_description        rod
_exptl_crystal_colour             red
_exptl_crystal_size_max           0.32 
_exptl_crystal_size_mid           0.08 
_exptl_crystal_size_min           0.02 
_exptl_crystal_density_meas       ? 
_exptl_crystal_density_diffrn     1.147 
_exptl_crystal_density_method     'not measured' 
_exptl_crystal_F_000              2216 
_exptl_absorpt_coefficient_mu     1.519 
_exptl_absorpt_correction_type    multi-scan 
_exptl_absorpt_correction_T_min   0.659 
_exptl_absorpt_correction_T_max   0.970 
_exptl_absorpt_process_details    'Sadabs in APEX2 (BrukerAXS, 2006)' 
 
_exptl_special_details 
; 
 ? 
; 
 
_diffrn_ambient_temperature       90.0(2) 
_diffrn_radiation_wavelength      1.54178 
_diffrn_radiation_type            CuK\a 
_diffrn_radiation_source          'fine-focus rotating anode' 
_diffrn_radiation_monochromator   'graded multilayer optics' 
_diffrn_measurement_device_type   'Bruker X8 Proteum diffractometer'
_diffrn_measurement_method        '\f and \w scans'            
_diffrn_detector_area_resol_mean  5.6
_diffrn_standards_number          0 
_diffrn_standards_interval_count  . 
_diffrn_standards_interval_time   . 
_diffrn_standards_decay_%         ? 
_diffrn_reflns_number             63288 
_diffrn_reflns_av_R_equivalents   0.1208 
_diffrn_reflns_av_sigmaI/netI     0.0911 
_diffrn_reflns_limit_h_min        -13 
_diffrn_reflns_limit_h_max        13 
_diffrn_reflns_limit_k_min        -42 
_diffrn_reflns_limit_k_max        42 
_diffrn_reflns_limit_l_min        -16 
_diffrn_reflns_limit_l_max        17 
_diffrn_reflns_theta_min          2.48 
_diffrn_reflns_theta_max          68.21 
_reflns_number_total              10281 
_reflns_number_gt                 6629 
_reflns_threshold_expression      >2\s(I)    
 
_computing_data_collection        'APEX2 (Bruker-AXS, 2006)'            
_computing_cell_refinement        'APEX2'
_computing_data_reduction         'APEX2'
_computing_structure_solution     'SHELXS-97 (Sheldrick, 2008)' 
_computing_structure_refinement   'SHELXL-97 (Sheldrick, 2008)' 
_computing_molecular_graphics     'XP in SHELXTL (Sheldrick, 2008)'
_computing_publication_material
; 
SHELX-97 (Sheldrick, 2008) and local procedures 
; 
 
_publ_section_exptl_refinement
;
H atoms were found in difference Fourier maps and subsequently placed in
idealized positions with constrained distances of 
0.98 \%A (RCH~3~),
0.99 \%A (R~2~CH~2~),
1.00 \%A (R~3~CH),
0.95 \%A (C~Ar~H),
and with U~iso~(H) values set to either 1.2U~eq~ or 1.5U~eq~ (RCH~3~) 
of the attached atom. 

To ensure satisfactory geometry and displacement parameters, the disorder
in this structure was subject to both constraints and restraints using the 
SHELXL97 commands EADP and SAME, respectively.
;

_refine_special_details 
; 
 Refinement of F^2^ against ALL reflections.  The weighted R-factor wR and 
 goodness of fit S are based on F^2^, conventional R-factors R are based 
 on F, with F set to zero for negative F^2^. The threshold expression of 
 F^2^ > 2\s(F^2^) is used only for calculating R-factors(gt) etc. and is 
 not relevant to the choice of reflections for refinement.  R-factors based 
 on F^2^ are statistically about twice as large as those based on F, and R- 
 factors based on ALL data will be even larger. 
; 
 
_refine_ls_structure_factor_coef  Fsqd  
_refine_ls_matrix_type            full 
_refine_ls_weighting_scheme       calc  
_refine_ls_weighting_details 
 'calc w=1/[\s^2^(Fo^2^)+(0.0829P)^2^+11.5781P] where P=(Fo^2^+2Fc^2^)/3' 
_atom_sites_solution_primary      direct 
_atom_sites_solution_secondary    difmap 
_atom_sites_solution_hydrogens    geom 
_refine_ls_hydrogen_treatment     constr 
_refine_ls_extinction_method      SHELXL 
_refine_ls_extinction_coef        0.00030(5) 
_refine_ls_extinction_expression 
 'Fc^*^=kFc[1+0.001xFc^2^\l^3^/sin(2\q)]^-1/4^' 
_refine_ls_number_reflns          10281 
_refine_ls_number_parameters      705 
_refine_ls_number_restraints      155 
_refine_ls_R_factor_all           0.1309 
_refine_ls_R_factor_gt            0.0821 
_refine_ls_wR_factor_ref          0.2105 
_refine_ls_wR_factor_gt           0.1873 
_refine_ls_goodness_of_fit_ref    1.068 
_refine_ls_restrained_S_all       1.064 
_refine_ls_shift/su_max           0.003 
_refine_ls_shift/su_mean          0.000 
 
loop_ 
 _atom_site_label 
 _atom_site_type_symbol 
 _atom_site_fract_x 
 _atom_site_fract_y 
 _atom_site_fract_z 
 _atom_site_U_iso_or_equiv 
 _atom_site_adp_type 
 _atom_site_occupancy 
 _atom_site_symmetry_multiplicity 
 _atom_site_calc_flag 
 _atom_site_refinement_flags 
 _atom_site_disorder_assembly 
 _atom_site_disorder_group 
Si2 Si 0.56517(12) 0.39751(3) 0.61581(9) 0.0270(3) Uani 1 1 d . . . 
N1 N 1.2707(3) 0.28182(9) 0.9723(3) 0.0214(8) Uani 1 1 d . . . 
N2 N -0.0556(3) 0.27131(9) 0.3156(3) 0.0229(9) Uani 1 1 d . . . 
O1 O 1.2576(3) 0.21921(8) 0.9840(2) 0.0250(7) Uani 1 1 d . . . 
O2 O -0.0388(3) 0.20871(8) 0.3037(2) 0.0261(8) Uani 1 1 d . . . 
C1 C 0.6121(4) 0.19433(10) 0.6470(3) 0.0194(9) Uani 1 1 d . . . 
C2 C 0.7102(4) 0.21497(11) 0.6978(3) 0.0178(9) Uani 1 1 d . . . 
C3 C 0.8123(4) 0.19685(11) 0.7521(3) 0.0203(9) Uani 1 1 d . . . 
H3 H 0.8149 0.1703 0.7567 0.024 Uiso 1 1 calc R . . 
C4 C 0.9067(4) 0.21783(11) 0.7978(3) 0.0185(9) Uani 1 1 d . . . 
S5 S 1.04049(10) 0.20166(3) 0.86509(8) 0.0207(3) Uani 1 1 d . . . 
C6 C 1.0930(4) 0.24786(11) 0.8890(3) 0.0210(10) Uani 1 1 d . . . 
C7 C 1.0125(4) 0.27390(11) 0.8477(3) 0.0217(10) Uani 1 1 d . . . 
H7 H 1.0261 0.3001 0.8539 0.026 Uiso 1 1 calc R . . 
C8 C 0.9048(4) 0.25786(11) 0.7936(3) 0.0214(10) Uani 1 1 d . . . 
C9 C 0.8062(4) 0.27608(10) 0.7430(3) 0.0183(9) Uani 1 1 d . . . 
H9 H 0.8040 0.3027 0.7413 0.022 Uiso 1 1 calc R . . 
C10 C 0.7084(4) 0.25521(11) 0.6935(3) 0.0191(9) Uani 1 1 d . . . 
C11 C 0.6071(4) 0.27361(10) 0.6406(3) 0.0178(9) Uani 1 1 d . . . 
C12 C 0.5088(4) 0.25310(10) 0.5913(3) 0.0186(9) Uani 1 1 d . . . 
C13 C 0.4069(4) 0.27169(10) 0.5395(3) 0.0183(9) Uani 1 1 d . . . 
H13 H 0.4046 0.2983 0.5384 0.022 Uiso 1 1 calc R . . 
C14 C 0.3120(4) 0.25179(11) 0.4910(3) 0.0188(9) Uani 1 1 d . . . 
C15 C 0.2042(4) 0.26591(11) 0.4355(3) 0.0217(10) Uani 1 1 d . . . 
H15 H 0.1884 0.2919 0.4257 0.026 Uiso 1 1 calc R . . 
C16 C 0.1253(4) 0.23859(11) 0.3976(3) 0.0216(10) Uani 1 1 d . . . 
S17 S 0.18206(10) 0.19323(3) 0.42753(8) 0.0217(3) Uani 1 1 d . . . 
C18 C 0.3145(4) 0.21168(11) 0.4934(3) 0.0191(9) Uani 1 1 d . . . 
C19 C 0.4114(4) 0.19250(11) 0.5426(3) 0.0197(9) Uani 1 1 d . . . 
H19 H 0.4120 0.1659 0.5428 0.024 Uiso 1 1 calc R . . 
C20 C 0.5109(4) 0.21283(10) 0.5932(3) 0.0193(9) Uani 1 1 d . . . 
C21 C 0.6166(4) 0.15437(11) 0.6497(3) 0.0230(10) Uani 1 1 d . . . 
C22 C 0.6228(4) 0.12087(12) 0.6533(4) 0.0311(12) Uani 1 1 d . A . 
Si1 Si 0.63399(13) 0.06919(3) 0.65644(11) 0.0380(4) Uani 1 1 d D . . 
C23 C 0.5772(5) 0.05228(14) 0.5331(5) 0.056(2) Uani 1 1 d D A . 
H23 H 0.5878 0.0244 0.5330 0.067 Uiso 1 1 calc R . . 
C24 C 0.6527(7) 0.06960(18) 0.4690(5) 0.073(2) Uani 1 1 d D . . 
H24A H 0.6277 0.0589 0.4063 0.109 Uiso 1 1 calc R A . 
H24B H 0.7363 0.0639 0.4948 0.109 Uiso 1 1 calc R . . 
H24C H 0.6414 0.0968 0.4656 0.109 Uiso 1 1 calc R . . 
C25 C 0.4487(6) 0.06038(17) 0.4954(6) 0.079(3) Uani 1 1 d D . . 
H25A H 0.4364 0.0876 0.4910 0.119 Uiso 1 1 calc R A . 
H25B H 0.4033 0.0497 0.5372 0.119 Uiso 1 1 calc R . . 
H25C H 0.4223 0.0492 0.4334 0.119 Uiso 1 1 calc R . . 
C26 C 0.5265(6) 0.05265(15) 0.7270(5) 0.0431(18) Uani 0.849(7) 1 d P A 1 
H26 H 0.4470 0.0622 0.6935 0.052 Uiso 0.849(7) 1 calc PR A 1 
C27 C 0.5156(8) 0.00960(18) 0.7289(7) 0.065(3) Uani 0.849(7) 1 d P A 1 
H27A H 0.5934 -0.0014 0.7553 0.098 Uiso 0.849(7) 1 calc PR A 1 
H27B H 0.4855 0.0003 0.6652 0.098 Uiso 0.849(7) 1 calc PR A 1 
H27C H 0.4610 0.0025 0.7672 0.098 Uiso 0.849(7) 1 calc PR A 1 
C28 C 0.5492(8) 0.0686(2) 0.8250(7) 0.054(2) Uani 0.849(7) 1 d P A 1 
H28A H 0.4874 0.0600 0.8550 0.082 Uiso 0.849(7) 1 calc PR A 1 
H28B H 0.5485 0.0961 0.8220 0.082 Uiso 0.849(7) 1 calc PR A 1 
H28C H 0.6264 0.0600 0.8612 0.082 Uiso 0.849(7) 1 calc PR A 1 
C26' C 0.627(3) 0.0503(7) 0.7750(15) 0.0431(18) Uani 0.151(7) 1 d PD A 2 
H26' H 0.7120 0.0490 0.8096 0.052 Uiso 0.151(7) 1 calc PR A 2 
C27' C 0.572(5) 0.0788(12) 0.832(3) 0.054(2) Uani 0.151(7) 1 d PD A 2 
H27D H 0.6044 0.1039 0.8264 0.082 Uiso 0.151(7) 1 calc PR A 2 
H27E H 0.5912 0.0713 0.8978 0.082 Uiso 0.151(7) 1 calc PR A 2 
H27F H 0.4862 0.0793 0.8082 0.082 Uiso 0.151(7) 1 calc PR A 2 
C28' C 0.586(4) 0.0105(7) 0.776(3) 0.065(3) Uani 0.151(7) 1 d PD A 2 
H28D H 0.6257 -0.0051 0.7381 0.098 Uiso 0.151(7) 1 calc PR A 2 
H28E H 0.5003 0.0094 0.7501 0.098 Uiso 0.151(7) 1 calc PR A 2 
H28F H 0.6043 0.0012 0.8401 0.098 Uiso 0.151(7) 1 calc PR A 2 
C29 C 0.7876(6) 0.05515(15) 0.7123(6) 0.0416(19) Uani 0.849(7) 1 d P A 1 
H29 H 0.7932 0.0536 0.7808 0.050 Uiso 0.849(7) 1 calc PR A 1 
C30 C 0.8201(10) 0.0159(2) 0.6809(8) 0.063(4) Uani 0.849(7) 1 d P A 1 
H30A H 0.8164 0.0163 0.6139 0.094 Uiso 0.849(7) 1 calc PR A 1 
H30B H 0.7643 -0.0028 0.6938 0.094 Uiso 0.849(7) 1 calc PR A 1 
H30C H 0.9003 0.0093 0.7151 0.094 Uiso 0.849(7) 1 calc PR A 1 
C31 C 0.8829(6) 0.08376(18) 0.6989(6) 0.041(2) Uani 0.849(7) 1 d P A 1 
H31A H 0.9606 0.0758 0.7354 0.062 Uiso 0.849(7) 1 calc PR A 1 
H31B H 0.8642 0.1086 0.7199 0.062 Uiso 0.849(7) 1 calc PR A 1 
H31C H 0.8840 0.0849 0.6328 0.062 Uiso 0.849(7) 1 calc PR A 1 
C29' C 0.7962(17) 0.0593(8) 0.654(3) 0.0416(19) Uani 0.151(7) 1 d PD A 2 
H29' H 0.8104 0.0704 0.5955 0.050 Uiso 0.151(7) 1 calc PR A 2 
C30' C 0.883(3) 0.0785(12) 0.738(3) 0.041(2) Uani 0.151(7) 1 d PD A 2 
H30D H 0.8713 0.1057 0.7345 0.062 Uiso 0.151(7) 1 calc PR A 2 
H30E H 0.9646 0.0726 0.7363 0.062 Uiso 0.151(7) 1 calc PR A 2 
H30F H 0.8678 0.0692 0.7967 0.062 Uiso 0.151(7) 1 calc PR A 2 
C31' C 0.820(5) 0.0178(11) 0.653(6) 0.063(4) Uani 0.151(7) 1 d PD A 2 
H31D H 0.7565 0.0056 0.6072 0.094 Uiso 0.151(7) 1 calc PR A 2 
H31E H 0.8244 0.0073 0.7149 0.094 Uiso 0.151(7) 1 calc PR A 2 
H31F H 0.8955 0.0137 0.6358 0.094 Uiso 0.151(7) 1 calc PR A 2 
C32 C 0.6038(4) 0.31365(11) 0.6345(3) 0.0216(10) Uani 1 1 d . . . 
C33 C 0.5951(4) 0.34720(11) 0.6270(3) 0.0260(11) Uani 1 1 d . . . 
C34 C 0.4048(5) 0.40125(15) 0.5534(4) 0.0498(17) Uani 1 1 d . . . 
H34 H 0.3626 0.3859 0.5920 0.060 Uiso 1 1 calc R . . 
C35 C 0.3722(6) 0.38317(17) 0.4582(5) 0.058(2) Uani 1 1 d . . . 
H35A H 0.2862 0.3807 0.4381 0.087 Uiso 1 1 calc R . . 
H35B H 0.4086 0.3583 0.4612 0.087 Uiso 1 1 calc R . . 
H35C H 0.4007 0.3988 0.4135 0.087 Uiso 1 1 calc R . . 
C36 C 0.3525(6) 0.44016(18) 0.5536(5) 0.072(2) Uani 1 1 d . . . 
H36A H 0.3835 0.4565 0.5116 0.108 Uiso 1 1 calc R . . 
H36B H 0.3739 0.4504 0.6169 0.108 Uiso 1 1 calc R . . 
H36C H 0.2663 0.4387 0.5324 0.108 Uiso 1 1 calc R . . 
C37 C 0.6792(5) 0.41886(13) 0.5578(4) 0.0388(13) Uani 1 1 d . . . 
H37 H 0.7578 0.4151 0.6021 0.047 Uiso 1 1 calc R . . 
C38 C 0.6858(6) 0.39931(16) 0.4676(4) 0.0477(15) Uani 1 1 d . . . 
H38A H 0.6143 0.4049 0.4193 0.072 Uiso 1 1 calc R . . 
H38B H 0.6921 0.3722 0.4780 0.072 Uiso 1 1 calc R . . 
H38C H 0.7552 0.4083 0.4474 0.072 Uiso 1 1 calc R . . 
C39 C 0.6636(8) 0.46149(16) 0.5429(6) 0.078(3) Uani 1 1 d . . . 
H39A H 0.7271 0.4713 0.5163 0.117 Uiso 1 1 calc R . . 
H39B H 0.6668 0.4738 0.6028 0.117 Uiso 1 1 calc R . . 
H39C H 0.5871 0.4666 0.5001 0.117 Uiso 1 1 calc R . . 
C40 C 0.5868(4) 0.41598(12) 0.7376(3) 0.0288(11) Uani 1 1 d . . . 
H40 H 0.5681 0.4434 0.7335 0.035 Uiso 1 1 calc R . . 
C41 C 0.5031(5) 0.39703(14) 0.7895(4) 0.0414(14) Uani 1 1 d . . . 
H41A H 0.5160 0.3699 0.7909 0.062 Uiso 1 1 calc R . . 
H41B H 0.4211 0.4025 0.7573 0.062 Uiso 1 1 calc R . . 
H41C H 0.5185 0.4067 0.8534 0.062 Uiso 1 1 calc R . . 
C42 C 0.7127(5) 0.41143(14) 0.7940(4) 0.0408(14) Uani 1 1 d . . . 
H42A H 0.7202 0.4221 0.8562 0.061 Uiso 1 1 calc R . . 
H42B H 0.7664 0.4245 0.7626 0.061 Uiso 1 1 calc R . . 
H42C H 0.7330 0.3847 0.7995 0.061 Uiso 1 1 calc R . . 
C43 C 1.2123(4) 0.24910(11) 0.9513(3) 0.0211(10) Uani 1 1 d . . . 
C44 C 1.3884(4) 0.28156(12) 1.0351(3) 0.0245(10) Uani 1 1 d . . . 
H44A H 1.4458 0.2685 1.0063 0.029 Uiso 1 1 calc R . . 
H44B H 1.3873 0.2691 1.0948 0.029 Uiso 1 1 calc R . . 
C45 C 1.4192(5) 0.32299(12) 1.0499(3) 0.0312(12) Uani 1 1 d . . . 
H45A H 1.5055 0.3271 1.0610 0.037 Uiso 1 1 calc R . . 
H45B H 1.3913 0.3332 1.1032 0.037 Uiso 1 1 calc R . . 
C46 C 1.3537(4) 0.34074(12) 0.9583(3) 0.0298(11) Uani 1 1 d . . . 
H46A H 1.3404 0.3678 0.9663 0.036 Uiso 1 1 calc R . . 
H46B H 1.3981 0.3375 0.9095 0.036 Uiso 1 1 calc R . . 
C47 C 1.2371(4) 0.31940(11) 0.9339(3) 0.0266(11) Uani 1 1 d . . . 
H47A H 1.1780 0.3310 0.9634 0.032 Uiso 1 1 calc R . . 
H47B H 1.2048 0.3184 0.8656 0.032 Uiso 1 1 calc R . . 
C48 C 0.0050(4) 0.23881(11) 0.3361(3) 0.0209(10) Uani 1 1 d . . . 
C49 C -0.0243(4) 0.30903(11) 0.3544(3) 0.0250(10) Uani 1 1 d . . . 
H49A H 0.0343 0.3211 0.3250 0.030 Uiso 1 1 calc R . . 
H49B H 0.0081 0.3080 0.4226 0.030 Uiso 1 1 calc R . . 
C50 C -0.1425(4) 0.32989(12) 0.3301(3) 0.0274(11) Uani 1 1 d . . . 
H50A H -0.1851 0.3270 0.3802 0.033 Uiso 1 1 calc R . . 
H50B H -0.1306 0.3569 0.3201 0.033 Uiso 1 1 calc R . . 
C51 C -0.2105(4) 0.31115(13) 0.2399(3) 0.0304(11) Uani 1 1 d . . . 
H51A H -0.2968 0.3141 0.2319 0.037 Uiso 1 1 calc R . . 
H51B H -0.1875 0.3219 0.1849 0.037 Uiso 1 1 calc R . . 
C52 C -0.1742(4) 0.27020(12) 0.2536(3) 0.0287(11) Uani 1 1 d . . . 
H52A H -0.2294 0.2561 0.2825 0.034 Uiso 1 1 calc R . . 
H52B H -0.1725 0.2583 0.1933 0.034 Uiso 1 1 calc R . . 
C1S C 0.1773(6) 0.06363(18) 0.6302(5) 0.0606(19) Uani 1 1 d . . . 
C2S C 0.2060(6) 0.0569(2) 0.7239(5) 0.0577(18) Uani 1 1 d . . . 
H2S H 0.2299 0.0771 0.7661 0.069 Uiso 1 1 calc R . . 
C3S C 0.2003(8) 0.0204(3) 0.7584(6) 0.083(3) Uani 1 1 d . . . 
H3S H 0.2205 0.0161 0.8237 0.099 Uiso 1 1 calc R . . 
C4S C 0.1662(7) -0.0086(2) 0.6989(7) 0.077(2) Uani 1 1 d . . . 
H4S H 0.1613 -0.0332 0.7219 0.092 Uiso 1 1 calc R . . 
C5S C 0.1382(7) -0.0015(2) 0.6026(6) 0.072(2) Uani 1 1 d . . . 
H5S H 0.1169 -0.0217 0.5600 0.086 Uiso 1 1 calc R . . 
C6S C 0.1413(6) 0.03343(18) 0.5703(5) 0.065(2) Uani 1 1 d . . . 
H6S H 0.1184 0.0378 0.5050 0.078 Uiso 1 1 calc R . . 
C7S C 0.1808(8) 0.1018(2) 0.5948(6) 0.094(3) Uani 1 1 d . . . 
H7S1 H 0.1501 0.1193 0.6345 0.141 Uiso 1 1 calc R . . 
H7S2 H 0.1322 0.1032 0.5309 0.141 Uiso 1 1 calc R . . 
H7S3 H 0.2625 0.1085 0.5953 0.141 Uiso 1 1 calc R . . 
C8S C 0.5623(14) 0.1204(4) 0.1504(7) 0.040(2) Uani 0.50 1 d PDU B 1 
C9S C 0.6769(14) 0.1326(5) 0.1818(12) 0.038(3) Uani 0.50 1 d PDU B 1 
H9S H 0.7368 0.1150 0.2080 0.045 Uiso 0.50 1 calc PR B 1 
C10S C 0.706(2) 0.1693(6) 0.1764(16) 0.037(2) Uani 0.50 1 d PDU B 1 
H10S H 0.7860 0.1772 0.1985 0.044 Uiso 0.50 1 calc PR B 1 
C11S C 0.620(3) 0.1949(6) 0.1384(17) 0.0358(17) Uani 0.50 1 d PDU B 1 
H11S H 0.6393 0.2206 0.1342 0.043 Uiso 0.50 1 calc PR B 1 
C12S C 0.503(2) 0.1832(5) 0.1062(15) 0.030(2) Uani 0.50 1 d PDU B 1 
H12S H 0.4437 0.2009 0.0800 0.036 Uiso 0.50 1 calc PR B 1 
C13S C 0.4750(16) 0.1465(5) 0.1123(11) 0.034(3) Uani 0.50 1 d PDU B 1 
H13S H 0.3954 0.1385 0.0905 0.041 Uiso 0.50 1 calc PR B 1 
C14S C 0.5314(16) 0.0794(4) 0.1568(10) 0.068(3) Uani 0.50 1 d PDU B 1 
H14A H 0.5025 0.0692 0.0939 0.102 Uiso 0.50 1 calc PR B 1 
H14B H 0.4699 0.0769 0.1915 0.102 Uiso 0.50 1 calc PR B 1 
H14C H 0.6019 0.0655 0.1890 0.102 Uiso 0.50 1 calc PR B 1 
C15S C 0.5593(14) 0.1235(4) 0.1829(7) 0.040(2) Uani 0.50 1 d PDU C 2 
C16S C 0.6730(14) 0.1374(5) 0.2042(12) 0.038(3) Uani 0.50 1 d PDU C 2 
H16S H 0.7356 0.1215 0.2350 0.045 Uiso 0.50 1 calc PR C 2 
C17S C 0.699(2) 0.1732(6) 0.1824(16) 0.037(2) Uani 0.50 1 d PDU C 2 
H17S H 0.7781 0.1818 0.1981 0.044 Uiso 0.50 1 calc PR C 2 
C18S C 0.609(3) 0.1968(6) 0.1376(17) 0.0358(17) Uani 0.50 1 d PDU C 2 
H18S H 0.6262 0.2217 0.1221 0.043 Uiso 0.50 1 calc PR C 2 
C19S C 0.494(2) 0.1835(5) 0.1154(15) 0.030(2) Uani 0.50 1 d PDU C 2 
H19S H 0.4316 0.1994 0.0844 0.036 Uiso 0.50 1 calc PR C 2 
C20S C 0.4696(16) 0.1479(5) 0.1377(11) 0.034(3) Uani 0.50 1 d PDU C 2 
H20S H 0.3901 0.1393 0.1223 0.041 Uiso 0.50 1 calc PR C 2 
C21S C 0.5275(16) 0.0840(4) 0.2058(10) 0.068(3) Uani 0.50 1 d PDU C 2 
H21A H 0.5992 0.0686 0.2214 0.102 Uiso 0.50 1 calc PR C 2 
H21B H 0.4721 0.0731 0.1517 0.102 Uiso 0.50 1 calc PR C 2 
H21C H 0.4908 0.0846 0.2590 0.102 Uiso 0.50 1 calc PR C 2 
 
loop_ 
 _atom_site_aniso_label 
 _atom_site_aniso_U_11 
 _atom_site_aniso_U_22 
 _atom_site_aniso_U_33 
 _atom_site_aniso_U_23 
 _atom_site_aniso_U_13 
 _atom_site_aniso_U_12 
Si2 0.0291(7) 0.0128(5) 0.0342(7) 0.0010(5) -0.0018(6) 0.0021(4) 
N1 0.020(2) 0.0205(18) 0.024(2) 0.0004(14) 0.0044(17) -0.0021(14) 
N2 0.019(2) 0.0241(19) 0.022(2) -0.0003(14) -0.0026(17) 0.0027(14) 
O1 0.0240(19) 0.0223(15) 0.0264(18) 0.0001(12) 0.0013(15) 0.0015(12) 
O2 0.0249(19) 0.0247(16) 0.0260(18) -0.0018(12) 0.0007(15) -0.0027(12) 
C1 0.024(2) 0.0136(19) 0.018(2) 0.0004(15) 0.0015(18) 0.0021(16) 
C2 0.015(2) 0.019(2) 0.019(2) 0.0016(15) 0.0042(19) -0.0003(15) 
C3 0.025(3) 0.015(2) 0.020(2) 0.0011(15) 0.0027(19) 0.0015(16) 
C4 0.020(2) 0.019(2) 0.018(2) 0.0011(15) 0.0070(19) 0.0015(15) 
S5 0.0188(6) 0.0170(5) 0.0239(6) 0.0002(4) 0.0001(5) 0.0006(4) 
C6 0.025(3) 0.020(2) 0.018(2) 0.0005(16) 0.005(2) -0.0003(16) 
C7 0.027(3) 0.017(2) 0.020(2) -0.0016(15) 0.002(2) -0.0030(16) 
C8 0.024(3) 0.019(2) 0.020(2) -0.0005(16) 0.002(2) 0.0018(16) 
C9 0.018(2) 0.0139(19) 0.023(2) -0.0009(15) 0.0053(19) -0.0006(15) 
C10 0.023(2) 0.017(2) 0.018(2) -0.0011(15) 0.0059(19) -0.0007(16) 
C11 0.018(2) 0.016(2) 0.017(2) 0.0007(15) -0.0001(18) -0.0007(15) 
C12 0.020(2) 0.0151(19) 0.020(2) -0.0010(15) 0.0042(19) 0.0014(15) 
C13 0.019(2) 0.0146(19) 0.021(2) 0.0009(15) 0.0036(19) 0.0004(15) 
C14 0.020(2) 0.019(2) 0.017(2) -0.0004(15) 0.0042(19) 0.0004(16) 
C15 0.022(3) 0.019(2) 0.023(2) 0.0011(16) 0.001(2) 0.0006(16) 
C16 0.019(2) 0.019(2) 0.024(2) -0.0003(16) 0.000(2) -0.0016(16) 
S17 0.0194(6) 0.0171(5) 0.0259(6) -0.0008(4) -0.0001(5) -0.0017(4) 
C18 0.019(2) 0.019(2) 0.018(2) 0.0008(15) 0.0030(19) -0.0024(16) 
C19 0.024(3) 0.0160(19) 0.017(2) -0.0008(15) 0.0021(19) -0.0013(16) 
C20 0.023(3) 0.015(2) 0.019(2) -0.0009(15) 0.0023(19) -0.0017(15) 
C21 0.018(3) 0.021(2) 0.027(2) 0.0011(17) -0.001(2) -0.0012(16) 
C22 0.024(3) 0.017(2) 0.045(3) -0.0001(19) -0.005(2) -0.0009(17) 
Si1 0.0308(8) 0.0127(6) 0.0618(10) -0.0005(5) -0.0063(7) 0.0002(5) 
C23 0.047(4) 0.021(3) 0.084(5) -0.015(3) -0.015(4) 0.004(2) 
C24 0.091(6) 0.048(4) 0.074(5) -0.008(3) 0.007(5) -0.001(4) 
C25 0.058(5) 0.039(3) 0.113(7) -0.018(4) -0.033(5) 0.011(3) 
C26 0.036(4) 0.022(3) 0.066(5) 0.000(3) 0.001(3) -0.001(2) 
C27 0.065(6) 0.025(3) 0.107(8) 0.009(4) 0.021(5) -0.009(3) 
C28 0.042(5) 0.052(5) 0.071(5) -0.007(4) 0.016(4) -0.019(3) 
C26' 0.036(4) 0.022(3) 0.066(5) 0.000(3) 0.001(3) -0.001(2) 
C27' 0.042(5) 0.052(5) 0.071(5) -0.007(4) 0.016(4) -0.019(3) 
C28' 0.065(6) 0.025(3) 0.107(8) 0.009(4) 0.021(5) -0.009(3) 
C29 0.030(3) 0.023(3) 0.063(5) 0.003(3) -0.006(4) 0.005(2) 
C30 0.049(4) 0.024(3) 0.099(10) 0.003(4) -0.012(5) 0.012(3) 
C31 0.034(4) 0.030(3) 0.058(6) 0.004(3) 0.006(4) 0.000(2) 
C29' 0.030(3) 0.023(3) 0.063(5) 0.003(3) -0.006(4) 0.005(2) 
C30' 0.034(4) 0.030(3) 0.058(6) 0.004(3) 0.006(4) 0.000(2) 
C31' 0.049(4) 0.024(3) 0.099(10) 0.003(4) -0.012(5) 0.012(3) 
C32 0.019(2) 0.020(2) 0.023(2) -0.0002(16) -0.0023(19) -0.0006(16) 
C33 0.021(3) 0.020(2) 0.034(3) -0.0010(17) -0.001(2) 0.0000(16) 
C34 0.043(4) 0.042(3) 0.054(4) -0.011(3) -0.010(3) 0.019(2) 
C35 0.048(4) 0.047(3) 0.063(4) -0.009(3) -0.019(3) 0.018(3) 
C36 0.054(5) 0.056(4) 0.085(5) -0.018(3) -0.024(4) 0.033(3) 
C37 0.047(4) 0.024(2) 0.049(3) 0.003(2) 0.019(3) -0.002(2) 
C38 0.053(4) 0.048(3) 0.044(3) 0.007(3) 0.015(3) 0.002(3) 
C39 0.122(7) 0.029(3) 0.100(6) 0.011(3) 0.060(6) -0.008(3) 
C40 0.028(3) 0.021(2) 0.036(3) -0.0034(18) 0.005(2) 0.0002(17) 
C41 0.043(4) 0.037(3) 0.047(3) -0.004(2) 0.015(3) -0.007(2) 
C42 0.038(3) 0.041(3) 0.039(3) -0.008(2) 0.001(3) -0.007(2) 
C43 0.022(3) 0.025(2) 0.016(2) -0.0044(16) 0.0024(19) 0.0001(17) 
C44 0.016(2) 0.034(2) 0.022(2) -0.0022(18) 0.002(2) -0.0032(17) 
C45 0.030(3) 0.032(2) 0.029(3) -0.0051(19) 0.002(2) -0.0105(19) 
C46 0.031(3) 0.027(2) 0.033(3) -0.0043(19) 0.009(2) -0.0077(18) 
C47 0.027(3) 0.023(2) 0.029(3) 0.0016(17) 0.004(2) -0.0021(18) 
C48 0.019(3) 0.019(2) 0.025(2) 0.0006(16) 0.007(2) 0.0003(16) 
C49 0.021(3) 0.023(2) 0.030(3) 0.0045(17) 0.005(2) 0.0041(17) 
C50 0.024(3) 0.027(2) 0.031(3) 0.0041(18) 0.007(2) 0.0056(18) 
C51 0.023(3) 0.039(3) 0.031(3) 0.008(2) 0.009(2) 0.0110(19) 
C52 0.022(3) 0.034(3) 0.027(3) 0.0027(19) -0.001(2) 0.0019(18) 
C1S 0.060(5) 0.052(4) 0.064(5) -0.008(3) 0.003(4) 0.009(3) 
C2S 0.050(4) 0.075(5) 0.046(4) -0.013(3) 0.006(3) 0.001(3) 
C3S 0.068(6) 0.110(7) 0.067(5) 0.014(5) 0.009(5) -0.013(5) 
C4S 0.056(5) 0.068(5) 0.105(7) 0.018(5) 0.015(5) -0.011(4) 
C5S 0.055(5) 0.062(5) 0.098(7) -0.021(4) 0.017(5) -0.007(3) 
C6S 0.067(5) 0.055(4) 0.070(5) -0.024(3) 0.009(4) 0.001(3) 
C7S 0.105(7) 0.053(5) 0.115(7) 0.006(4) 0.010(6) 0.021(4) 
C8S 0.035(3) 0.036(3) 0.050(6) 0.003(4) 0.011(4) 0.004(2) 
C9S 0.029(3) 0.045(4) 0.039(7) -0.004(4) 0.007(4) 0.014(3) 
C10S 0.026(3) 0.050(4) 0.032(3) -0.007(3) 0.004(3) -0.001(3) 
C11S 0.034(4) 0.039(3) 0.032(3) -0.004(2) 0.002(3) -0.007(2) 
C12S 0.025(4) 0.036(2) 0.027(4) 0.002(2) 0.005(3) 0.004(2) 
C13S 0.025(3) 0.037(3) 0.038(7) 0.000(4) 0.005(4) -0.001(2) 
C14S 0.062(5) 0.046(4) 0.090(8) 0.018(5) 0.007(6) 0.003(3) 
C15S 0.035(3) 0.036(3) 0.050(6) 0.003(4) 0.011(4) 0.004(2) 
C16S 0.029(3) 0.045(4) 0.039(7) -0.004(4) 0.007(4) 0.014(3) 
C17S 0.026(3) 0.050(4) 0.032(3) -0.007(3) 0.004(3) -0.001(3) 
C18S 0.034(4) 0.039(3) 0.032(3) -0.004(2) 0.002(3) -0.007(2) 
C19S 0.025(4) 0.036(2) 0.027(4) 0.002(2) 0.005(3) 0.004(2) 
C20S 0.025(3) 0.037(3) 0.038(7) 0.000(4) 0.005(4) -0.001(2) 
C21S 0.062(5) 0.046(4) 0.090(8) 0.018(5) 0.007(6) 0.003(3) 
 
_geom_special_details 
; 
 All esds (except the esd in the dihedral angle between two l.s. planes) 
 are estimated using the full covariance matrix.  The cell esds are taken 
 into account individually in the estimation of esds in distances, angles 
 and torsion angles; correlations between esds in cell parameters are only 
 used when they are defined by crystal symmetry.  An approximate (isotropic) 
 treatment of cell esds is used for estimating esds involving l.s. planes. 
; 
 
loop_ 
 _geom_bond_atom_site_label_1 
 _geom_bond_atom_site_label_2 
 _geom_bond_distance 
 _geom_bond_site_symmetry_2 
 _geom_bond_publ_flag 
Si2 C33 1.828(4) . ? 
Si2 C40 1.876(5) . ? 
Si2 C34 1.883(6) . ? 
Si2 C37 1.902(6) . ? 
N1 C43 1.349(5) . ? 
N1 C44 1.463(6) . ? 
N1 C47 1.471(5) . ? 
N2 C48 1.354(5) . ? 
N2 C52 1.467(6) . ? 
N2 C49 1.474(5) . ? 
O1 C43 1.236(5) . ? 
O2 C48 1.235(5) . ? 
C1 C2 1.416(6) . ? 
C1 C20 1.418(6) . ? 
C1 C21 1.426(5) . ? 
C2 C3 1.423(6) . ? 
C2 C10 1.436(5) . ? 
C3 C4 1.368(6) . ? 
C3 H3 0.9500 . ? 
C4 C8 1.429(5) . ? 
C4 S5 1.737(4) . ? 
S5 C6 1.764(4) . ? 
C6 C7 1.358(6) . ? 
C6 C43 1.474(6) . ? 
C7 C8 1.438(6) . ? 
C7 H7 0.9500 . ? 
C8 C9 1.376(6) . ? 
C9 C10 1.411(6) . ? 
C9 H9 0.9500 . ? 
C10 C11 1.414(6) . ? 
C11 C12 1.408(6) . ? 
C11 C32 1.430(5) . ? 
C12 C13 1.415(6) . ? 
C12 C20 1.436(5) . ? 
C13 C14 1.365(6) . ? 
C13 H13 0.9500 . ? 
C14 C15 1.420(6) . ? 
C14 C18 1.430(5) . ? 
C15 C16 1.365(6) . ? 
C15 H15 0.9500 . ? 
C16 C48 1.479(6) . ? 
C16 S17 1.763(4) . ? 
S17 C18 1.747(4) . ? 
C18 C19 1.372(6) . ? 
C19 C20 1.421(6) . ? 
C19 H19 0.9500 . ? 
C21 C22 1.197(6) . ? 
C22 Si1 1.847(4) . ? 
Si1 C29 1.854(6) . ? 
Si1 C23 1.884(6) . ? 
Si1 C26' 1.895(18) . ? 
Si1 C26 1.904(8) . ? 
Si1 C29' 1.932(19) . ? 
C23 C25 1.497(8) . ? 
C23 C24 1.565(10) . ? 
C23 H23 1.0000 . ? 
C24 H24A 0.9800 . ? 
C24 H24B 0.9800 . ? 
C24 H24C 0.9800 . ? 
C25 H25A 0.9800 . ? 
C25 H25B 0.9800 . ? 
C25 H25C 0.9800 . ? 
C26 C28 1.519(11) . ? 
C26 C27 1.541(8) . ? 
C26 H26 1.0000 . ? 
C27 H27A 0.9800 . ? 
C27 H27B 0.9800 . ? 
C27 H27C 0.9800 . ? 
C28 H28A 0.9800 . ? 
C28 H28B 0.9800 . ? 
C28 H28C 0.9800 . ? 
C26' C28' 1.498(19) . ? 
C26' C27' 1.56(2) . ? 
C26' H26' 1.0000 . ? 
C27' H27D 0.9800 . ? 
C27' H27E 0.9800 . ? 
C27' H27F 0.9800 . ? 
C28' H28D 0.9800 . ? 
C28' H28E 0.9800 . ? 
C28' H28F 0.9800 . ? 
C29 C30 1.550(9) . ? 
C29 C31 1.555(9) . ? 
C29 H29 1.0000 . ? 
C30 H30A 0.9800 . ? 
C30 H30B 0.9800 . ? 
C30 H30C 0.9800 . ? 
C31 H31A 0.9800 . ? 
C31 H31B 0.9800 . ? 
C31 H31C 0.9800 . ? 
C29' C31' 1.51(2) . ? 
C29' C30' 1.56(2) . ? 
C29' H29' 1.0000 . ? 
C30' H30D 0.9800 . ? 
C30' H30E 0.9800 . ? 
C30' H30F 0.9800 . ? 
C31' H31D 0.9800 . ? 
C31' H31E 0.9800 . ? 
C31' H31F 0.9800 . ? 
C32 C33 1.203(6) . ? 
C34 C35 1.511(8) . ? 
C34 C36 1.516(7) . ? 
C34 H34 1.0000 . ? 
C35 H35A 0.9800 . ? 
C35 H35B 0.9800 . ? 
C35 H35C 0.9800 . ? 
C36 H36A 0.9800 . ? 
C36 H36B 0.9800 . ? 
C36 H36C 0.9800 . ? 
C37 C38 1.522(8) . ? 
C37 C39 1.541(7) . ? 
C37 H37 1.0000 . ? 
C38 H38A 0.9800 . ? 
C38 H38B 0.9800 . ? 
C38 H38C 0.9800 . ? 
C39 H39A 0.9800 . ? 
C39 H39B 0.9800 . ? 
C39 H39C 0.9800 . ? 
C40 C42 1.515(7) . ? 
C40 C41 1.533(7) . ? 
C40 H40 1.0000 . ? 
C41 H41A 0.9800 . ? 
C41 H41B 0.9800 . ? 
C41 H41C 0.9800 . ? 
C42 H42A 0.9800 . ? 
C42 H42B 0.9800 . ? 
C42 H42C 0.9800 . ? 
C44 C45 1.524(6) . ? 
C44 H44A 0.9900 . ? 
C44 H44B 0.9900 . ? 
C45 C46 1.524(7) . ? 
C45 H45A 0.9900 . ? 
C45 H45B 0.9900 . ? 
C46 C47 1.524(6) . ? 
C46 H46A 0.9900 . ? 
C46 H46B 0.9900 . ? 
C47 H47A 0.9900 . ? 
C47 H47B 0.9900 . ? 
C49 C50 1.532(6) . ? 
C49 H49A 0.9900 . ? 
C49 H49B 0.9900 . ? 
C50 C51 1.532(7) . ? 
C50 H50A 0.9900 . ? 
C50 H50B 0.9900 . ? 
C51 C52 1.520(6) . ? 
C51 H51A 0.9900 . ? 
C51 H51B 0.9900 . ? 
C52 H52A 0.9900 . ? 
C52 H52B 0.9900 . ? 
C1S C2S 1.366(9) . ? 
C1S C6S 1.393(9) . ? 
C1S C7S 1.462(10) . ? 
C2S C3S 1.405(10) . ? 
C2S H2S 0.9500 . ? 
C3S C4S 1.354(11) . ? 
C3S H3S 0.9500 . ? 
C4S C5S 1.406(11) . ? 
C4S H4S 0.9500 . ? 
C5S C6S 1.337(10) . ? 
C5S H5S 0.9500 . ? 
C6S H6S 0.9500 . ? 
C7S H7S1 0.9800 . ? 
C7S H7S2 0.9800 . ? 
C7S H7S3 0.9800 . ? 
C8S C9S 1.377(12) . ? 
C8S C13S 1.395(12) . ? 
C8S C14S 1.513(13) . ? 
C9S C10S 1.358(12) . ? 
C9S H9S 0.9500 . ? 
C10S C11S 1.381(12) . ? 
C10S H10S 0.9500 . ? 
C11S C12S 1.390(12) . ? 
C11S H11S 0.9500 . ? 
C12S C13S 1.359(12) . ? 
C12S H12S 0.9500 . ? 
C13S H13S 0.9500 . ? 
C14S H14A 0.9800 . ? 
C14S H14B 0.9800 . ? 
C14S H14C 0.9800 . ? 
C15S C16S 1.380(12) . ? 
C15S C20S 1.400(12) . ? 
C15S C21S 1.517(13) . ? 
C16S C17S 1.367(12) . ? 
C16S H16S 0.9500 . ? 
C17S C18S 1.381(12) . ? 
C17S H17S 0.9500 . ? 
C18S C19S 1.390(12) . ? 
C18S H18S 0.9500 . ? 
C19S C20S 1.357(12) . ? 
C19S H19S 0.9500 . ? 
C20S H20S 0.9500 . ? 
C21S H21A 0.9800 . ? 
C21S H21B 0.9800 . ? 
C21S H21C 0.9800 . ? 
 
loop_ 
 _geom_angle_atom_site_label_1 
 _geom_angle_atom_site_label_2 
 _geom_angle_atom_site_label_3 
 _geom_angle 
 _geom_angle_site_symmetry_1 
 _geom_angle_site_symmetry_3 
 _geom_angle_publ_flag 
C33 Si2 C40 106.2(2) . . ? 
C33 Si2 C34 105.1(2) . . ? 
C40 Si2 C34 109.7(3) . . ? 
C33 Si2 C37 107.1(2) . . ? 
C40 Si2 C37 110.0(2) . . ? 
C34 Si2 C37 118.0(3) . . ? 
C43 N1 C44 119.1(3) . . ? 
C43 N1 C47 128.7(4) . . ? 
C44 N1 C47 111.9(3) . . ? 
C48 N2 C52 118.8(4) . . ? 
C48 N2 C49 128.8(4) . . ? 
C52 N2 C49 112.2(3) . . ? 
C2 C1 C20 121.0(3) . . ? 
C2 C1 C21 119.0(4) . . ? 
C20 C1 C21 120.0(4) . . ? 
C1 C2 C3 121.7(4) . . ? 
C1 C2 C10 119.6(4) . . ? 
C3 C2 C10 118.7(4) . . ? 
C4 C3 C2 119.8(4) . . ? 
C4 C3 H3 120.1 . . ? 
C2 C3 H3 120.1 . . ? 
C3 C4 C8 121.5(4) . . ? 
C3 C4 S5 127.5(3) . . ? 
C8 C4 S5 111.0(3) . . ? 
C4 S5 C6 91.5(2) . . ? 
C7 C6 C43 135.1(4) . . ? 
C7 C6 S5 112.2(3) . . ? 
C43 C6 S5 112.6(3) . . ? 
C6 C7 C8 113.4(4) . . ? 
C6 C7 H7 123.3 . . ? 
C8 C7 H7 123.3 . . ? 
C9 C8 C4 119.8(4) . . ? 
C9 C8 C7 128.4(4) . . ? 
C4 C8 C7 111.8(4) . . ? 
C8 C9 C10 120.0(4) . . ? 
C8 C9 H9 120.0 . . ? 
C10 C9 H9 120.0 . . ? 
C9 C10 C11 120.5(4) . . ? 
C9 C10 C2 120.2(4) . . ? 
C11 C10 C2 119.3(4) . . ? 
C12 C11 C10 121.0(3) . . ? 
C12 C11 C32 118.6(4) . . ? 
C10 C11 C32 120.3(4) . . ? 
C11 C12 C13 120.8(3) . . ? 
C11 C12 C20 120.0(4) . . ? 
C13 C12 C20 119.2(4) . . ? 
C14 C13 C12 120.8(4) . . ? 
C14 C13 H13 119.6 . . ? 
C12 C13 H13 119.6 . . ? 
C13 C14 C15 127.9(4) . . ? 
C13 C14 C18 119.8(4) . . ? 
C15 C14 C18 112.3(4) . . ? 
C16 C15 C14 113.7(4) . . ? 
C16 C15 H15 123.2 . . ? 
C14 C15 H15 123.2 . . ? 
C15 C16 C48 134.1(4) . . ? 
C15 C16 S17 112.1(3) . . ? 
C48 C16 S17 113.8(3) . . ? 
C18 S17 C16 91.35(19) . . ? 
C19 C18 C14 121.4(4) . . ? 
C19 C18 S17 128.0(3) . . ? 
C14 C18 S17 110.7(3) . . ? 
C18 C19 C20 119.4(4) . . ? 
C18 C19 H19 120.3 . . ? 
C20 C19 H19 120.3 . . ? 
C1 C20 C19 121.6(3) . . ? 
C1 C20 C12 119.0(4) . . ? 
C19 C20 C12 119.4(4) . . ? 
C22 C21 C1 178.5(5) . . ? 
C21 C22 Si1 178.6(5) . . ? 
C22 Si1 C29 109.6(2) . . ? 
C22 Si1 C23 106.8(2) . . ? 
C29 Si1 C23 115.1(3) . . ? 
C22 Si1 C26' 111.1(8) . . ? 
C29 Si1 C26' 75.0(10) . . ? 
C23 Si1 C26' 134.2(9) . . ? 
C22 Si1 C26 105.7(3) . . ? 
C29 Si1 C26 111.4(3) . . ? 
C23 Si1 C26 107.7(3) . . ? 
C26' Si1 C26 37.5(10) . . ? 
C22 Si1 C29' 104.2(9) . . ? 
C29 Si1 C29' 27.4(10) . . ? 
C23 Si1 C29' 92.6(10) . . ? 
C26' Si1 C29' 102.0(14) . . ? 
C26 Si1 C29' 136.7(11) . . ? 
C25 C23 C24 110.9(6) . . ? 
C25 C23 Si1 112.9(5) . . ? 
C24 C23 Si1 109.9(4) . . ? 
C25 C23 H23 107.7 . . ? 
C24 C23 H23 107.7 . . ? 
Si1 C23 H23 107.7 . . ? 
C23 C24 H24A 109.5 . . ? 
C23 C24 H24B 109.5 . . ? 
H24A C24 H24B 109.5 . . ? 
C23 C24 H24C 109.5 . . ? 
H24A C24 H24C 109.5 . . ? 
H24B C24 H24C 109.5 . . ? 
C23 C25 H25A 109.5 . . ? 
C23 C25 H25B 109.5 . . ? 
H25A C25 H25B 109.5 . . ? 
C23 C25 H25C 109.5 . . ? 
H25A C25 H25C 109.5 . . ? 
H25B C25 H25C 109.5 . . ? 
C28 C26 C27 110.6(7) . . ? 
C28 C26 Si1 114.6(5) . . ? 
C27 C26 Si1 112.7(5) . . ? 
C28 C26 H26 106.0 . . ? 
C27 C26 H26 106.0 . . ? 
Si1 C26 H26 106.0 . . ? 
C28' C26' C27' 116(2) . . ? 
C28' C26' Si1 115(2) . . ? 
C27' C26' Si1 112(2) . . ? 
C28' C26' H26' 103.6 . . ? 
C27' C26' H26' 103.6 . . ? 
Si1 C26' H26' 103.6 . . ? 
C26' C27' H27D 109.5 . . ? 
C26' C27' H27E 109.5 . . ? 
H27D C27' H27E 109.5 . . ? 
C26' C27' H27F 109.5 . . ? 
H27D C27' H27F 109.5 . . ? 
H27E C27' H27F 109.5 . . ? 
C26' C28' H28D 109.5 . . ? 
C26' C28' H28E 109.5 . . ? 
H28D C28' H28E 109.5 . . ? 
C26' C28' H28F 109.5 . . ? 
H28D C28' H28F 109.5 . . ? 
H28E C28' H28F 109.5 . . ? 
C30 C29 C31 108.8(7) . . ? 
C30 C29 Si1 112.9(5) . . ? 
C31 C29 Si1 114.2(4) . . ? 
C30 C29 H29 106.8 . . ? 
C31 C29 H29 106.8 . . ? 
Si1 C29 H29 106.8 . . ? 
C31' C29' C30' 111(3) . . ? 
C31' C29' Si1 111(2) . . ? 
C30' C29' Si1 111(2) . . ? 
C31' C29' H29' 107.9 . . ? 
C30' C29' H29' 107.9 . . ? 
Si1 C29' H29' 107.9 . . ? 
C29' C30' H30D 109.5 . . ? 
C29' C30' H30E 109.5 . . ? 
H30D C30' H30E 109.5 . . ? 
C29' C30' H30F 109.5 . . ? 
H30D C30' H30F 109.5 . . ? 
H30E C30' H30F 109.5 . . ? 
C29' C31' H31D 109.5 . . ? 
C29' C31' H31E 109.5 . . ? 
H31D C31' H31E 109.5 . . ? 
C29' C31' H31F 109.5 . . ? 
H31D C31' H31F 109.5 . . ? 
H31E C31' H31F 109.5 . . ? 
C33 C32 C11 176.7(5) . . ? 
C32 C33 Si2 173.8(4) . . ? 
C35 C34 C36 112.3(5) . . ? 
C35 C34 Si2 115.3(4) . . ? 
C36 C34 Si2 114.6(4) . . ? 
C35 C34 H34 104.3 . . ? 
C36 C34 H34 104.3 . . ? 
Si2 C34 H34 104.3 . . ? 
C34 C35 H35A 109.5 . . ? 
C34 C35 H35B 109.5 . . ? 
H35A C35 H35B 109.5 . . ? 
C34 C35 H35C 109.5 . . ? 
H35A C35 H35C 109.5 . . ? 
H35B C35 H35C 109.5 . . ? 
C34 C36 H36A 109.5 . . ? 
C34 C36 H36B 109.5 . . ? 
H36A C36 H36B 109.5 . . ? 
C34 C36 H36C 109.5 . . ? 
H36A C36 H36C 109.5 . . ? 
H36B C36 H36C 109.5 . . ? 
C38 C37 C39 110.8(5) . . ? 
C38 C37 Si2 113.4(4) . . ? 
C39 C37 Si2 112.8(4) . . ? 
C38 C37 H37 106.4 . . ? 
C39 C37 H37 106.4 . . ? 
Si2 C37 H37 106.4 . . ? 
C37 C38 H38A 109.5 . . ? 
C37 C38 H38B 109.5 . . ? 
H38A C38 H38B 109.5 . . ? 
C37 C38 H38C 109.5 . . ? 
H38A C38 H38C 109.5 . . ? 
H38B C38 H38C 109.5 . . ? 
C37 C39 H39A 109.5 . . ? 
C37 C39 H39B 109.5 . . ? 
H39A C39 H39B 109.5 . . ? 
C37 C39 H39C 109.5 . . ? 
H39A C39 H39C 109.5 . . ? 
H39B C39 H39C 109.5 . . ? 
C42 C40 C41 109.1(4) . . ? 
C42 C40 Si2 112.4(4) . . ? 
C41 C40 Si2 111.6(3) . . ? 
C42 C40 H40 107.9 . . ? 
C41 C40 H40 107.9 . . ? 
Si2 C40 H40 107.9 . . ? 
C40 C41 H41A 109.5 . . ? 
C40 C41 H41B 109.5 . . ? 
H41A C41 H41B 109.5 . . ? 
C40 C41 H41C 109.5 . . ? 
H41A C41 H41C 109.5 . . ? 
H41B C41 H41C 109.5 . . ? 
C40 C42 H42A 109.5 . . ? 
C40 C42 H42B 109.5 . . ? 
H42A C42 H42B 109.5 . . ? 
C40 C42 H42C 109.5 . . ? 
H42A C42 H42C 109.5 . . ? 
H42B C42 H42C 109.5 . . ? 
O1 C43 N1 120.6(4) . . ? 
O1 C43 C6 118.1(4) . . ? 
N1 C43 C6 121.3(4) . . ? 
N1 C44 C45 103.8(3) . . ? 
N1 C44 H44A 111.0 . . ? 
C45 C44 H44A 111.0 . . ? 
N1 C44 H44B 111.0 . . ? 
C45 C44 H44B 111.0 . . ? 
H44A C44 H44B 109.0 . . ? 
C44 C45 C46 102.9(4) . . ? 
C44 C45 H45A 111.2 . . ? 
C46 C45 H45A 111.2 . . ? 
C44 C45 H45B 111.2 . . ? 
C46 C45 H45B 111.2 . . ? 
H45A C45 H45B 109.1 . . ? 
C47 C46 C45 103.5(4) . . ? 
C47 C46 H46A 111.1 . . ? 
C45 C46 H46A 111.1 . . ? 
C47 C46 H46B 111.1 . . ? 
C45 C46 H46B 111.1 . . ? 
H46A C46 H46B 109.0 . . ? 
N1 C47 C46 102.9(4) . . ? 
N1 C47 H47A 111.2 . . ? 
C46 C47 H47A 111.2 . . ? 
N1 C47 H47B 111.2 . . ? 
C46 C47 H47B 111.2 . . ? 
H47A C47 H47B 109.1 . . ? 
O2 C48 N2 120.7(4) . . ? 
O2 C48 C16 118.5(4) . . ? 
N2 C48 C16 120.7(4) . . ? 
N2 C49 C50 103.0(4) . . ? 
N2 C49 H49A 111.2 . . ? 
C50 C49 H49A 111.2 . . ? 
N2 C49 H49B 111.2 . . ? 
C50 C49 H49B 111.2 . . ? 
H49A C49 H49B 109.1 . . ? 
C51 C50 C49 104.0(4) . . ? 
C51 C50 H50A 110.9 . . ? 
C49 C50 H50A 110.9 . . ? 
C51 C50 H50B 110.9 . . ? 
C49 C50 H50B 110.9 . . ? 
H50A C50 H50B 109.0 . . ? 
C52 C51 C50 103.5(4) . . ? 
C52 C51 H51A 111.1 . . ? 
C50 C51 H51A 111.1 . . ? 
C52 C51 H51B 111.1 . . ? 
C50 C51 H51B 111.1 . . ? 
H51A C51 H51B 109.0 . . ? 
N2 C52 C51 104.4(4) . . ? 
N2 C52 H52A 110.9 . . ? 
C51 C52 H52A 110.9 . . ? 
N2 C52 H52B 110.9 . . ? 
C51 C52 H52B 110.9 . . ? 
H52A C52 H52B 108.9 . . ? 
C2S C1S C6S 118.2(7) . . ? 
C2S C1S C7S 120.2(7) . . ? 
C6S C1S C7S 121.5(7) . . ? 
C1S C2S C3S 120.5(7) . . ? 
C1S C2S H2S 119.7 . . ? 
C3S C2S H2S 119.7 . . ? 
C4S C3S C2S 120.3(8) . . ? 
C4S C3S H3S 119.9 . . ? 
C2S C3S H3S 119.9 . . ? 
C3S C4S C5S 118.8(7) . . ? 
C3S C4S H4S 120.6 . . ? 
C5S C4S H4S 120.6 . . ? 
C6S C5S C4S 120.5(7) . . ? 
C6S C5S H5S 119.7 . . ? 
C4S C5S H5S 119.7 . . ? 
C5S C6S C1S 121.6(8) . . ? 
C5S C6S H6S 119.2 . . ? 
C1S C6S H6S 119.2 . . ? 
C1S C7S H7S1 109.5 . . ? 
C1S C7S H7S2 109.5 . . ? 
H7S1 C7S H7S2 109.5 . . ? 
C1S C7S H7S3 109.5 . . ? 
H7S1 C7S H7S3 109.5 . . ? 
H7S2 C7S H7S3 109.5 . . ? 
C9S C8S C13S 118.7(11) . . ? 
C9S C8S C14S 120.8(12) . . ? 
C13S C8S C14S 120.5(12) . . ? 
C10S C9S C8S 121.7(13) . . ? 
C10S C9S H9S 119.2 . . ? 
C8S C9S H9S 119.2 . . ? 
C9S C10S C11S 119.3(13) . . ? 
C9S C10S H10S 120.4 . . ? 
C11S C10S H10S 120.4 . . ? 
C10S C11S C12S 120.1(13) . . ? 
C10S C11S H11S 120.0 . . ? 
C12S C11S H11S 120.0 . . ? 
C13S C12S C11S 120.0(13) . . ? 
C13S C12S H12S 120.0 . . ? 
C11S C12S H12S 120.0 . . ? 
C12S C13S C8S 120.3(13) . . ? 
C12S C13S H13S 119.9 . . ? 
C8S C13S H13S 119.9 . . ? 
C16S C15S C20S 117.1(11) . . ? 
C16S C15S C21S 123.7(12) . . ? 
C20S C15S C21S 119.3(12) . . ? 
C17S C16S C15S 122.3(13) . . ? 
C17S C16S H16S 118.9 . . ? 
C15S C16S H16S 118.9 . . ? 
C16S C17S C18S 119.9(13) . . ? 
C16S C17S H17S 120.1 . . ? 
C18S C17S H17S 120.1 . . ? 
C17S C18S C19S 119.0(13) . . ? 
C17S C18S H18S 120.5 . . ? 
C19S C18S H18S 120.5 . . ? 
C20S C19S C18S 120.5(13) . . ? 
C20S C19S H19S 119.7 . . ? 
C18S C19S H19S 119.7 . . ? 
C19S C20S C15S 121.3(13) . . ? 
C19S C20S H20S 119.4 . . ? 
C15S C20S H20S 119.4 . . ? 
C15S C21S H21A 109.5 . . ? 
C15S C21S H21B 109.5 . . ? 
H21A C21S H21B 109.5 . . ? 
C15S C21S H21C 109.5 . . ? 
H21A C21S H21C 109.5 . . ? 
H21B C21S H21C 109.5 . . ? 
 
loop_ 
 _geom_torsion_atom_site_label_1 
 _geom_torsion_atom_site_label_2 
 _geom_torsion_atom_site_label_3 
 _geom_torsion_atom_site_label_4 
 _geom_torsion 
 _geom_torsion_site_symmetry_1 
 _geom_torsion_site_symmetry_2 
 _geom_torsion_site_symmetry_3 
 _geom_torsion_site_symmetry_4 
 _geom_torsion_publ_flag 
C20 C1 C2 C3 179.9(4) . . . . ? 
C21 C1 C2 C3 -0.8(7) . . . . ? 
C20 C1 C2 C10 -1.1(7) . . . . ? 
C21 C1 C2 C10 178.1(4) . . . . ? 
C1 C2 C3 C4 178.0(4) . . . . ? 
C10 C2 C3 C4 -1.0(7) . . . . ? 
C2 C3 C4 C8 1.1(7) . . . . ? 
C2 C3 C4 S5 -178.3(4) . . . . ? 
C3 C4 S5 C6 -179.8(5) . . . . ? 
C8 C4 S5 C6 0.8(4) . . . . ? 
C4 S5 C6 C7 -0.1(4) . . . . ? 
C4 S5 C6 C43 178.2(4) . . . . ? 
C43 C6 C7 C8 -178.5(5) . . . . ? 
S5 C6 C7 C8 -0.7(6) . . . . ? 
C3 C4 C8 C9 0.3(7) . . . . ? 
S5 C4 C8 C9 179.7(4) . . . . ? 
C3 C4 C8 C7 179.2(4) . . . . ? 
S5 C4 C8 C7 -1.4(5) . . . . ? 
C6 C7 C8 C9 -179.8(5) . . . . ? 
C6 C7 C8 C4 1.4(6) . . . . ? 
C4 C8 C9 C10 -1.6(7) . . . . ? 
C7 C8 C9 C10 179.7(5) . . . . ? 
C8 C9 C10 C11 -179.4(4) . . . . ? 
C8 C9 C10 C2 1.6(7) . . . . ? 
C1 C2 C10 C9 -179.3(4) . . . . ? 
C3 C2 C10 C9 -0.3(7) . . . . ? 
C1 C2 C10 C11 1.7(7) . . . . ? 
C3 C2 C10 C11 -179.3(4) . . . . ? 
C9 C10 C11 C12 -179.8(4) . . . . ? 
C2 C10 C11 C12 -0.8(7) . . . . ? 
C9 C10 C11 C32 1.8(7) . . . . ? 
C2 C10 C11 C32 -179.2(4) . . . . ? 
C10 C11 C12 C13 179.1(4) . . . . ? 
C32 C11 C12 C13 -2.4(7) . . . . ? 
C10 C11 C12 C20 -0.7(7) . . . . ? 
C32 C11 C12 C20 177.8(4) . . . . ? 
C11 C12 C13 C14 179.5(4) . . . . ? 
C20 C12 C13 C14 -0.7(7) . . . . ? 
C12 C13 C14 C15 -179.6(5) . . . . ? 
C12 C13 C14 C18 0.8(7) . . . . ? 
C13 C14 C15 C16 -178.6(5) . . . . ? 
C18 C14 C15 C16 1.0(6) . . . . ? 
C14 C15 C16 C48 -179.4(5) . . . . ? 
C14 C15 C16 S17 -1.0(6) . . . . ? 
C15 C16 S17 C18 0.5(4) . . . . ? 
C48 C16 S17 C18 179.3(4) . . . . ? 
C13 C14 C18 C19 -0.9(7) . . . . ? 
C15 C14 C18 C19 179.4(5) . . . . ? 
C13 C14 C18 S17 179.0(4) . . . . ? 
C15 C14 C18 S17 -0.6(5) . . . . ? 
C16 S17 C18 C19 -180.0(5) . . . . ? 
C16 S17 C18 C14 0.1(4) . . . . ? 
C14 C18 C19 C20 0.8(7) . . . . ? 
S17 C18 C19 C20 -179.1(4) . . . . ? 
C2 C1 C20 C19 -179.5(4) . . . . ? 
C21 C1 C20 C19 1.2(7) . . . . ? 
C2 C1 C20 C12 -0.4(7) . . . . ? 
C21 C1 C20 C12 -179.6(4) . . . . ? 
C18 C19 C20 C1 178.4(4) . . . . ? 
C18 C19 C20 C12 -0.7(7) . . . . ? 
C11 C12 C20 C1 1.3(7) . . . . ? 
C13 C12 C20 C1 -178.5(4) . . . . ? 
C11 C12 C20 C19 -179.6(4) . . . . ? 
C13 C12 C20 C19 0.6(7) . . . . ? 
C2 C1 C21 C22 4(23) . . . . ? 
C20 C1 C21 C22 -177(100) . . . . ? 
C1 C21 C22 Si1 -93(29) . . . . ? 
C21 C22 Si1 C29 79(19) . . . . ? 
C21 C22 Si1 C23 -46(19) . . . . ? 
C21 C22 Si1 C26' 160(19) . . . . ? 
C21 C22 Si1 C26 -161(19) . . . . ? 
C21 C22 Si1 C29' 51(19) . . . . ? 
C22 Si1 C23 C25 -65.0(5) . . . . ? 
C29 Si1 C23 C25 173.1(5) . . . . ? 
C26' Si1 C23 C25 79.8(15) . . . . ? 
C26 Si1 C23 C25 48.1(5) . . . . ? 
C29' Si1 C23 C25 -170.7(11) . . . . ? 
C22 Si1 C23 C24 59.3(5) . . . . ? 
C29 Si1 C23 C24 -62.6(5) . . . . ? 
C26' Si1 C23 C24 -155.9(14) . . . . ? 
C26 Si1 C23 C24 172.4(4) . . . . ? 
C29' Si1 C23 C24 -46.4(11) . . . . ? 
C22 Si1 C26 C28 -57.7(6) . . . . ? 
C29 Si1 C26 C28 61.3(6) . . . . ? 
C23 Si1 C26 C28 -171.6(5) . . . . ? 
C26' Si1 C26 C28 46.6(15) . . . . ? 
C29' Si1 C26 C28 74.4(14) . . . . ? 
C22 Si1 C26 C27 174.5(5) . . . . ? 
C29 Si1 C26 C27 -66.5(6) . . . . ? 
C23 Si1 C26 C27 60.7(6) . . . . ? 
C26' Si1 C26 C27 -81.1(13) . . . . ? 
C29' Si1 C26 C27 -53.4(15) . . . . ? 
C22 Si1 C26' C28' 156(3) . . . . ? 
C29 Si1 C26' C28' -99(3) . . . . ? 
C23 Si1 C26' C28' 12(3) . . . . ? 
C26 Si1 C26' C28' 67(3) . . . . ? 
C29' Si1 C26' C28' -94(3) . . . . ? 
C22 Si1 C26' C27' 20(3) . . . . ? 
C29 Si1 C26' C27' 125(3) . . . . ? 
C23 Si1 C26' C27' -124(3) . . . . ? 
C26 Si1 C26' C27' -69(3) . . . . ? 
C29' Si1 C26' C27' 130(3) . . . . ? 
C22 Si1 C29 C30 -154.6(7) . . . . ? 
C23 Si1 C29 C30 -34.3(8) . . . . ? 
C26' Si1 C29 C30 97.9(11) . . . . ? 
C26 Si1 C29 C30 88.7(7) . . . . ? 
C29' Si1 C29 C30 -72(2) . . . . ? 
C22 Si1 C29 C31 -29.6(7) . . . . ? 
C23 Si1 C29 C31 90.7(6) . . . . ? 
C26' Si1 C29 C31 -137.1(10) . . . . ? 
C26 Si1 C29 C31 -146.3(6) . . . . ? 
C29' Si1 C29 C31 53(2) . . . . ? 
C22 Si1 C29' C31' -178(3) . . . . ? 
C29 Si1 C29' C31' 77(4) . . . . ? 
C23 Si1 C29' C31' -70(3) . . . . ? 
C26' Si1 C29' C31' 66(4) . . . . ? 
C26 Si1 C29' C31' 49(4) . . . . ? 
C22 Si1 C29' C30' 58(3) . . . . ? 
C29 Si1 C29' C30' -47(2) . . . . ? 
C23 Si1 C29' C30' 166(2) . . . . ? 
C26' Si1 C29' C30' -57(3) . . . . ? 
C26 Si1 C29' C30' -74(3) . . . . ? 
C12 C11 C32 C33 9(9) . . . . ? 
C10 C11 C32 C33 -172(9) . . . . ? 
C11 C32 C33 Si2 28(12) . . . . ? 
C40 Si2 C33 C32 87(4) . . . . ? 
C34 Si2 C33 C32 -29(4) . . . . ? 
C37 Si2 C33 C32 -155(4) . . . . ? 
C33 Si2 C34 C35 -59.3(6) . . . . ? 
C40 Si2 C34 C35 -173.1(5) . . . . ? 
C37 Si2 C34 C35 59.9(5) . . . . ? 
C33 Si2 C34 C36 167.9(5) . . . . ? 
C40 Si2 C34 C36 54.2(6) . . . . ? 
C37 Si2 C34 C36 -72.8(6) . . . . ? 
C33 Si2 C37 C38 52.4(4) . . . . ? 
C40 Si2 C37 C38 167.4(4) . . . . ? 
C34 Si2 C37 C38 -65.8(5) . . . . ? 
C33 Si2 C37 C39 179.4(5) . . . . ? 
C40 Si2 C37 C39 -65.6(5) . . . . ? 
C34 Si2 C37 C39 61.2(5) . . . . ? 
C33 Si2 C40 C42 63.2(4) . . . . ? 
C34 Si2 C40 C42 176.2(4) . . . . ? 
C37 Si2 C40 C42 -52.4(4) . . . . ? 
C33 Si2 C40 C41 -59.8(4) . . . . ? 
C34 Si2 C40 C41 53.3(4) . . . . ? 
C37 Si2 C40 C41 -175.4(3) . . . . ? 
C44 N1 C43 O1 -0.4(7) . . . . ? 
C47 N1 C43 O1 173.6(4) . . . . ? 
C44 N1 C43 C6 179.5(4) . . . . ? 
C47 N1 C43 C6 -6.5(8) . . . . ? 
C7 C6 C43 O1 173.0(5) . . . . ? 
S5 C6 C43 O1 -4.8(6) . . . . ? 
C7 C6 C43 N1 -6.9(9) . . . . ? 
S5 C6 C43 N1 175.3(4) . . . . ? 
C43 N1 C44 C45 -174.2(4) . . . . ? 
C47 N1 C44 C45 10.8(5) . . . . ? 
N1 C44 C45 C46 -30.5(5) . . . . ? 
C44 C45 C46 C47 39.0(5) . . . . ? 
C43 N1 C47 C46 -161.1(5) . . . . ? 
C44 N1 C47 C46 13.3(5) . . . . ? 
C45 C46 C47 N1 -32.0(5) . . . . ? 
C52 N2 C48 O2 -0.4(7) . . . . ? 
C49 N2 C48 O2 173.1(4) . . . . ? 
C52 N2 C48 C16 179.4(4) . . . . ? 
C49 N2 C48 C16 -7.0(8) . . . . ? 
C15 C16 C48 O2 170.8(5) . . . . ? 
S17 C16 C48 O2 -7.6(6) . . . . ? 
C15 C16 C48 N2 -9.0(9) . . . . ? 
S17 C16 C48 N2 172.5(4) . . . . ? 
C48 N2 C49 C50 -161.4(5) . . . . ? 
C52 N2 C49 C50 12.5(5) . . . . ? 
N2 C49 C50 C51 -29.8(5) . . . . ? 
C49 C50 C51 C52 36.3(5) . . . . ? 
C48 N2 C52 C51 -175.4(4) . . . . ? 
C49 N2 C52 C51 10.0(5) . . . . ? 
C50 C51 C52 N2 -28.3(5) . . . . ? 
C6S C1S C2S C3S 0.7(12) . . . . ? 
C7S C1S C2S C3S 178.6(8) . . . . ? 
C1S C2S C3S C4S -0.1(13) . . . . ? 
C2S C3S C4S C5S 0.8(13) . . . . ? 
C3S C4S C5S C6S -2.3(13) . . . . ? 
C4S C5S C6S C1S 3.0(12) . . . . ? 
C2S C1S C6S C5S -2.2(12) . . . . ? 
C7S C1S C6S C5S 179.9(8) . . . . ? 
C13S C8S C9S C10S -0.1(3) . . . . ? 
C14S C8S C9S C10S 179.8(3) . . . . ? 
C8S C9S C10S C11S 0.0(3) . . . . ? 
C9S C10S C11S C12S 0.1(6) . . . . ? 
C10S C11S C12S C13S 0.1(8) . . . . ? 
C11S C12S C13S C8S -0.2(8) . . . . ? 
C9S C8S C13S C12S 0.3(6) . . . . ? 
C14S C8S C13S C12S -179.6(5) . . . . ? 
C20S C15S C16S C17S -0.1(3) . . . . ? 
C21S C15S C16S C17S 179.8(3) . . . . ? 
C15S C16S C17S C18S 0.0(3) . . . . ? 
C16S C17S C18S C19S 0.0(6) . . . . ? 
C17S C18S C19S C20S 0.2(8) . . . . ? 
C18S C19S C20S C15S -0.3(9) . . . . ? 
C16S C15S C20S C19S 0.3(6) . . . . ? 
C21S C15S C20S C19S -179.6(5) . . . . ? 
 
_diffrn_measured_fraction_theta_max    0.942 
_diffrn_reflns_theta_full              68.21 
_diffrn_measured_fraction_theta_full   0.942 
_refine_diff_density_max    0.442 
_refine_diff_density_min   -0.572 
_refine_diff_density_rms    0.080 
