 
data_x10196 
 
_audit_creation_method            SHELXL-97 
_chemical_name_systematic 
; 
 ? 
; 
_chemical_name_common             ? 
_chemical_melting_point           ? 
_chemical_formula_moiety 
 'C56 H76 N2 O2 S2 Si2' 
_chemical_formula_sum 
 'C56 H76 N2 O2 S2 Si2' 
_chemical_formula_weight          929.49 
 
loop_ 
 _atom_type_symbol 
 _atom_type_description 
 _atom_type_scat_dispersion_real 
 _atom_type_scat_dispersion_imag 
 _atom_type_scat_source 
 'C'  'C'   0.0181   0.0091 
 'International Tables Vol C Tables 4.2.6.8 and 6.1.1.4' 
 'H'  'H'   0.0000   0.0000 
 'International Tables Vol C Tables 4.2.6.8 and 6.1.1.4' 
 'N'  'N'   0.0311   0.0180 
 'International Tables Vol C Tables 4.2.6.8 and 6.1.1.4' 
 'O'  'O'   0.0492   0.0322 
 'International Tables Vol C Tables 4.2.6.8 and 6.1.1.4' 
 'Si'  'Si'   0.2541   0.3302 
 'International Tables Vol C Tables 4.2.6.8 and 6.1.1.4' 
 'S'  'S'   0.3331   0.5567 
 'International Tables Vol C Tables 4.2.6.8 and 6.1.1.4' 
 
_symmetry_cell_setting            triclinic 
_symmetry_space_group_name_H-M    'P -1'
_symmetry_space_group_name_Hall   '-P 1'
 
loop_ 
 _symmetry_equiv_pos_as_xyz 
 'x, y, z' 
 '-x, -y, -z' 
 
_cell_length_a                    8.7194(2) 
_cell_length_b                    9.5036(2) 
_cell_length_c                    16.9072(3) 
_cell_angle_alpha                 92.701(1) 
_cell_angle_beta                  101.738(1) 
_cell_angle_gamma                 107.103(1) 
_cell_volume                      1302.48(5) 
_cell_formula_units_Z             1 
_cell_measurement_temperature     90.0(2) 
_cell_measurement_reflns_used     8936 
_cell_measurement_theta_min       2.69
_cell_measurement_theta_max       68.51
 
_exptl_crystal_description        'wedge'
_exptl_crystal_colour             blue
_exptl_crystal_size_max           0.12 
_exptl_crystal_size_mid           0.08 
_exptl_crystal_size_min           0.04 
_exptl_crystal_density_meas       ? 
_exptl_crystal_density_diffrn     1.185 
_exptl_crystal_density_method     'not measured' 
_exptl_crystal_F_000              502 
_exptl_absorpt_coefficient_mu     1.683 
_exptl_absorpt_correction_type    multi-scan 
_exptl_absorpt_correction_T_min   0.813 
_exptl_absorpt_correction_T_max   0.936 
_exptl_absorpt_process_details    'Sadabs in APEX2 (BrukerAXS, 2006)' 
 
_exptl_special_details 
; 
 ? 
; 
 
_diffrn_ambient_temperature       90.0(2) 
_diffrn_radiation_wavelength      1.54178 
_diffrn_radiation_type            CuK\a 
_diffrn_radiation_source          'fine-focus rotating anode' 
_diffrn_radiation_monochromator   'graded multilayer optics' 
_diffrn_measurement_device_type   'Bruker X8 Proteum diffractometer'
_diffrn_measurement_method        '\f and \w scans'            
_diffrn_detector_area_resol_mean  5.6
_diffrn_standards_number          0 
_diffrn_standards_interval_count  . 
_diffrn_standards_interval_time   . 
_diffrn_standards_decay_%         ? 
_diffrn_reflns_number             18848 
_diffrn_reflns_av_R_equivalents   0.0400 
_diffrn_reflns_av_sigmaI/netI     0.0328 
_diffrn_reflns_limit_h_min        -10 
_diffrn_reflns_limit_h_max        10 
_diffrn_reflns_limit_k_min        -11 
_diffrn_reflns_limit_k_max        10 
_diffrn_reflns_limit_l_min        -19 
_diffrn_reflns_limit_l_max        20 
_diffrn_reflns_theta_min          2.69 
_diffrn_reflns_theta_max          68.54 
_reflns_number_total              4720 
_reflns_number_gt                 4263 
_reflns_threshold_expression      >2\s(I)    
 
_computing_data_collection        'APEX2 (Bruker-AXS, 2006)'            
_computing_cell_refinement        'APEX2'
_computing_data_reduction         'APEX2'
_computing_structure_solution     'SHELXS-97 (Sheldrick, 2008)' 
_computing_structure_refinement   'SHELXL-97 (Sheldrick, 2008)' 
_computing_molecular_graphics     'XP in SHELXTL (Sheldrick, 2008)'
_computing_publication_material
; 
SHELX-97 (Sheldrick, 2008) and local procedures 
; 
 
_publ_section_exptl_refinement
;
H atoms were found in difference Fourier maps and subsequently placed 
in idealized positions with constrained distances of 0.98 \%A (RCH~3~), 
0.99 \%A (R~2~CH~2~), 1.00 \%A (R~3~CH), 0.95 \%A (C~Ar~H), and with 
U~iso~(H) values set to either 1.2U~eq~ or 1.5U~eq~ (RCH~3~) of the 
attached atom. 

The structure is extensively disordered, in more than one way.  The 
anthradithiophene moiety is disordered by a roughly 180 degree flip.  
This kind of disorder is common in ADTs that have large substituents 
at the ends, but is rare in ADTs with such large substituents.  The 
sec-butyl groups are also disordered, but with very different major to 
minor component ratios.  

To ensure proper refinement of the disordered groups, a number of 
constraints and restraints were used in the refinement.  The SHELXL-97 
commands used were EXYZ and EADP (constraints), as well as SAME, SIMU, 
DELU an ISOR (restraints).  It should be stressed that the disorder 
model of the pyrrolidine ring is justan approximation.  In reality the 
disorder is likely to be more complicated.
;

_refine_special_details 
; 
 Refinement of F^2^ against ALL reflections.  The weighted R-factor wR and 
 goodness of fit S are based on F^2^, conventional R-factors R are based 
 on F, with F set to zero for negative F^2^. The threshold expression of 
 F^2^ > 2\s(F^2^) is used only for calculating R-factors(gt) etc. and is 
 not relevant to the choice of reflections for refinement.  R-factors based 
 on F^2^ are statistically about twice as large as those based on F, and R- 
 factors based on ALL data will be even larger. 
; 
 
_refine_ls_structure_factor_coef  Fsqd  
_refine_ls_matrix_type            full 
_refine_ls_weighting_scheme       calc  
_refine_ls_weighting_details 
 'calc w=1/[\s^2^(Fo^2^)+(0.0713P)^2^+2.1437P] where P=(Fo^2^+2Fc^2^)/3' 
_atom_sites_solution_primary      direct 
_atom_sites_solution_secondary    difmap 
_atom_sites_solution_hydrogens    geom 
_refine_ls_hydrogen_treatment     constr 
_refine_ls_extinction_method      none 
_refine_ls_extinction_coef        ? 
_refine_ls_number_reflns          4720 
_refine_ls_number_parameters      340 
_refine_ls_number_restraints      336 
_refine_ls_R_factor_all           0.0745 
_refine_ls_R_factor_gt            0.0697 
_refine_ls_wR_factor_ref          0.1837 
_refine_ls_wR_factor_gt           0.1805 
_refine_ls_goodness_of_fit_ref    1.119 
_refine_ls_restrained_S_all       1.110 
_refine_ls_shift/su_max           0.000 
_refine_ls_shift/su_mean          0.000 
 
loop_ 
 _atom_site_label 
 _atom_site_type_symbol 
 _atom_site_fract_x 
 _atom_site_fract_y 
 _atom_site_fract_z 
 _atom_site_U_iso_or_equiv 
 _atom_site_adp_type 
 _atom_site_occupancy 
 _atom_site_symmetry_multiplicity 
 _atom_site_calc_flag 
 _atom_site_refinement_flags 
 _atom_site_disorder_assembly 
 _atom_site_disorder_group 
Si1 Si 0.15407(11) 0.25852(10) 0.16358(5) 0.0370(3) Uani 1 1 d . . . 
C1 C 0.4277(3) 0.4475(3) 0.41737(17) 0.0245(6) Uani 1 1 d . . . 
C2 C 0.5745(3) 0.4186(3) 0.45430(17) 0.0242(6) Uani 1 1 d . B . 
C3 C 0.6492(3) 0.3380(3) 0.41085(18) 0.0275(6) Uani 1 1 d . . . 
H3 H 0.6015 0.3025 0.3551 0.033 Uiso 1 1 calc R A 1 
C4 C 0.7913(3) 0.3105(3) 0.44900(18) 0.0279(6) Uani 0.813(3) 1 d PDU B 1 
S5 S 0.90412(11) 0.21415(10) 0.40476(6) 0.0267(3) Uani 0.813(3) 1 d PDU B 1 
C6 C 1.0416(8) 0.2366(10) 0.5003(5) 0.0269(9) Uani 0.813(3) 1 d PDU B 1 
C7 C 1.0042(8) 0.3151(8) 0.5576(3) 0.0292(10) Uani 0.813(3) 1 d PDU B 1 
H7 H 1.0694 0.3386 0.6117 0.035 Uiso 0.813(3) 1 calc PR B 1 
C8 C 0.8625(3) 0.3614(3) 0.53341(18) 0.0278(6) Uani 0.813(3) 1 d PDU B 1 
C4' C 0.7913(3) 0.3105(3) 0.44900(18) 0.0279(6) Uani 0.187(3) 1 d PDU B 2 
C5' C 0.895(2) 0.232(2) 0.4328(10) 0.0267(3) Uani 0.187(3) 1 d PDU B 2 
H5' H 0.8781 0.1844 0.3796 0.032 Uiso 0.187(3) 1 calc PR B 2 
C6' C 1.020(4) 0.223(5) 0.4922(17) 0.0269(9) Uani 0.187(3) 1 d PDU B 2 
S7' S 1.0258(9) 0.3156(8) 0.5882(4) 0.0292(10) Uani 0.187(3) 1 d PDU B 2 
C8' C 0.8625(3) 0.3614(3) 0.53341(18) 0.0278(6) Uani 0.187(3) 1 d PDU B 2 
C9 C 0.7926(3) 0.4410(3) 0.57655(17) 0.0269(6) Uani 1 1 d . . . 
H9 H 0.8418 0.4753 0.6323 0.032 Uiso 1 1 calc R B 1 
C10 C 0.6477(3) 0.4726(3) 0.53884(17) 0.0238(6) Uani 1 1 d . . . 
C11 C 0.3508(3) 0.3924(3) 0.33393(18) 0.0276(6) Uani 1 1 d . . . 
C12 C 0.2799(4) 0.3458(3) 0.26486(18) 0.0334(7) Uani 1 1 d . B . 
C13 C -0.0617(5) 0.2599(5) 0.1638(3) 0.0538(10) Uani 1 1 d . B . 
H13 H -0.0861 0.2134 0.2135 0.065 Uiso 1 1 calc R . . 
C14 C -0.1923(6) 0.1584(6) 0.0933(4) 0.0854(16) Uani 1 1 d . . . 
H14A H -0.3020 0.1583 0.0989 0.128 Uiso 1 1 calc R B . 
H14B H -0.1853 0.0574 0.0942 0.128 Uiso 1 1 calc R . . 
H14C H -0.1733 0.1944 0.0417 0.128 Uiso 1 1 calc R . . 
C15 C -0.0778(5) 0.4120(5) 0.1764(3) 0.0641(11) Uani 1 1 d . . . 
H15A H -0.0765 0.4563 0.1246 0.077 Uiso 1 1 calc R B . 
H15B H 0.0210 0.4737 0.2170 0.077 Uiso 1 1 calc R . . 
C16 C -0.2283(6) 0.4226(7) 0.2043(3) 0.0794(15) Uani 1 1 d . B . 
H16A H -0.3278 0.3595 0.1660 0.119 Uiso 1 1 calc R . . 
H16B H -0.2292 0.5256 0.2066 0.119 Uiso 1 1 calc R . . 
H16C H -0.2257 0.3896 0.2585 0.119 Uiso 1 1 calc R . . 
C17 C 0.2523(17) 0.3713(8) 0.0869(4) 0.0528(14) Uani 0.813(3) 1 d PDU B 1 
H17 H 0.3643 0.3591 0.0947 0.063 Uiso 0.813(3) 1 calc PR B 1 
C18 C 0.1660(8) 0.3050(7) -0.0004(3) 0.0650(16) Uani 0.813(3) 1 d PDU B 1 
H18A H 0.0554 0.3156 -0.0129 0.098 Uiso 0.813(3) 1 calc PR B 1 
H18B H 0.1572 0.1997 -0.0067 0.098 Uiso 0.813(3) 1 calc PR B 1 
H18C H 0.2297 0.3570 -0.0376 0.098 Uiso 0.813(3) 1 calc PR B 1 
C19 C 0.2838(11) 0.5364(8) 0.1024(4) 0.0647(15) Uani 0.813(3) 1 d PDU B 1 
H19A H 0.3167 0.5654 0.1619 0.078 Uiso 0.813(3) 1 calc PR B 1 
H19B H 0.1790 0.5574 0.0820 0.078 Uiso 0.813(3) 1 calc PR B 1 
C20 C 0.4146(8) 0.6339(7) 0.0640(4) 0.0797(17) Uani 0.813(3) 1 d PDU B 1 
H20A H 0.5236 0.6307 0.0917 0.120 Uiso 0.813(3) 1 calc PR B 1 
H20B H 0.4118 0.7362 0.0693 0.120 Uiso 0.813(3) 1 calc PR B 1 
H20C H 0.3928 0.5977 0.0063 0.120 Uiso 0.813(3) 1 calc PR B 1 
C17' C 0.250(8) 0.341(4) 0.0829(18) 0.0528(14) Uani 0.187(3) 1 d PDU B 2 
H17' H 0.3669 0.3432 0.1011 0.063 Uiso 0.187(3) 1 calc PR B 2 
C18' C 0.263(6) 0.502(4) 0.076(2) 0.0647(15) Uani 0.187(3) 1 d PDU B 2 
H18D H 0.3018 0.5577 0.1307 0.097 Uiso 0.187(3) 1 calc PR B 2 
H18E H 0.1539 0.5099 0.0514 0.097 Uiso 0.187(3) 1 calc PR B 2 
H18F H 0.3402 0.5436 0.0425 0.097 Uiso 0.187(3) 1 calc PR B 2 
C19' C 0.191(4) 0.246(3) 0.0008(15) 0.0650(16) Uani 0.187(3) 1 d PDU B 2 
H19C H 0.1843 0.1419 0.0097 0.078 Uiso 0.187(3) 1 calc PR B 2 
H19D H 0.0790 0.2469 -0.0249 0.078 Uiso 0.187(3) 1 calc PR B 2 
C20' C 0.305(2) 0.298(2) -0.0568(11) 0.045(4) Uiso 0.187(3) 1 d PDU B 2 
H20D H 0.2612 0.2334 -0.1085 0.067 Uiso 0.187(3) 1 calc PR B 2 
H20E H 0.4150 0.2943 -0.0324 0.067 Uiso 0.187(3) 1 calc PR B 2 
H20F H 0.3102 0.4000 -0.0667 0.067 Uiso 0.187(3) 1 calc PR B 2 
C21 C 0.1630(5) 0.0626(4) 0.1545(2) 0.0482(9) Uani 1 1 d . B . 
H21 H 0.0868 0.0104 0.1020 0.058 Uiso 1 1 calc R . . 
C22 C 0.3356(6) 0.0571(5) 0.1515(3) 0.0679(12) Uani 1 1 d . . . 
H22A H 0.4121 0.1012 0.2037 0.102 Uiso 1 1 calc R B . 
H22B H 0.3731 0.1128 0.1080 0.102 Uiso 1 1 calc R . . 
H22C H 0.3322 -0.0462 0.1409 0.102 Uiso 1 1 calc R . . 
C23 C 0.1008(6) -0.0198(5) 0.2230(3) 0.0618(11) Uani 1 1 d . . . 
H23A H 0.1766 0.0299 0.2753 0.074 Uiso 1 1 calc R B . 
H23B H -0.0085 -0.0092 0.2238 0.074 Uiso 1 1 calc R . . 
C24 C 0.0850(8) -0.1821(6) 0.2187(3) 0.0881(16) Uani 1 1 d . B . 
H24A H -0.0063 -0.2366 0.1734 0.132 Uiso 1 1 calc R . . 
H24B H 0.0633 -0.2193 0.2697 0.132 Uiso 1 1 calc R . . 
H24C H 0.1876 -0.1961 0.2102 0.132 Uiso 1 1 calc R . . 
C25 C 1.1564(15) 0.1591(17) 0.4880(5) 0.0295(11) Uani 0.553(6) 1 d PDU B 1 
O1 O 1.1477(12) 0.0960(14) 0.4220(5) 0.0397(14) Uani 0.553(6) 1 d PDU B 1 
N1 N 1.2787(13) 0.1610(15) 0.5527(4) 0.0320(11) Uani 0.553(6) 1 d PDU B 1 
C26 C 1.3064(13) 0.2198(15) 0.6375(5) 0.0390(16) Uani 0.553(6) 1 d PDU B 1 
H26A H 1.2175 0.1617 0.6621 0.047 Uiso 0.553(6) 1 calc PR B 1 
H26B H 1.3076 0.3244 0.6411 0.047 Uiso 0.553(6) 1 calc PR B 1 
C27 C 1.4753(8) 0.2084(8) 0.6828(4) 0.0489(12) Uani 0.553(6) 1 d PDU B 1 
H27A H 1.5664 0.2998 0.6829 0.059 Uiso 0.553(6) 1 calc PR B 1 
H27B H 1.4750 0.1864 0.7394 0.059 Uiso 0.553(6) 1 calc PR B 1 
C28 C 1.4852(11) 0.0797(10) 0.6308(5) 0.0538(16) Uani 0.553(6) 1 d PDU B 1 
H28A H 1.4297 -0.0150 0.6497 0.065 Uiso 0.553(6) 1 calc PR B 1 
H28B H 1.6019 0.0861 0.6342 0.065 Uiso 0.553(6) 1 calc PR B 1 
C29 C 1.3996(12) 0.0865(11) 0.5425(5) 0.0380(13) Uani 0.553(6) 1 d PDU B 1 
H29A H 1.4792 0.1442 0.5127 0.046 Uiso 0.553(6) 1 calc PR B 1 
H29B H 1.3450 -0.0141 0.5130 0.046 Uiso 0.553(6) 1 calc PR B 1 
C25' C 1.1831(19) 0.167(2) 0.5024(7) 0.0295(11) Uani 0.447(6) 1 d PDU B 2 
O1' O 1.1862(16) 0.1108(17) 0.4362(7) 0.0397(14) Uani 0.447(6) 1 d PDU B 2 
N1' N 1.2936(17) 0.1744(19) 0.5716(6) 0.0320(11) Uani 0.447(6) 1 d PDU B 2 
C26' C 1.2864(17) 0.2125(19) 0.6544(6) 0.0390(16) Uani 0.447(6) 1 d PDU B 2 
H26C H 1.1726 0.1754 0.6624 0.047 Uiso 0.447(6) 1 calc PR B 2 
H26D H 1.3304 0.3209 0.6704 0.047 Uiso 0.447(6) 1 calc PR B 2 
C27' C 1.3978(10) 0.1313(10) 0.7011(5) 0.0489(12) Uani 0.447(6) 1 d PDU B 2 
H27C H 1.4517 0.1832 0.7564 0.059 Uiso 0.447(6) 1 calc PR B 2 
H27D H 1.3333 0.0284 0.7056 0.059 Uiso 0.447(6) 1 calc PR B 2 
C28' C 1.5204(12) 0.1326(13) 0.6532(6) 0.0538(16) Uani 0.447(6) 1 d PDU B 2 
H28C H 1.5718 0.0540 0.6665 0.065 Uiso 0.447(6) 1 calc PR B 2 
H28D H 1.6078 0.2298 0.6633 0.065 Uiso 0.447(6) 1 calc PR B 2 
C29' C 1.4237(15) 0.1042(15) 0.5671(6) 0.0380(13) Uani 0.447(6) 1 d PDU B 2 
H29C H 1.4927 0.1513 0.5299 0.046 Uiso 0.447(6) 1 calc PR B 2 
H29D H 1.3753 -0.0033 0.5490 0.046 Uiso 0.447(6) 1 calc PR B 2 
 
loop_ 
 _atom_site_aniso_label 
 _atom_site_aniso_U_11 
 _atom_site_aniso_U_22 
 _atom_site_aniso_U_33 
 _atom_site_aniso_U_23 
 _atom_site_aniso_U_13 
 _atom_site_aniso_U_12 
Si1 0.0380(5) 0.0388(5) 0.0277(4) 0.0001(3) -0.0034(3) 0.0102(4) 
C1 0.0242(13) 0.0178(12) 0.0274(14) 0.0047(10) 0.0024(11) 0.0022(10) 
C2 0.0218(13) 0.0167(12) 0.0304(14) 0.0052(10) 0.0029(11) 0.0019(10) 
C3 0.0253(14) 0.0209(13) 0.0330(15) 0.0030(11) 0.0051(11) 0.0033(11) 
C4 0.0244(13) 0.0178(12) 0.0390(15) 0.0031(10) 0.0069(11) 0.0032(10) 
S5 0.0268(4) 0.0224(4) 0.0304(5) -0.0019(4) 0.0078(4) 0.0069(3) 
C6 0.027(2) 0.018(2) 0.0358(19) 0.0037(13) 0.0077(14) 0.007(2) 
C7 0.0208(17) 0.0239(10) 0.043(3) 0.007(2) 0.000(2) 0.0109(11) 
C8 0.0227(13) 0.0181(12) 0.0404(15) 0.0070(11) 0.0038(11) 0.0047(10) 
C4' 0.0244(13) 0.0178(12) 0.0390(15) 0.0031(10) 0.0069(11) 0.0032(10) 
C5' 0.0268(4) 0.0224(4) 0.0304(5) -0.0019(4) 0.0078(4) 0.0069(3) 
C6' 0.027(2) 0.018(2) 0.0358(19) 0.0037(13) 0.0077(14) 0.007(2) 
S7' 0.0208(17) 0.0239(10) 0.043(3) 0.007(2) 0.000(2) 0.0109(11) 
C8' 0.0227(13) 0.0181(12) 0.0404(15) 0.0070(11) 0.0038(11) 0.0047(10) 
C9 0.0235(13) 0.0208(13) 0.0306(15) 0.0050(11) -0.0017(11) 0.0033(10) 
C10 0.0226(13) 0.0149(12) 0.0303(14) 0.0048(10) 0.0028(11) 0.0022(10) 
C11 0.0252(14) 0.0227(13) 0.0350(16) 0.0054(11) 0.0063(12) 0.0079(11) 
C12 0.0355(16) 0.0323(15) 0.0303(16) 0.0034(12) 0.0024(13) 0.0110(13) 
C13 0.0370(19) 0.058(2) 0.059(2) 0.0017(18) -0.0023(17) 0.0126(17) 
C14 0.049(3) 0.090(4) 0.096(4) -0.017(3) -0.015(3) 0.015(2) 
C15 0.047(2) 0.080(3) 0.065(3) 0.007(2) 0.003(2) 0.027(2) 
C16 0.073(3) 0.103(4) 0.082(3) 0.032(3) 0.029(3) 0.047(3) 
C17 0.060(2) 0.056(4) 0.037(2) 0.007(2) 0.0073(18) 0.013(3) 
C18 0.070(3) 0.073(4) 0.040(2) 0.010(3) 0.003(2) 0.009(3) 
C19 0.077(3) 0.063(4) 0.056(4) 0.015(3) 0.017(3) 0.021(3) 
C20 0.088(4) 0.074(4) 0.082(4) 0.023(3) 0.029(3) 0.024(3) 
C17' 0.060(2) 0.056(4) 0.037(2) 0.007(2) 0.0073(18) 0.013(3) 
C18' 0.077(3) 0.063(4) 0.056(4) 0.015(3) 0.017(3) 0.021(3) 
C19' 0.070(3) 0.073(4) 0.040(2) 0.010(3) 0.003(2) 0.009(3) 
C21 0.054(2) 0.0436(19) 0.0385(18) -0.0074(15) -0.0022(16) 0.0121(16) 
C22 0.072(3) 0.063(3) 0.074(3) 0.000(2) 0.013(2) 0.031(2) 
C23 0.079(3) 0.048(2) 0.058(2) 0.0076(18) 0.012(2) 0.022(2) 
C24 0.108(4) 0.067(3) 0.078(4) 0.007(3) 0.004(3) 0.022(3) 
C25 0.032(3) 0.0240(17) 0.036(3) 0.007(2) 0.013(2) 0.010(2) 
O1 0.049(4) 0.036(2) 0.041(3) 0.0050(19) 0.018(2) 0.020(3) 
N1 0.0284(18) 0.030(2) 0.043(3) 0.011(3) 0.009(2) 0.0153(17) 
C26 0.037(2) 0.043(2) 0.040(3) 0.011(2) 0.007(2) 0.017(2) 
C27 0.043(2) 0.046(2) 0.055(2) 0.016(2) 0.0027(19) 0.0145(19) 
C28 0.046(3) 0.051(3) 0.062(3) 0.007(2) -0.001(2) 0.021(3) 
C29 0.036(2) 0.033(2) 0.052(3) 0.014(3) 0.016(2) 0.0152(19) 
C25' 0.032(3) 0.0240(17) 0.036(3) 0.007(2) 0.013(2) 0.010(2) 
O1' 0.049(4) 0.036(2) 0.041(3) 0.0050(19) 0.018(2) 0.020(3) 
N1' 0.0284(18) 0.030(2) 0.043(3) 0.011(3) 0.009(2) 0.0153(17) 
C26' 0.037(2) 0.043(2) 0.040(3) 0.011(2) 0.007(2) 0.017(2) 
C27' 0.043(2) 0.046(2) 0.055(2) 0.016(2) 0.0027(19) 0.0145(19) 
C28' 0.046(3) 0.051(3) 0.062(3) 0.007(2) -0.001(2) 0.021(3) 
C29' 0.036(2) 0.033(2) 0.052(3) 0.014(3) 0.016(2) 0.0152(19) 
 
_geom_special_details 
; 
 All esds (except the esd in the dihedral angle between two l.s. planes) 
 are estimated using the full covariance matrix.  The cell esds are taken 
 into account individually in the estimation of esds in distances, angles 
 and torsion angles; correlations between esds in cell parameters are only 
 used when they are defined by crystal symmetry.  An approximate (isotropic) 
 treatment of cell esds is used for estimating esds involving l.s. planes. 
; 
 
loop_ 
 _geom_bond_atom_site_label_1 
 _geom_bond_atom_site_label_2 
 _geom_bond_distance 
 _geom_bond_site_symmetry_2 
 _geom_bond_publ_flag 
Si1 C17' 1.83(4) . ? 
Si1 C12 1.841(3) . ? 
Si1 C13 1.886(4) . ? 
Si1 C21 1.887(4) . ? 
Si1 C17 1.898(9) . ? 
C1 C10 1.413(4) 2_666 ? 
C1 C2 1.415(4) . ? 
C1 C11 1.433(4) . ? 
C2 C3 1.409(4) . ? 
C2 C10 1.442(4) . ? 
C3 C4 1.378(4) . ? 
C3 H3 0.9500 . ? 
C4 C8 1.433(4) . ? 
C4 S5 1.770(3) . ? 
S5 C6 1.767(6) . ? 
C6 C7 1.344(9) . ? 
C6 C25 1.447(13) . ? 
C7 C8 1.421(7) . ? 
C7 H7 0.9500 . ? 
C8 C9 1.369(4) . ? 
C5' C6' 1.352(19) . ? 
C5' H5' 0.9500 . ? 
C6' C25' 1.64(2) . ? 
C6' S7' 1.80(2) . ? 
C9 C10 1.417(4) . ? 
C9 H9 0.9500 . ? 
C10 C1 1.413(4) 2_666 ? 
C11 C12 1.199(4) . ? 
C13 C15 1.503(6) . ? 
C13 C14 1.529(6) . ? 
C13 H13 1.0000 . ? 
C14 H14A 0.9800 . ? 
C14 H14B 0.9800 . ? 
C14 H14C 0.9800 . ? 
C15 C16 1.510(6) . ? 
C15 H15A 0.9900 . ? 
C15 H15B 0.9900 . ? 
C16 H16A 0.9800 . ? 
C16 H16B 0.9800 . ? 
C16 H16C 0.9800 . ? 
C17 C19 1.512(9) . ? 
C17 C18 1.524(9) . ? 
C17 H17 1.0000 . ? 
C18 H18A 0.9800 . ? 
C18 H18B 0.9800 . ? 
C18 H18C 0.9800 . ? 
C19 C20 1.522(10) . ? 
C19 H19A 0.9900 . ? 
C19 H19B 0.9900 . ? 
C20 H20A 0.9800 . ? 
C20 H20B 0.9800 . ? 
C20 H20C 0.9800 . ? 
C17' C18' 1.52(2) . ? 
C17' C19' 1.53(2) . ? 
C17' H17' 1.0000 . ? 
C18' H18D 0.9800 . ? 
C18' H18E 0.9800 . ? 
C18' H18F 0.9800 . ? 
C19' C20' 1.52(2) . ? 
C19' H19C 0.9900 . ? 
C19' H19D 0.9900 . ? 
C20' H20D 0.9800 . ? 
C20' H20E 0.9800 . ? 
C20' H20F 0.9800 . ? 
C21 C23 1.529(6) . ? 
C21 C22 1.532(6) . ? 
C21 H21 1.0000 . ? 
C22 H22A 0.9800 . ? 
C22 H22B 0.9800 . ? 
C22 H22C 0.9800 . ? 
C23 C24 1.504(6) . ? 
C23 H23A 0.9900 . ? 
C23 H23B 0.9900 . ? 
C24 H24A 0.9800 . ? 
C24 H24B 0.9800 . ? 
C24 H24C 0.9800 . ? 
C25 O1 1.220(9) . ? 
C25 N1 1.359(8) . ? 
N1 C26 1.459(8) . ? 
N1 C29 1.465(9) . ? 
C26 C27 1.552(9) . ? 
C26 H26A 0.9900 . ? 
C26 H26B 0.9900 . ? 
C27 C28 1.506(10) . ? 
C27 H27A 0.9900 . ? 
C27 H27B 0.9900 . ? 
C28 C29 1.541(9) . ? 
C28 H28A 0.9900 . ? 
C28 H28B 0.9900 . ? 
C29 H29A 0.9900 . ? 
C29 H29B 0.9900 . ? 
C25' O1' 1.224(11) . ? 
C25' N1' 1.341(10) . ? 
N1' C26' 1.447(10) . ? 
N1' C29' 1.488(10) . ? 
C26' C27' 1.532(11) . ? 
C26' H26C 0.9900 . ? 
C26' H26D 0.9900 . ? 
C27' C28' 1.464(12) . ? 
C27' H27C 0.9900 . ? 
C27' H27D 0.9900 . ? 
C28' C29' 1.494(11) . ? 
C28' H28C 0.9900 . ? 
C28' H28D 0.9900 . ? 
C29' H29C 0.9900 . ? 
C29' H29D 0.9900 . ? 
 
loop_ 
 _geom_angle_atom_site_label_1 
 _geom_angle_atom_site_label_2 
 _geom_angle_atom_site_label_3 
 _geom_angle 
 _geom_angle_site_symmetry_1 
 _geom_angle_site_symmetry_3 
 _geom_angle_publ_flag 
C17' Si1 C12 111.3(15) . . ? 
C17' Si1 C13 118.6(18) . . ? 
C12 Si1 C13 105.71(17) . . ? 
C17' Si1 C21 103.6(12) . . ? 
C12 Si1 C21 106.30(15) . . ? 
C13 Si1 C21 110.75(18) . . ? 
C12 Si1 C17 106.5(3) . . ? 
C13 Si1 C17 114.9(4) . . ? 
C21 Si1 C17 112.1(3) . . ? 
C10 C1 C2 121.7(3) 2_666 . ? 
C10 C1 C11 118.7(2) 2_666 . ? 
C2 C1 C11 119.7(3) . . ? 
C3 C2 C1 121.7(3) . . ? 
C3 C2 C10 119.7(2) . . ? 
C1 C2 C10 118.6(3) . . ? 
C4 C3 C2 120.2(3) . . ? 
C4 C3 H3 119.9 . . ? 
C2 C3 H3 119.9 . . ? 
C3 C4 C8 120.3(3) . . ? 
C3 C4 S5 126.9(2) . . ? 
C8 C4 S5 112.9(2) . . ? 
C6 S5 C4 89.50(19) . . ? 
C7 C6 C25 142.3(6) . . ? 
C7 C6 S5 112.2(4) . . ? 
C25 C6 S5 105.5(5) . . ? 
C6 C7 C8 116.7(5) . . ? 
C6 C7 H7 121.6 . . ? 
C8 C7 H7 121.6 . . ? 
C9 C8 C7 130.8(3) . . ? 
C9 C8 C4 120.5(2) . . ? 
C7 C8 C4 108.7(3) . . ? 
C6' C5' H5' 119.8 . . ? 
C5' C6' C25' 139.1(19) . . ? 
C5' C6' S7' 112.2(13) . . ? 
C25' C6' S7' 108.3(12) . . ? 
C8 C9 C10 120.6(3) . . ? 
C8 C9 H9 119.7 . . ? 
C10 C9 H9 119.7 . . ? 
C1 C10 C9 121.5(3) 2_666 . ? 
C1 C10 C2 119.7(2) 2_666 . ? 
C9 C10 C2 118.8(3) . . ? 
C12 C11 C1 177.1(3) . . ? 
C11 C12 Si1 173.5(3) . . ? 
C15 C13 C14 114.1(4) . . ? 
C15 C13 Si1 114.3(3) . . ? 
C14 C13 Si1 113.3(3) . . ? 
C15 C13 H13 104.5 . . ? 
C14 C13 H13 104.5 . . ? 
Si1 C13 H13 104.5 . . ? 
C13 C14 H14A 109.5 . . ? 
C13 C14 H14B 109.5 . . ? 
H14A C14 H14B 109.5 . . ? 
C13 C14 H14C 109.5 . . ? 
H14A C14 H14C 109.5 . . ? 
H14B C14 H14C 109.5 . . ? 
C13 C15 C16 117.0(4) . . ? 
C13 C15 H15A 108.0 . . ? 
C16 C15 H15A 108.0 . . ? 
C13 C15 H15B 108.0 . . ? 
C16 C15 H15B 108.0 . . ? 
H15A C15 H15B 107.3 . . ? 
C15 C16 H16A 109.5 . . ? 
C15 C16 H16B 109.5 . . ? 
H16A C16 H16B 109.5 . . ? 
C15 C16 H16C 109.5 . . ? 
H16A C16 H16C 109.5 . . ? 
H16B C16 H16C 109.5 . . ? 
C19 C17 C18 114.1(5) . . ? 
C19 C17 Si1 114.9(6) . . ? 
C18 C17 Si1 112.0(6) . . ? 
C19 C17 H17 104.8 . . ? 
C18 C17 H17 104.8 . . ? 
Si1 C17 H17 104.8 . . ? 
C17 C19 C20 116.0(7) . . ? 
C17 C19 H19A 108.3 . . ? 
C20 C19 H19A 108.3 . . ? 
C17 C19 H19B 108.3 . . ? 
C20 C19 H19B 108.3 . . ? 
H19A C19 H19B 107.4 . . ? 
C18' C17' C19' 113(2) . . ? 
C18' C17' Si1 116(3) . . ? 
C19' C17' Si1 115(3) . . ? 
C18' C17' H17' 103.5 . . ? 
C19' C17' H17' 103.5 . . ? 
Si1 C17' H17' 103.5 . . ? 
C17' C18' H18D 109.5 . . ? 
C17' C18' H18E 109.5 . . ? 
H18D C18' H18E 109.5 . . ? 
C17' C18' H18F 109.5 . . ? 
H18D C18' H18F 109.5 . . ? 
H18E C18' H18F 109.5 . . ? 
C20' C19' C17' 113(2) . . ? 
C20' C19' H19C 109.0 . . ? 
C17' C19' H19C 109.0 . . ? 
C20' C19' H19D 109.0 . . ? 
C17' C19' H19D 109.0 . . ? 
H19C C19' H19D 107.8 . . ? 
C19' C20' H20D 109.5 . . ? 
C19' C20' H20E 109.5 . . ? 
H20D C20' H20E 109.5 . . ? 
C19' C20' H20F 109.5 . . ? 
H20D C20' H20F 109.5 . . ? 
H20E C20' H20F 109.5 . . ? 
C23 C21 C22 111.4(4) . . ? 
C23 C21 Si1 110.7(3) . . ? 
C22 C21 Si1 112.2(3) . . ? 
C23 C21 H21 107.4 . . ? 
C22 C21 H21 107.4 . . ? 
Si1 C21 H21 107.4 . . ? 
C21 C22 H22A 109.5 . . ? 
C21 C22 H22B 109.5 . . ? 
H22A C22 H22B 109.5 . . ? 
C21 C22 H22C 109.5 . . ? 
H22A C22 H22C 109.5 . . ? 
H22B C22 H22C 109.5 . . ? 
C24 C23 C21 116.5(4) . . ? 
C24 C23 H23A 108.2 . . ? 
C21 C23 H23A 108.2 . . ? 
C24 C23 H23B 108.2 . . ? 
C21 C23 H23B 108.2 . . ? 
H23A C23 H23B 107.3 . . ? 
C23 C24 H24A 109.5 . . ? 
C23 C24 H24B 109.5 . . ? 
H24A C24 H24B 109.5 . . ? 
C23 C24 H24C 109.5 . . ? 
H24A C24 H24C 109.5 . . ? 
H24B C24 H24C 109.5 . . ? 
O1 C25 N1 120.2(10) . . ? 
O1 C25 C6 122.1(8) . . ? 
N1 C25 C6 117.6(8) . . ? 
C25 N1 C26 129.7(8) . . ? 
C25 N1 C29 119.4(7) . . ? 
C26 N1 C29 110.8(6) . . ? 
N1 C26 C27 107.5(6) . . ? 
N1 C26 H26A 110.2 . . ? 
C27 C26 H26A 110.2 . . ? 
N1 C26 H26B 110.2 . . ? 
C27 C26 H26B 110.2 . . ? 
H26A C26 H26B 108.5 . . ? 
C28 C27 C26 100.1(6) . . ? 
C28 C27 H27A 111.8 . . ? 
C26 C27 H27A 111.8 . . ? 
C28 C27 H27B 111.8 . . ? 
C26 C27 H27B 111.8 . . ? 
H27A C27 H27B 109.5 . . ? 
C27 C28 C29 107.8(6) . . ? 
C27 C28 H28A 110.2 . . ? 
C29 C28 H28A 110.2 . . ? 
C27 C28 H28B 110.2 . . ? 
C29 C28 H28B 110.2 . . ? 
H28A C28 H28B 108.5 . . ? 
N1 C29 C28 102.9(6) . . ? 
N1 C29 H29A 111.2 . . ? 
C28 C29 H29A 111.2 . . ? 
N1 C29 H29B 111.2 . . ? 
C28 C29 H29B 111.2 . . ? 
H29A C29 H29B 109.1 . . ? 
O1' C25' N1' 124.4(12) . . ? 
O1' C25' C6' 109.1(13) . . ? 
N1' C25' C6' 126.5(13) . . ? 
C25' N1' C26' 129.0(10) . . ? 
C25' N1' C29' 116.9(9) . . ? 
C26' N1' C29' 112.7(8) . . ? 
N1' C26' C27' 100.8(8) . . ? 
N1' C26' H26C 111.6 . . ? 
C27' C26' H26C 111.6 . . ? 
N1' C26' H26D 111.6 . . ? 
C27' C26' H26D 111.6 . . ? 
H26C C26' H26D 109.4 . . ? 
C28' C27' C26' 105.2(8) . . ? 
C28' C27' H27C 110.7 . . ? 
C26' C27' H27C 110.7 . . ? 
C28' C27' H27D 110.7 . . ? 
C26' C27' H27D 110.7 . . ? 
H27C C27' H27D 108.8 . . ? 
C27' C28' C29' 104.0(8) . . ? 
C27' C28' H28C 111.0 . . ? 
C29' C28' H28C 111.0 . . ? 
C27' C28' H28D 111.0 . . ? 
C29' C28' H28D 111.0 . . ? 
H28C C28' H28D 109.0 . . ? 
N1' C29' C28' 102.1(7) . . ? 
N1' C29' H29C 111.4 . . ? 
C28' C29' H29C 111.4 . . ? 
N1' C29' H29D 111.4 . . ? 
C28' C29' H29D 111.4 . . ? 
H29C C29' H29D 109.2 . . ? 
 
loop_ 
 _geom_torsion_atom_site_label_1 
 _geom_torsion_atom_site_label_2 
 _geom_torsion_atom_site_label_3 
 _geom_torsion_atom_site_label_4 
 _geom_torsion 
 _geom_torsion_site_symmetry_1 
 _geom_torsion_site_symmetry_2 
 _geom_torsion_site_symmetry_3 
 _geom_torsion_site_symmetry_4 
 _geom_torsion_publ_flag 
C10 C1 C2 C3 179.5(2) 2_666 . . . ? 
C11 C1 C2 C3 0.8(4) . . . . ? 
C10 C1 C2 C10 0.1(4) 2_666 . . . ? 
C11 C1 C2 C10 -178.7(2) . . . . ? 
C1 C2 C3 C4 -179.3(2) . . . . ? 
C10 C2 C3 C4 0.2(4) . . . . ? 
C2 C3 C4 C8 1.1(4) . . . . ? 
C2 C3 C4 S5 -179.1(2) . . . . ? 
C3 C4 S5 C6 -177.8(4) . . . . ? 
C8 C4 S5 C6 2.0(4) . . . . ? 
C4 S5 C6 C7 -2.2(8) . . . . ? 
C4 S5 C6 C25 177.1(9) . . . . ? 
C25 C6 C7 C8 -177.0(15) . . . . ? 
S5 C6 C7 C8 1.9(11) . . . . ? 
C6 C7 C8 C9 179.8(7) . . . . ? 
C6 C7 C8 C4 -0.3(9) . . . . ? 
C3 C4 C8 C9 -1.6(4) . . . . ? 
S5 C4 C8 C9 178.5(2) . . . . ? 
C3 C4 C8 C7 178.4(4) . . . . ? 
S5 C4 C8 C7 -1.4(4) . . . . ? 
C7 C8 C9 C10 -179.2(4) . . . . ? 
C4 C8 C9 C10 0.9(4) . . . . ? 
C8 C9 C10 C1 179.0(2) . . . 2_666 ? 
C8 C9 C10 C2 0.4(4) . . . . ? 
C3 C2 C10 C1 -179.6(2) . . . 2_666 ? 
C1 C2 C10 C1 -0.1(4) . . . 2_666 ? 
C3 C2 C10 C9 -0.9(4) . . . . ? 
C1 C2 C10 C9 178.6(2) . . . . ? 
C17' Si1 C13 C15 -64.3(13) . . . . ? 
C12 Si1 C13 C15 61.3(3) . . . . ? 
C21 Si1 C13 C15 176.1(3) . . . . ? 
C17 Si1 C13 C15 -55.7(4) . . . . ? 
C17' Si1 C13 C14 68.8(13) . . . . ? 
C12 Si1 C13 C14 -165.5(3) . . . . ? 
C21 Si1 C13 C14 -50.8(4) . . . . ? 
C17 Si1 C13 C14 77.4(4) . . . . ? 
C14 C13 C15 C16 66.6(6) . . . . ? 
Si1 C13 C15 C16 -160.7(3) . . . . ? 
C17' Si1 C17 C19 -177(15) . . . . ? 
C12 Si1 C17 C19 -51.2(8) . . . . ? 
C13 Si1 C17 C19 65.4(8) . . . . ? 
C21 Si1 C17 C19 -167.0(6) . . . . ? 
C17' Si1 C17 C18 51(14) . . . . ? 
C12 Si1 C17 C18 176.4(6) . . . . ? 
C13 Si1 C17 C18 -66.9(7) . . . . ? 
C21 Si1 C17 C18 60.6(8) . . . . ? 
C18 C17 C19 C20 -70.4(11) . . . . ? 
Si1 C17 C19 C20 158.2(7) . . . . ? 
C12 Si1 C17' C18' -65(4) . . . . ? 
C13 Si1 C17' C18' 58(4) . . . . ? 
C21 Si1 C17' C18' -179(3) . . . . ? 
C17 Si1 C17' C18' -8(12) . . . . ? 
C12 Si1 C17' C19' 160(3) . . . . ? 
C13 Si1 C17' C19' -77(3) . . . . ? 
C21 Si1 C17' C19' 46(4) . . . . ? 
C17 Si1 C17' C19' -144(17) . . . . ? 
C18' C17' C19' C20' 59(5) . . . . ? 
Si1 C17' C19' C20' -164(3) . . . . ? 
C17' Si1 C21 C23 175.1(18) . . . . ? 
C12 Si1 C21 C23 57.7(3) . . . . ? 
C13 Si1 C21 C23 -56.7(3) . . . . ? 
C17 Si1 C21 C23 173.6(5) . . . . ? 
C17' Si1 C21 C22 50.0(18) . . . . ? 
C12 Si1 C21 C22 -67.4(3) . . . . ? 
C13 Si1 C21 C22 178.2(3) . . . . ? 
C17 Si1 C21 C22 48.5(5) . . . . ? 
C22 C21 C23 C24 -60.4(5) . . . . ? 
Si1 C21 C23 C24 174.1(4) . . . . ? 
C7 C6 C25 O1 179.3(15) . . . . ? 
S5 C6 C25 O1 0.3(18) . . . . ? 
C7 C6 C25 N1 -2(3) . . . . ? 
S5 C6 C25 N1 179.0(12) . . . . ? 
O1 C25 N1 C26 -175.3(15) . . . . ? 
C6 C25 N1 C26 6(2) . . . . ? 
O1 C25 N1 C29 0(2) . . . . ? 
C6 C25 N1 C29 -178.8(12) . . . . ? 
C25 N1 C26 C27 -173.6(15) . . . . ? 
C29 N1 C26 C27 10.9(14) . . . . ? 
N1 C26 C27 C28 -26.9(11) . . . . ? 
C26 C27 C28 C29 33.2(9) . . . . ? 
C25 N1 C29 C28 -166.2(13) . . . . ? 
C26 N1 C29 C28 9.8(13) . . . . ? 
C27 C28 C29 N1 -27.8(11) . . . . ? 
C5' C6' C25' O1' -4(7) . . . . ? 
S7' C6' C25' O1' -176(2) . . . . ? 
C5' C6' C25' N1' 178(5) . . . . ? 
S7' C6' C25' N1' 6(5) . . . . ? 
O1' C25' N1' C26' -167.6(19) . . . . ? 
C6' C25' N1' C26' 10(4) . . . . ? 
O1' C25' N1' C29' -3(3) . . . . ? 
C6' C25' N1' C29' 175(3) . . . . ? 
C25' N1' C26' C27' 154.2(19) . . . . ? 
C29' N1' C26' C27' -11.3(17) . . . . ? 
N1' C26' C27' C28' 31.4(14) . . . . ? 
C26' C27' C28' C29' -40.1(12) . . . . ? 
C25' N1' C29' C28' -179.5(16) . . . . ? 
C26' N1' C29' C28' -12.1(18) . . . . ? 
C27' C28' C29' N1' 31.6(13) . . . . ? 
 
_diffrn_measured_fraction_theta_max    0.986 
_diffrn_reflns_theta_full              68.54 
_diffrn_measured_fraction_theta_full   0.986 
_refine_diff_density_max    0.762 
_refine_diff_density_min   -0.364 
_refine_diff_density_rms    0.069 
